# vtk DataFile Version 2.0
output of FEM program
ASCII

DATASET UNSTRUCTURED_GRID
POINTS 4 float
    0.000000e+00    0.000000e+00    0.000000e+00
    1.000000e+00    0.000000e+00    0.000000e+00
    0.000000e+00    1.000000e+00    0.000000e+00
    1.000000e+00    1.000000e+00    0.000000e+00

CELLS 2 8
       3       0       1       2
       3       1       3       2

CELL_TYPES 2
       5
       5

POINT_DATA 4
VECTORS displacement float
    0.000000e+00    0.000000e+00    0.000000e+00
   -3.000001e-04    0.000000e+00    0.000000e+00
   -1.164153e-10    1.000000e-03    0.000000e+00
   -3.000002e-04    1.000000e-03    0.000000e+00

CELL_DATA 2
SCALARS mises_stress float
LOOKUP_TABLE default
    2.000000e+00
    2.000000e+00

