# vtk DataFile Version 2.0
output of FEM program
ASCII

DATASET UNSTRUCTURED_GRID
POINTS 146 float
    0.000000e+00    2.875000e+01    0.000000e+00
    2.625000e+01    2.875000e+01    0.000000e+00
    0.000000e+00    5.000000e+00    0.000000e+00
    4.755282e+00    1.545085e+00    0.000000e+00
    4.045085e+00    2.938926e+00    0.000000e+00
    2.938926e+00    4.045085e+00    0.000000e+00
    1.545085e+00    4.755282e+00    0.000000e+00
    5.000000e+00    0.000000e+00    0.000000e+00
    2.625000e+01    0.000000e+00    0.000000e+00
    3.750000e+00    2.875000e+01    0.000000e+00
    7.500000e+00    2.875000e+01    0.000000e+00
    1.125000e+01    2.875000e+01    0.000000e+00
    1.500000e+01    2.875000e+01    0.000000e+00
    1.875000e+01    2.875000e+01    0.000000e+00
    2.250000e+01    2.875000e+01    0.000000e+00
    0.000000e+00    5.556641e+00    0.000000e+00
    0.000000e+00    6.484375e+00    0.000000e+00
    0.000000e+00    8.958333e+00    0.000000e+00
    0.000000e+00    1.291667e+01    0.000000e+00
    0.000000e+00    1.687500e+01    0.000000e+00
    0.000000e+00    2.083333e+01    0.000000e+00
    0.000000e+00    2.479167e+01    0.000000e+00
    4.984587e+00    3.922955e-01    0.000000e+00
    4.938442e+00    7.821723e-01    0.000000e+00
    4.861850e+00    1.167227e+00    0.000000e+00
    4.619398e+00    1.913417e+00    0.000000e+00
    4.455033e+00    2.269953e+00    0.000000e+00
    4.263201e+00    2.612493e+00    0.000000e+00
    3.802030e+00    3.247240e+00    0.000000e+00
    3.535534e+00    3.535534e+00    0.000000e+00
    3.247240e+00    3.802030e+00    0.000000e+00
    2.612493e+00    4.263201e+00    0.000000e+00
    2.269953e+00    4.455033e+00    0.000000e+00
    1.913417e+00    4.619398e+00    0.000000e+00
    1.167227e+00    4.861850e+00    0.000000e+00
    7.821723e-01    4.938442e+00    0.000000e+00
    3.922955e-01    4.984587e+00    0.000000e+00
    2.200000e+01    0.000000e+00    0.000000e+00
    1.775000e+01    0.000000e+00    0.000000e+00
    1.350000e+01    0.000000e+00    0.000000e+00
    9.250000e+00    0.000000e+00    0.000000e+00
    6.593750e+00    0.000000e+00    0.000000e+00
    5.597656e+00    0.000000e+00    0.000000e+00
    2.625000e+01    2.464286e+01    0.000000e+00
    2.625000e+01    2.053572e+01    0.000000e+00
    2.625000e+01    1.642857e+01    0.000000e+00
    2.625000e+01    1.232143e+01    0.000000e+00
    2.625000e+01    8.214286e+00    0.000000e+00
    2.625000e+01    4.107143e+00    0.000000e+00
    3.962664e+00    3.621738e+00    0.000000e+00
    3.622109e+00    3.951808e+00    0.000000e+00
    2.543186e+00    4.626518e+00    0.000000e+00
    5.388971e+00    6.608009e-01    0.000000e+00
    5.983853e-01    5.569230e+00    0.000000e+00
    1.797694e+00    5.031138e+00    0.000000e+00
    4.729312e+00    2.620318e+00    0.000000e+00
    4.872986e+00    2.250180e+00    0.000000e+00
    1.221021e+00    5.354013e+00    0.000000e+00
    4.287504e+00    3.270244e+00    0.000000e+00
    6.033261e+00    8.457136e-01    0.000000e+00
    5.328948e+00    1.271176e+00    0.000000e+00
    4.937369e+00    3.174721e+00    0.000000e+00
    3.739691e+00    4.455787e+00    0.000000e+00
    4.501421e+00    3.748052e+00    0.000000e+00
    4.063046e+00    4.041642e+00    0.000000e+00
    5.174259e+00    1.916121e+00    0.000000e+00
    1.777227e+00    5.614474e+00    0.000000e+00
    3.169992e+00    4.937304e+00    0.000000e+00
    2.448965e+00    5.366081e+00    0.000000e+00
    4.481600e+00    4.449869e+00    0.000000e+00
    3.906805e+00    5.105215e+00    0.000000e+00
    5.297246e+00    2.521104e+00    0.000000e+00
    5.231842e+00    3.968305e+00    0.000000e+00
    2.218467e+00    6.214321e+00    0.000000e+00
    1.212829e+00    6.097182e+00    0.000000e+00
    7.111159e+00    1.158942e+00    0.000000e+00
    6.065803e+00    1.980064e+00    0.000000e+00
    4.636124e+00    5.135737e+00    0.000000e+00
    3.197053e+00    5.767548e+00    0.000000e+00
    5.193194e+00    4.723060e+00    0.000000e+00
    5.895583e+00    3.192034e+00    0.000000e+00
    5.283942e+00    5.547615e+00    0.000000e+00
    3.241861e+00    7.132319e+00    0.000000e+00
    4.207480e+00    5.912528e+00    0.000000e+00
    1.477704e+00    7.368753e+00    0.000000e+00
    6.211285e+00    4.584292e+00    0.000000e+00
    4.950244e+00    6.874874e+00    0.000000e+00
    7.526513e+00    2.976985e+00    0.000000e+00
    2.217146e+00    9.391544e+00    0.000000e+00
    6.331118e+00    6.258875e+00    0.000000e+00
    7.864187e+00    5.493449e+00    0.000000e+00
    4.424521e+00    8.693170e+00    0.000000e+00
    6.092327e+00    7.897529e+00    0.000000e+00
    7.437922e+00    7.197500e+00    0.000000e+00
    1.019627e+01    4.402716e+00    0.000000e+00
    7.492377e+00    8.869801e+00    0.000000e+00
    9.348350e+00    7.492709e+00    0.000000e+00
    9.200916e+00    1.021862e+01    0.000000e+00
    6.943752e+00    1.105577e+01    0.000000e+00
    1.147710e+01    9.353662e+00    0.000000e+00
    4.132810e+00    1.147110e+01    0.000000e+00
    8.715422e+00    1.281383e+01    0.000000e+00
    5.817157e+00    9.597475e+00    0.000000e+00
    1.163366e+01    6.957699e+00    0.000000e+00
    6.213057e+00    1.377435e+01    0.000000e+00
    1.108041e+01    1.198168e+01    0.000000e+00
    2.106742e+01    2.525464e+01    0.000000e+00
    5.411737e+00    2.463161e+01    0.000000e+00
    1.698771e+01    2.541008e+01    0.000000e+00
    1.319959e+01    2.550135e+01    0.000000e+00
    9.533042e+00    2.536529e+01    0.000000e+00
    2.856527e+00    2.189210e+01    0.000000e+00
    3.227653e+00    1.511387e+01    0.000000e+00
    2.992718e+00    1.869804e+01    0.000000e+00
    2.293422e+01    2.215618e+01    0.000000e+00
    2.209764e+01    1.851896e+01    0.000000e+00
    2.278282e+01    1.012117e+01    0.000000e+00
    2.260590e+01    5.738008e+00    0.000000e+00
    2.265319e+01    1.421085e+01    0.000000e+00
    1.232091e+01    2.547563e+00    0.000000e+00
    1.889506e+01    3.884310e+00    0.000000e+00
    1.532925e+01    3.024913e+00    0.000000e+00
    1.357624e+01    1.115139e+01    0.000000e+00
    1.058582e+01    1.472467e+01    0.000000e+00
    1.376928e+01    8.195411e+00    0.000000e+00
    8.226361e+00    1.534849e+01    0.000000e+00
    1.899861e+01    2.175956e+01    0.000000e+00
    1.939443e+01    8.040924e+00    0.000000e+00
    1.510424e+01    2.238217e+01    0.000000e+00
    1.156289e+01    2.223773e+01    0.000000e+00
    5.875097e+00    2.048806e+01    0.000000e+00
    1.935268e+01    1.198293e+01    0.000000e+00
    1.906908e+01    1.573489e+01    0.000000e+00
    6.023625e+00    1.698239e+01    0.000000e+00
    1.324380e+01    5.259198e+00    0.000000e+00
    1.634733e+01    9.923031e+00    0.000000e+00
    9.657439e+00    1.846127e+01    0.000000e+00
    1.281450e+01    1.356023e+01    0.000000e+00
    1.616319e+01    6.387964e+00    0.000000e+00
    1.363938e+01    1.941416e+01    0.000000e+00
    1.852498e+01    1.864288e+01    0.000000e+00
    1.575119e+01    1.369214e+01    0.000000e+00
    8.408040e+00    2.223679e+01    0.000000e+00
    1.308245e+01    1.619037e+01    0.000000e+00
    1.608005e+01    1.726429e+01    0.000000e+00
    1.646945e+01    1.989261e+01    0.000000e+00

CELLS 241 964
       3      54       6      33
       3      68      51      67
       3      69      64      63
       3      71      61      55
       3     106      14      13
       3      50      30      29
       3      21       9       0
       3     107       9      21
       3     113      19     112
       3      64      50      49
       3      63      49      58
       3     144     143     141
       3      15       2      36
       3      53      15      36
       3      74      57      66
       3     102     100      91
       3     136     130     133
       3     111      21      20
       3      22       7      42
       3      52      22      42
       3      59      52      42
       3      65       3      60
       3      56      55      26
       3      56      26      25
       3      49      29      28
       3      50      29      49
       3      51      32      31
       3      51      33      32
       3      66      57      54
       3      57      35      34
       3      53      36      35
       3      48      37       8
       3     117      48      47
       3     138     134     121
       3      80      71      76
       3      75      41      40
       3      59      42      41
       3      43       1      14
       3     106      43      14
       3     108     106      13
       3     140     132     115
       3     124     122      99
       3     117      47     116
       3      58      28       4
       3      86      82      83
       3      83      77      81
       3       5      30      50
       3      68      54      51
       3      67      31       5
       3      60      23      52
       3      52      23      22
       3      54      57       6
       3      53      16      15
       3      74      53      57
       3      54      33      51
       3      55      27      26
       3      71      55      56
       3      65      25       3
       3      71      56      65
       3      61      58      55
       3      58       4      27
       3      57      53      35
       3       6      57      34
       3      62       5      50
       3      67       5      62
       3      55      58      27
       3      58      49      28
       3      76      60      59
       3      60      52      59
       3      60       3      24
       3      60      24      23
       3      79      77      69
       3      63      58      61
       3      77      70      69
       3      83      70      77
       3      80      61      71
       3      72      63      61
       3      64      62      50
       3      64      49      63
       3      65      56      25
       3      76      65      60
       3      31      67      51
       3      84      74      73
       3      70      62      69
       3      78      67      70
       3      73      66      68
       3      68      66      54
       3     101      98      97
       3      69      62      64
       3      88      84      82
       3      70      67      62
       3      75      59      41
       3      85      72      80
       3      85      79      72
       3      72      69      63
       3      84      16      74
       3      78      68      67
       3      74      16      53
       3      74      66      73
       3      87      76      75
       3     119      40      39
       3      76      71      65
       3      76      59      75
       3      79      69      72
       3      89      81      85
       3      82      73      78
       3      78      73      68
       3      80      72      61
       3      89      86      81
       3      87      85      80
       3      85      81      79
       3      92      91      86
       3      81      77      79
       3      88      17      84
       3      83      82      78
       3      83      78      70
       3      86      83      81
       3      84      17      16
       3      84      73      82
       3      87      80      76
       3      90      89      85
       3      92      86      89
       3      91      88      82
       3      87      75      40
       3     103      99      96
       3      88      18      17
       3      91      82      86
       3      90      85      87
       3      96      95      93
       3      94      87      40
       3      93      92      89
       3     104     100      98
       3     102      98     100
       3      93      89      90
       3     102      92      95
       3      96      90      94
       3      99      97      96
       3      94      90      87
       3     135     127     131
       3     125     101     123
       3      95      92      93
       3     105     101      97
       3      96      93      90
       3     109     108      12
       3      97      95      96
       3     112     100     104
       3      98      95      97
       3     103      96      94
       3     118      45     115
       3     100      18      88
       3     100      88      91
       3     105      97      99
       3     110     109      11
       3     102      91      92
       3     102      95      98
       3     134      94     119
       3     121      38     120
       3     133     104     125
       3     104      98     101
       3     141     135     131
       3     115      44     114
       3     114      43     106
       3     108      13      12
       3     107      10       9
       3     111     107      21
       3     109      12      11
       3     128     126     108
       3     110      11      10
       3     143     136     123
       3     110      10     107
       3     130     107     111
       3     113      20      19
       3     142     130     136
       3     112      19      18
       3     112      18     100
       3     139     129     136
       3     113     111      20
       3     126     115     114
       3     114      44      43
       3     132     131     118
       3     115      45      44
       3     116      47      46
       3     118     116      46
       3     120      37     117
       3     117      37      48
       3     118      46      45
       3     141     137     122
       3     119      94      40
       3     121      39      38
       3     127     120     117
       3     120      38      37
       3     138     121     120
       3     121     119      39
       3     122     105      99
       3     124      99     103
       3     123     101     105
       3     137     105     122
       3     134     124     103
       3     138     120     127
       3     136     133     125
       3     125     104     101
       3     126     114     106
       3     126     106     108
       3     127     117     116
       3     131     127     116
       3     128     108     109
       3     129     128     109
       3     129     109     110
       3     142     107     130
       3     130     111     113
       3     133     130     113
       3     131     116     118
       3     132     118     115
       3     140     115     126
       3     145     140     126
       3     133     113     112
       3     133     112     104
       3     134     103      94
       3     134     119     121
       3     135     122     124
       3     138     135     124
       3     136     125     123
       3     142     136     129
       3     137     123     105
       3     141     122     135
       3     138     127     135
       3     138     124     134
       3     143     139     136
       3     139     128     129
       3     145     126     128
       3     145     144     140
       3     141     131     132
       3     144     141     132
       3     142     129     110
       3     142     110     107
       3     143     123     137
       3     143     137     141
       3     144     132     140
       3     144     139     143
       3     145     128     139
       3     145     139     144

CELL_TYPES 241
       5
       5
       5
       5
       5
       5
       5
       5
       5
       5
       5
       5
       5
       5
       5
       5
       5
       5
       5
       5
       5
       5
       5
       5
       5
       5
       5
       5
       5
       5
       5
       5
       5
       5
       5
       5
       5
       5
       5
       5
       5
       5
       5
       5
       5
       5
       5
       5
       5
       5
       5
       5
       5
       5
       5
       5
       5
       5
       5
       5
       5
       5
       5
       5
       5
       5
       5
       5
       5
       5
       5
       5
       5
       5
       5
       5
       5
       5
       5
       5
       5
       5
       5
       5
       5
       5
       5
       5
       5
       5
       5
       5
       5
       5
       5
       5
       5
       5
       5
       5
       5
       5
       5
       5
       5
       5
       5
       5
       5
       5
       5
       5
       5
       5
       5
       5
       5
       5
       5
       5
       5
       5
       5
       5
       5
       5
       5
       5
       5
       5
       5
       5
       5
       5
       5
       5
       5
       5
       5
       5
       5
       5
       5
       5
       5
       5
       5
       5
       5
       5
       5
       5
       5
       5
       5
       5
       5
       5
       5
       5
       5
       5
       5
       5
       5
       5
       5
       5
       5
       5
       5
       5
       5
       5
       5
       5
       5
       5
       5
       5
       5
       5
       5
       5
       5
       5
       5
       5
       5
       5
       5
       5
       5
       5
       5
       5
       5
       5
       5
       5
       5
       5
       5
       5
       5
       5
       5
       5
       5
       5
       5
       5
       5
       5
       5
       5
       5
       5
       5
       5
       5
       5
       5
       5
       5
       5
       5
       5
       5
       5
       5
       5
       5
       5
       5
       5
       5
       5
       5
       5
       5

POINT_DATA 146
VECTORS displacement float
    0.000000e+00    1.662736e-02    0.000000e+00
   -2.898727e-03    1.412218e-02    0.000000e+00
    0.000000e+00    7.882556e-03    0.000000e+00
   -2.727641e-03    2.410905e-03    0.000000e+00
   -2.321173e-03    4.649659e-03    0.000000e+00
   -1.643585e-03    6.402063e-03    0.000000e+00
   -8.631636e-04    7.529791e-03    0.000000e+00
   -2.798625e-03    0.000000e+00    0.000000e+00
   -5.402589e-03    0.000000e+00    0.000000e+00
   -2.110240e-04    1.653417e-02    0.000000e+00
   -4.759099e-04    1.625745e-02    0.000000e+00
   -8.262286e-04    1.585188e-02    0.000000e+00
   -1.270306e-03    1.540014e-02    0.000000e+00
   -1.785592e-03    1.495004e-02    0.000000e+00
   -2.337808e-03    1.452512e-02    0.000000e+00
    0.000000e+00    7.969492e-03    0.000000e+00
    0.000000e+00    8.069044e-03    0.000000e+00
    0.000000e+00    8.431426e-03    0.000000e+00
    0.000000e+00    9.654539e-03    0.000000e+00
    0.000000e+00    1.118952e-02    0.000000e+00
    0.000000e+00    1.292948e-02    0.000000e+00
    0.000000e+00    1.479583e-02    0.000000e+00
   -2.826453e-03    5.993197e-04    0.000000e+00
   -2.805633e-03    1.214808e-03    0.000000e+00
   -2.745816e-03    1.824243e-03    0.000000e+00
   -2.636572e-03    2.988267e-03    0.000000e+00
   -2.553737e-03    3.563978e-03    0.000000e+00
   -2.467862e-03    4.105775e-03    0.000000e+00
   -2.191127e-03    5.144392e-03    0.000000e+00
   -2.024218e-03    5.616215e-03    0.000000e+00
   -1.848891e-03    6.020825e-03    0.000000e+00
   -1.466172e-03    6.734842e-03    0.000000e+00
   -1.287809e-03    7.037340e-03    0.000000e+00
   -1.087780e-03    7.309494e-03    0.000000e+00
   -6.526564e-04    7.682446e-03    0.000000e+00
   -4.243741e-04    7.819546e-03    0.000000e+00
   -2.143942e-04    7.886125e-03    0.000000e+00
   -4.854090e-03    0.000000e+00    0.000000e+00
   -4.265417e-03    0.000000e+00    0.000000e+00
   -3.770674e-03    0.000000e+00    0.000000e+00
   -3.498719e-03    0.000000e+00    0.000000e+00
   -3.204107e-03    0.000000e+00    0.000000e+00
   -3.044077e-03    0.000000e+00    0.000000e+00
   -3.332339e-03    1.206617e-02    0.000000e+00
   -3.741609e-03    1.000040e-02    0.000000e+00
   -4.161440e-03    7.911326e-03    0.000000e+00
   -4.590676e-03    5.833696e-03    0.000000e+00
   -5.002712e-03    3.814664e-03    0.000000e+00
   -5.303249e-03    1.886801e-03    0.000000e+00
   -1.941190e-03    5.069120e-03    0.000000e+00
   -1.726638e-03    5.623250e-03    0.000000e+00
   -1.190143e-03    6.844101e-03    0.000000e+00
   -2.944134e-03    8.549078e-04    0.000000e+00
   -1.880703e-04    7.920133e-03    0.000000e+00
   -7.666015e-04    7.419446e-03    0.000000e+00
   -2.472140e-03    3.498364e-03    0.000000e+00
   -2.594728e-03    3.027211e-03    0.000000e+00
   -4.379823e-04    7.731646e-03    0.000000e+00
   -2.152269e-03    4.481434e-03    0.000000e+00
   -3.079078e-03    8.612471e-04    0.000000e+00
   -2.896409e-03    1.606834e-03    0.000000e+00
   -2.258892e-03    3.689320e-03    0.000000e+00
   -1.419961e-03    5.654506e-03    0.000000e+00
   -1.911669e-03    4.514137e-03    0.000000e+00
   -1.695175e-03    5.144222e-03    0.000000e+00
   -2.728899e-03    2.397174e-03    0.000000e+00
   -4.892671e-04    7.497530e-03    0.000000e+00
   -1.063423e-03    6.357667e-03    0.000000e+00
   -7.279358e-04    7.032527e-03    0.000000e+00
   -1.562819e-03    4.955692e-03    0.000000e+00
   -1.138435e-03    5.797986e-03    0.000000e+00
   -2.576096e-03    2.863996e-03    0.000000e+00
   -1.950664e-03    4.014622e-03    0.000000e+00
   -4.115299e-04    7.366149e-03    0.000000e+00
   -2.437810e-04    7.816627e-03    0.000000e+00
   -3.157592e-03    9.184834e-04    0.000000e+00
   -2.868273e-03    1.896235e-03    0.000000e+00
   -1.316485e-03    5.236324e-03    0.000000e+00
   -7.402751e-04    6.613180e-03    0.000000e+00
   -1.632521e-03    4.564856e-03    0.000000e+00
   -2.420805e-03    2.977779e-03    0.000000e+00
   -1.363777e-03    5.051744e-03    0.000000e+00
   -4.627841e-04    7.095651e-03    0.000000e+00
   -9.438687e-04    5.971369e-03    0.000000e+00
   -1.613976e-04    7.928262e-03    0.000000e+00
   -1.964175e-03    3.854837e-03    0.000000e+00
   -9.422057e-04    6.041477e-03    0.000000e+00
   -2.817850e-03    2.155621e-03    0.000000e+00
   -2.088012e-04    8.222423e-03    0.000000e+00
   -1.483553e-03    4.967221e-03    0.000000e+00
   -2.123688e-03    3.864209e-03    0.000000e+00
   -6.096107e-04    7.226234e-03    0.000000e+00
   -1.104406e-03    6.100727e-03    0.000000e+00
   -1.599979e-03    5.159497e-03    0.000000e+00
   -2.910256e-03    2.702444e-03    0.000000e+00
   -1.360081e-03    6.190915e-03    0.000000e+00
   -2.056672e-03    4.846243e-03    0.000000e+00
   -1.638129e-03    6.556474e-03    0.000000e+00
   -1.039455e-03    7.593391e-03    0.000000e+00
   -2.291423e-03    5.604247e-03    0.000000e+00
   -4.665409e-04    8.565796e-03    0.000000e+00
   -1.323900e-03    8.137918e-03    0.000000e+00
   -8.652899e-04    7.157540e-03    0.000000e+00
   -2.689792e-03    4.121510e-03    0.000000e+00
   -7.956666e-04    9.156935e-03    0.000000e+00
   -1.902063e-03    7.218344e-03    0.000000e+00
   -2.496412e-03    1.293338e-02    0.000000e+00
   -5.136047e-04    1.446577e-02    0.000000e+00
   -1.889901e-03    1.349382e-02    0.000000e+00
   -1.365957e-03    1.401587e-02    0.000000e+00
   -9.241316e-04    1.439611e-02    0.000000e+00
   -3.012000e-04    1.332227e-02    0.000000e+00
   -3.707357e-04    1.022235e-02    0.000000e+00
   -3.361595e-04    1.184134e-02    0.000000e+00
   -3.079283e-03    1.116588e-02    0.000000e+00
   -3.303783e-03    9.406569e-03    0.000000e+00
   -4.290803e-03    5.024444e-03    0.000000e+00
   -4.682200e-03    2.821835e-03    0.000000e+00
   -3.833200e-03    7.133769e-03    0.000000e+00
   -3.497030e-03    1.430867e-03    0.000000e+00
   -4.269181e-03    1.996989e-03    0.000000e+00
   -3.838412e-03    1.621259e-03    0.000000e+00
   -2.533273e-03    6.369295e-03    0.000000e+00
   -1.591004e-03    8.835359e-03    0.000000e+00
   -2.941590e-03    4.632168e-03    0.000000e+00
   -1.124335e-03    9.571424e-03    0.000000e+00
   -2.519115e-03    1.140847e-02    0.000000e+00
   -3.966384e-03    4.161559e-03    0.000000e+00
   -1.881761e-03    1.220233e-02    0.000000e+00
   -1.378112e-03    1.259714e-02    0.000000e+00
   -6.757510e-04    1.242139e-02    0.000000e+00
   -3.528127e-03    6.259213e-03    0.000000e+00
   -3.087184e-03    8.279117e-03    0.000000e+00
   -7.458670e-04    1.071227e-02    0.000000e+00
   -3.270572e-03    2.958851e-03    0.000000e+00
   -3.219959e-03    5.392202e-03    0.000000e+00
   -1.263344e-03    1.094464e-02    0.000000e+00
   -2.129317e-03    7.842252e-03    0.000000e+00
   -3.612271e-03    3.436666e-03    0.000000e+00
   -1.859832e-03    1.087207e-02    0.000000e+00
   -2.718939e-03    9.858994e-03    0.000000e+00
   -2.695958e-03    7.539226e-03    0.000000e+00
   -9.479860e-04    1.298414e-02    0.000000e+00
   -1.978393e-03    9.253168e-03    0.000000e+00
   -2.429158e-03    9.425240e-03    0.000000e+00
   -2.280663e-03    1.075358e-02    0.000000e+00

CELL_DATA 241
SCALARS mises_stress float
LOOKUP_TABLE default
    7.377943e-01
    4.612901e-01
    1.395483e+00
    1.591487e+00
    1.002280e+00
    8.015401e-01
    9.035025e-01
    9.494216e-01
    8.907328e-01
    1.187619e+00
    1.430309e+00
    1.092640e+00
    1.089896e+00
    6.394767e-01
    5.362462e-01
    1.019814e+00
    9.781942e-01
    9.310266e-01
    3.038085e+00
    2.456985e+00
    2.359668e+00
    2.185875e+00
    1.990739e+00
    2.466718e+00
    1.225182e+00
    1.035183e+00
    3.538700e-01
    3.710298e-01
    6.320155e-01
    1.008546e+00
    1.013175e+00
    9.156589e-01
    9.380972e-01
    1.103734e+00
    1.623194e+00
    1.552823e+00
    1.992995e+00
    1.000927e+00
    9.990588e-01
    9.948937e-01
    1.047635e+00
    1.182499e+00
    1.011821e+00
    1.589751e+00
    1.145679e+00
    1.307044e+00
    4.766128e-01
    5.744995e-01
    4.894647e-01
    2.414528e+00
    3.051515e+00
    4.988696e-01
    6.447613e-01
    6.332533e-01
    3.455901e-01
    2.181872e+00
    1.980034e+00
    2.576711e+00
    2.140261e+00
    1.741694e+00
    1.891876e+00
    6.002218e-01
    8.628862e-01
    8.902096e-01
    6.722355e-01
    1.640975e+00
    1.255002e+00
    1.858766e+00
    2.382019e+00
    2.850115e+00
    2.969196e+00
    1.302983e+00
    1.375592e+00
    1.323462e+00
    1.241605e+00
    1.734630e+00
    1.598202e+00
    9.611799e-01
    1.130842e+00
    2.110726e+00
    2.171540e+00
    4.281301e-01
    6.895703e-01
    1.129024e+00
    9.375765e-01
    7.432775e-01
    4.705263e-01
    1.184940e+00
    1.163046e+00
    8.394040e-01
    1.056202e+00
    1.730356e+00
    1.606271e+00
    1.451095e+00
    1.317203e+00
    4.051620e-01
    8.877422e-01
    3.634583e-01
    5.054257e-01
    1.491350e+00
    1.100487e+00
    1.822464e+00
    1.794615e+00
    1.499451e+00
    1.511408e+00
    9.848589e-01
    7.097930e-01
    1.425752e+00
    1.338197e+00
    1.436929e+00
    1.399141e+00
    1.181864e+00
    1.471056e+00
    4.409994e-01
    1.050962e+00
    1.133301e+00
    1.365042e+00
    4.222597e-01
    6.487043e-01
    1.655528e+00
    1.414593e+00
    1.378246e+00
    8.351672e-01
    1.363815e+00
    1.246626e+00
    6.520566e-01
    1.212083e+00
    1.492920e+00
    1.299439e+00
    1.263131e+00
    1.338755e+00
    1.075967e+00
    1.087122e+00
    1.400685e+00
    1.221670e+00
    1.302042e+00
    1.260760e+00
    1.408466e+00
    1.072075e+00
    1.091513e+00
    1.347754e+00
    1.179575e+00
    1.421257e+00
    9.867282e-01
    1.287558e+00
    8.700066e-01
    1.209413e+00
    1.314142e+00
    1.029227e+00
    6.697718e-01
    9.885839e-01
    1.212190e+00
    9.753987e-01
    1.228666e+00
    1.217019e+00
    1.176665e+00
    1.029948e+00
    9.856419e-01
    1.083800e+00
    1.115946e+00
    1.015119e+00
    1.010415e+00
    9.937380e-01
    9.244356e-01
    9.090024e-01
    9.749927e-01
    1.006779e+00
    9.531581e-01
    1.076487e+00
    9.635308e-01
    9.597543e-01
    8.738774e-01
    9.990408e-01
    7.837602e-01
    8.608728e-01
    1.027443e+00
    9.134759e-01
    1.019248e+00
    1.006040e+00
    1.064479e+00
    1.018398e+00
    9.847960e-01
    1.026131e+00
    9.829239e-01
    9.915994e-01
    1.013544e+00
    1.154641e+00
    1.239699e+00
    1.057749e+00
    1.053172e+00
    1.023139e+00
    1.090072e+00
    1.085668e+00
    1.203850e+00
    1.234571e+00
    1.147502e+00
    1.155322e+00
    1.191098e+00
    1.053524e+00
    1.025280e+00
    1.092926e+00
    1.006317e+00
    1.010112e+00
    1.012234e+00
    1.065509e+00
    1.004842e+00
    1.002327e+00
    9.846690e-01
    9.610069e-01
    9.193413e-01
    9.658893e-01
    1.031724e+00
    1.033979e+00
    1.030681e+00
    1.034407e+00
    9.026064e-01
    9.681407e-01
    1.208802e+00
    1.139475e+00
    1.171919e+00
    1.126285e+00
    1.072173e+00
    9.998305e-01
    1.144603e+00
    1.122271e+00
    1.117264e+00
    1.165851e+00
    1.062756e+00
    1.027255e+00
    1.030904e+00
    1.049978e+00
    1.071879e+00
    1.081819e+00
    9.897819e-01
    9.662144e-01
    1.127249e+00
    1.116475e+00
    1.050509e+00
    1.060794e+00
    1.029186e+00
    1.053787e+00

