# vtk DataFile Version 4.0
output of FEM program
ASCII

DATASET UNSTRUCTURED_GRID
POINTS 6802 float
15 32.5 0
15 30.5287 0
15 0 0
30 0 0
30 35 0
19.4713 35 0
17.5 35 0
30 65 0
15 65 0
15 39.4713 0
15 37.5 0
12.5 35 0
10.5287 35 0
0 35 0
0 0 0
0 65 0
15 32.4014 0
15 32.3029 0
15 32.2043 0
15 32.1057 0
15 32.0072 0
15 31.9086 0
15 31.81 0
15 31.7115 0
15 31.6129 0
15 31.5143 0
15 31.4158 0
15 31.3172 0
15 31.2186 0
15 31.1201 0
15 31.0215 0
15 30.9229 0
15 30.8244 0
15 30.7258 0
15 30.6272 0
15 30.4157 0
15 30.2274 0
15 29.7253 0
15 28.9219 0
15 28.1185 0
15 27.3151 0
15 26.5117 0
15 25.7083 0
15 24.905 0
15 24.1016 0
15 23.2982 0
15 22.4948 0
15 21.6914 0
15 20.888 0
15 20.0846 0
15 19.2813 0
15 18.4779 0
15 17.6745 0
15 16.8711 0
15 16.0677 0
15 15.2643 0
15 14.4609 0
15 13.6576 0
15 12.8542 0
15 12.0508 0
15 11.2474 0
15 10.444 0
15 9.64063 0
15 8.83724 0
15 8.03386 0
15 7.23047 0
15 6.42709 0
15 5.6237 0
15 4.82032 0
15 4.01693 0
15 3.21354 0
15 2.41016 0
15 1.60677 0
15 0.803386 0
15.7895 0 0
16.5789 0 0
17.3684 0 0
18.1579 0 0
18.9474 0 0
19.7368 0 0
20.5263 0 0
21.3158 0 0
22.1053 0 0
22.8947 0 0
23.6842 0 0
24.4737 0 0
25.2632 0 0
26.0526 0 0
26.8421 0 0
27.6316 0 0
28.4211 0 0
29.2105 0 0
30 0.795455 0
30 1.59091 0
30 2.38636 0
30 3.18182 0
30 3.97727 0
30 4.77273 0
30 5.56818 0
30 6.36364 0
30 7.15909 0
30 7.95455 0
30 8.75 0
30 9.54545 0
30 10.3409 0
30 11.1364 0
30 11.9318 0
30 12.7273 0
30 13.5227 0
30 14.3182 0
30 15.1136 0
30 15.9091 0
30 16.7045 0
30 17.5 0
30 18.2955 0
30 19.0909 0
30 19.8864 0
30 20.6818 0
30 21.4773 0
30 22.2727 0
30 23.0682 0
30 23.8636 0
30 24.6591 0
30 25.4545 0
30 26.25 0
30 27.0455 0
30 27.8409 0
30 28.6364 0
30 29.4318 0
30 30.2273 0
30 31.0227 0
30 31.8182 0
30 32.6136 0
30 33.4091 0
30 34.2045 0
29.1901 35 0
28.3802 35 0
27.5703 35 0
26.7604 35 0
25.9505 35 0
25.1406 35 0
24.3307 35 0
23.5208 35 0
22.7109 35 0
21.901 35 0
21.0911 35 0
20.2812 35 0
19.775 35 0
19.5852 35 0
19.3728 35 0
19.2742 35 0
19.1756 35 0
19.0771 35 0
18.9785 35 0
18.8799 35 0
18.7814 35 0
18.6828 35 0
18.5842 35 0
18.4857 35 0
18.3871 35 0
18.2885 35 0
18.19 35 0
18.0914 35 0
17.9928 35 0
17.8943 35 0
17.7957 35 0
17.6971 35 0
17.5986 35 0
17.498 34.8993 0
17.4919 34.7988 0
17.4818 34.6987 0
17.4676 34.599 0
17.4495 34.4999 0
17.4274 34.4017 0
17.4013 34.3045 0
17.3713 34.2083 0
17.3375 34.1135 0
17.2999 34.0201 0
17.2586 33.9283 0
17.2136 33.8382 0
17.1651 33.75 0
17.113 33.6638 0
17.0575 33.5798 0
16.9986 33.4981 0
16.9365 33.4189 0
16.8713 33.3422 0
16.803 33.2682 0
16.7318 33.197 0
16.6578 33.1287 0
16.5811 33.0635 0
16.5019 33.0014 0
16.4202 32.9425 0
16.3362 32.887 0
16.25 32.8349 0
16.1618 32.7864 0
16.0717 32.7414 0
15.9799 32.7001 0
15.8865 32.6625 0
15.7917 32.6287 0
15.6955 32.5987 0
15.5983 32.5726 0
15.5001 32.5505 0
15.401 32.5324 0
15.3013 32.5182 0
15.2012 32.5081 0
15.1007 32.502 0
30 35.7895 0
30 36.5789 0
30 37.3684 0
30 38.1579 0
30 38.9474 0
30 39.7368 0
30 40.5263 0
30 41.3158 0
30 42.1053 0
30 42.8947 0
30 43.6842 0
30 44.4737 0
30 45.2632 0
30 46.0526 0
30 46.8421 0
30 47.6316 0
30 48.4211 0
30 49.2105 0
30 50 0
30 50.7895 0
30 51.5789 0
30 52.3684 0
30 53.1579 0
30 53.9474 0
30 54.7368 0
30 55.5263 0
30 56.3158 0
30 57.1053 0
30 57.8947 0
30 58.6842 0
30 59.4737 0
30 60.2632 0
30 61.0526 0
30 61.8421 0
30 62.6316 0
30 63.4211 0
30 64.2105 0
29.2105 65 0
28.4211 65 0
27.6316 65 0
26.8421 65 0
26.0526 65 0
25.2632 65 0
24.4737 65 0
23.6842 65 0
22.8947 65 0
22.1053 65 0
21.3158 65 0
20.5263 65 0
19.7368 65 0
18.9474 65 0
18.1579 65 0
17.3684 65 0
16.5789 65 0
15.7895 65 0
15 64.2022 0
15 63.4045 0
15 62.6067 0
15 61.8089 0
15 61.0111 0
15 60.2134 0
15 59.4156 0
15 58.6178 0
15 57.8201 0
15 57.0223 0
15 56.2245 0
15 55.4268 0
15 54.629 0
15 53.8312 0
15 53.0334 0
15 52.2357 0
15 51.4379 0
15 50.6401 0
15 49.8424 0
15 49.0446 0
15 48.2468 0
15 47.449 0
15 46.6513 0
15 45.8535 0
15 45.0557 0
15 44.258 0
15 43.4602 0
15 42.6624 0
15 41.8646 0
15 41.0669 0
15 40.2691 0
15 39.7705 0
15 39.5835 0
15 39.3728 0
15 39.2742 0
15 39.1756 0
15 39.0771 0
15 38.9785 0
15 38.8799 0
15 38.7814 0
15 38.6828 0
15 38.5842 0
15 38.4857 0
15 38.3871 0
15 38.2885 0
15 38.19 0
15 38.0914 0
15 37.9928 0
15 37.8943 0
15 37.7957 0
15 37.6971 0
15 37.5986 0
15.1007 37.498 0
15.2012 37.4919 0
15.3013 37.4818 0
15.401 37.4676 0
15.5001 37.4495 0
15.5983 37.4274 0
15.6955 37.4013 0
15.7917 37.3713 0
15.8865 37.3375 0
15.9799 37.2999 0
16.0717 37.2586 0
16.1618 37.2136 0
16.25 37.1651 0
16.3362 37.113 0
16.4202 37.0575 0
16.5019 36.9986 0
16.5811 36.9365 0
16.6578 36.8713 0
16.7318 36.803 0
16.803 36.7318 0
16.8713 36.6578 0
16.9365 36.5811 0
16.9986 36.5019 0
17.0575 36.4202 0
17.113 36.3362 0
17.1651 36.25 0
17.2136 36.1618 0
17.2586 36.0717 0
17.2999 35.9799 0
17.3375 35.8865 0
17.3713 35.7917 0
17.4013 35.6955 0
17.4274 35.5983 0
17.4495 35.5001 0
17.4676 35.401 0
17.4818 35.3013 0
17.4919 35.2012 0
17.498 35.1007 0
12.4014 35 0
12.3029 35 0
12.2043 35 0
12.1057 35 0
12.0072 35 0
11.9086 35 0
11.81 35 0
11.7115 35 0
11.6129 35 0
11.5143 35 0
11.4158 35 0
11.3172 35 0
11.2186 35 0
11.1201 35 0
11.0215 35 0
10.9229 35 0
10.8244 35 0
10.7258 35 0
10.6272 35 0
10.4148 35 0
10.225 35 0
9.71877 35 0
8.90887 35 0
8.09897 35 0
7.28907 35 0
6.47918 35 0
5.66928 35 0
4.85938 35 0
4.04949 35 0
3.23959 35 0
2.42969 35 0
1.61979 35 0
0.809897 35 0
0 34.2045 0
0 33.4091 0
0 32.6136 0
0 31.8182 0
0 31.0227 0
0 30.2273 0
0 29.4318 0
0 28.6364 0
0 27.8409 0
0 27.0455 0
0 26.25 0
0 25.4545 0
0 24.6591 0
0 23.8636 0
0 23.0682 0
0 22.2727 0
0 21.4773 0
0 20.6818 0
0 19.8864 0
0 19.0909 0
0 18.2955 0
0 17.5 0
0 16.7045 0
0 15.9091 0
0 15.1136 0
0 14.3182 0
0 13.5227 0
0 12.7273 0
0 11.9318 0
0 11.1364 0
0 10.3409 0
0 9.54545 0
0 8.75 0
0 7.95455 0
0 7.15909 0
0 6.36364 0
0 5.56818 0
0 4.77273 0
0 3.97727 0
0 3.18182 0
0 2.38636 0
0 1.59091 0
0 0.795455 0
0.789474 0 0
1.57895 0 0
2.36842 0 0
3.15789 0 0
3.94737 0 0
4.73684 0 0
5.52632 0 0
6.31579 0 0
7.10526 0 0
7.89474 0 0
8.68421 0 0
9.47368 0 0
10.2632 0 0
11.0526 0 0
11.8421 0 0
12.6316 0 0
13.4211 0 0
14.2105 0 0
14.8993 32.502 0
14.7988 32.5081 0
14.6987 32.5182 0
14.599 32.5324 0
14.4999 32.5505 0
14.4017 32.5726 0
14.3045 32.5987 0
14.2083 32.6287 0
14.1135 32.6625 0
14.0201 32.7001 0
13.9283 32.7414 0
13.8382 32.7864 0
13.75 32.8349 0
13.6638 32.887 0
13.5798 32.9425 0
13.4981 33.0014 0
13.4189 33.0635 0
13.3422 33.1287 0
13.2682 33.197 0
13.197 33.2682 0
13.1287 33.3422 0
13.0635 33.4189 0
13.0014 33.4981 0
12.9425 33.5798 0
12.887 33.6638 0
12.8349 33.75 0
12.7864 33.8382 0
12.7414 33.9283 0
12.7001 34.0201 0
12.6625 34.1135 0
12.6287 34.2083 0
12.5987 34.3045 0
12.5726 34.4017 0
12.5505 34.4999 0
12.5324 34.599 0
12.5182 34.6987 0
12.5081 34.7988 0
12.502 34.8993 0
14.2105 65 0
13.4211 65 0
12.6316 65 0
11.8421 65 0
11.0526 65 0
10.2632 65 0
9.47368 65 0
8.68421 65 0
7.89474 65 0
7.10526 65 0
6.31579 65 0
5.52632 65 0
4.73684 65 0
3.94737 65 0
3.15789 65 0
2.36842 65 0
1.57895 65 0
0.789474 65 0
0 64.2105 0
0 63.4211 0
0 62.6316 0
0 61.8421 0
0 61.0526 0
0 60.2632 0
0 59.4737 0
0 58.6842 0
0 57.8947 0
0 57.1053 0
0 56.3158 0
0 55.5263 0
0 54.7368 0
0 53.9474 0
0 53.1579 0
0 52.3684 0
0 51.5789 0
0 50.7895 0
0 50 0
0 49.2105 0
0 48.4211 0
0 47.6316 0
0 46.8421 0
0 46.0526 0
0 45.2632 0
0 44.4737 0
0 43.6842 0
0 42.8947 0
0 42.1053 0
0 41.3158 0
0 40.5263 0
0 39.7368 0
0 38.9474 0
0 38.1579 0
0 37.3684 0
0 36.5789 0
0 35.7895 0
12.502 35.1007 0
12.5081 35.2012 0
12.5182 35.3013 0
12.5324 35.401 0
12.5505 35.5001 0
12.5726 35.5983 0
12.5987 35.6955 0
12.6287 35.7917 0
12.6625 35.8865 0
12.7001 35.9799 0
12.7414 36.0717 0
12.7864 36.1618 0
12.8349 36.25 0
12.887 36.3362 0
12.9425 36.4202 0
13.0014 36.5019 0
13.0635 36.5811 0
13.1287 36.6578 0
13.197 36.7318 0
13.2682 36.803 0
13.3422 36.8713 0
13.4189 36.9365 0
13.4981 36.9986 0
13.5798 37.0575 0
13.6638 37.113 0
13.75 37.1651 0
13.8382 37.2136 0
13.9283 37.2586 0
14.0201 37.2999 0
14.1135 37.3375 0
14.2083 37.3713 0
14.3045 37.4013 0
14.4017 37.4274 0
14.4999 37.4495 0
14.599 37.4676 0
14.6987 37.4818 0
14.7988 37.4919 0
14.8993 37.498 0
16.0785 30.4786 0
17.1415 31.604 0
18.1677 31.5449 0
19.2601 31.5898 0
20.3548 31.6292 0
21.4706 31.5786 0
22.5501 31.7501 0
23.6272 31.6202 0
24.8641 31.5273 0
25.7213 31.7726 0
26.5289 31.7212 0
27.7735 31.5371 0
28.8949 31.5358 0
29.1288 32.807 0
27.8424 32.9023 0
26.5584 32.894 0
25.6268 32.7985 0
24.665 32.7187 0
23.7921 32.7761 0
22.4928 32.8155 0
21.3645 32.6323 0
20.3513 32.7176 0
19.2876 32.7322 0
18.2133 32.7336 0
17.0954 30.4658 0
18.225 30.4348 0
19.2981 30.5097 0
20.4471 30.4714 0
21.4478 30.5148 0
22.5805 30.4175 0
23.5928 30.4857 0
24.6995 30.4395 0
25.9888 30.4154 0
26.8208 30.561 0
27.8076 30.7666 0
28.9949 30.7569 0
16.1209 28.4557 0
17.1474 28.2436 0
18.0898 28.1136 0
19.2431 28.222 0
20.1696 28.3572 0
21.5149 28.3019 0
22.6355 28.2633 0
23.5544 28.2057 0
24.8715 28.325 0
25.8087 28.2383 0
26.908 28.0291 0
27.7045 28.1649 0
29.1874 28.2256 0
28.5473 29.3522 0
27.7841 29.3275 0
26.9083 29.3024 0
25.9863 29.2175 0
24.63 29.3809 0
23.411 29.36 0
22.3948 29.3396 0
21.3094 29.4751 0
20.3824 29.343 0
19.3595 29.2505 0
18.1864 29.4518 0
17.0828 29.4207 0
16.1569 29.3744 0
16.0417 26.8121 0
17.1205 27.0208 0
18.23 27.1747 0
19.3235 27.0953 0
20.358 27.1762 0
21.3931 27.2185 0
22.4554 27.0049 0
23.5828 27.1504 0
24.8533 27.253 0
25.6051 27.3818 0
27.0283 27.1849 0
27.9027 27.1288 0
28.6013 27.0899 0
16.2477 26.1191 0
17.1273 25.8943 0
18.2761 25.9184 0
19.299 25.8749 0
20.3946 25.9007 0
21.5081 25.9707 0
22.6088 25.884 0
23.5048 25.949 0
24.8019 25.9917 0
25.525 25.8361 0
27.0272 25.8551 0
27.9021 25.9499 0
28.6696 25.913 0
16.3623 24.8862 0
17.0163 24.8487 0
18.3475 24.8763 0
19.3704 24.6432 0
20.3496 24.766 0
21.4613 24.688 0
22.5734 24.9158 0
23.6598 24.7263 0
24.8372 24.7892 0
25.5612 24.9919 0
27.0465 24.9823 0
27.9846 24.928 0
28.9985 25.1088 0
15.7689 23.741 0
17.2157 23.7236 0
17.9788 23.7497 0
19.2054 23.7559 0
20.2879 23.708 0
21.4673 23.6776 0
22.5122 23.5552 0
23.5783 23.5787 0
24.5301 23.7779 0
25.7486 23.596 0
27.0487 23.6286 0
27.964 23.6544 0
28.9432 23.561 0
16.124 22.5528 0
17.0546 22.583 0
17.8909 22.6203 0
19.1886 22.7131 0
20.3596 22.6124 0
21.4406 22.5553 0
22.5332 22.528 0
23.8356 22.6417 0
24.5956 22.4447 0
25.7156 22.7091 0
27.0747 22.4869 0
27.9878 22.4771 0
29.1219 22.4847 0
15.9971 21.1543 0
17.1786 21.1935 0
18.1057 21.3844 0
19.0251 21.3305 0
20.3813 21.3741 0
21.4122 21.617 0
22.4077 21.4628 0
23.7479 21.4745 0
24.864 21.3349 0
25.8876 21.5822 0
26.8984 21.5175 0
27.7279 21.4574 0
29.0523 21.3792 0
16.1438 20.4245 0
17.3783 20.4534 0
18.1614 20.3509 0
19.0365 20.4274 0
20.4982 20.3767 0
21.2768 20.3893 0
22.5776 20.3077 0
23.4859 20.3792 0
24.6865 20.2464 0
25.9106 20.2663 0
26.9038 20.5218 0
27.921 20.2759 0
29.0729 20.4447 0
16.118 19.2184 0
17.1506 19.0242 0
18.1371 19.0921 0
19.0686 19.0448 0
20.3573 19.1227 0
21.2409 19.0026 0
22.5187 19.0677 0
23.6134 19.2985 0
24.6764 19.3273 0
25.9943 19.3489 0
26.9094 19.2678 0
27.8412 19.3433 0
28.6324 19.1676 0
15.7527 18.0398 0
17.152 18.2606 0
18.3651 18.0605 0
19.2264 18.0729 0
20.2595 18.1142 0
21.168 18.1656 0
22.4573 18.0935 0
23.8354 18.223 0
24.5653 18.0531 0
25.9827 17.9517 0
26.8497 18.0128 0
27.6139 17.9012 0
29.1312 17.8408 0
16.4753 16.9372 0
17.2637 17.0109 0
18.1875 17.0191 0
19.2231 17.038 0
20.2348 16.9324 0
21.1873 16.8337 0
22.5508 16.934 0
23.7723 16.8037 0
24.5486 16.9778 0
25.9825 17.0598 0
26.8693 16.9951 0
27.736 17.1429 0
28.6584 17.0937 0
16.4511 15.7465 0
17.3349 15.8179 0
18.2351 15.8406 0
19.1851 15.8921 0
20.2087 15.6685 0
21.3248 15.9102 0
22.4751 15.6768 0
23.6635 15.7757 0
24.5529 15.7563 0
25.9571 15.683 0
26.8964 15.7358 0
27.7792 15.7514 0
28.5453 15.826 0
16.1 14.9277 0
17.251 14.7188 0
18.2198 14.6683 0
19.1399 14.6784 0
20.1022 14.7611 0
21.5579 14.7154 0
22.4573 14.6799 0
23.6441 14.7086 0
24.732 14.702 0
25.8016 14.712 0
26.6501 14.6868 0
27.825 14.4819 0
29.2257 14.7015 0
16.1204 13.5163 0
17.151 13.3053 0
18.2409 13.2761 0
19.2019 13.4047 0
20.1423 13.3868 0
21.5687 13.518 0
22.4762 13.6129 0
23.4985 13.8233 0
24.9281 13.5315 0
25.8358 13.7462 0
26.8021 13.6577 0
27.7876 13.7339 0
28.627 13.5965 0
15.7515 12.4087 0
17.1318 12.604 0
18.2748 12.5972 0
19.4373 12.4079 0
20.3153 12.418 0
21.4186 12.4587 0
22.4838 12.5144 0
23.3928 12.4117 0
24.8853 12.3023 0
25.8208 12.368 0
26.7323 12.2388 0
27.648 12.2201 0
29.2363 12.4102 0
16.4502 11.3132 0
17.2612 11.3458 0
18.2492 11.35 0
19.2309 11.3359 0
20.3077 11.3672 0
21.391 11.275 0
22.4921 11.196 0
23.6088 11.2658 0
24.7508 11.3319 0
25.7826 11.3081 0
26.7363 11.4121 0
27.8046 11.3945 0
28.8837 11.2342 0
15.9618 9.91614 0
17.1843 9.84795 0
18.3031 9.87377 0
19.3321 9.95406 0
20.3221 10.1831 0
21.3523 10.0112 0
22.5051 10.1396 0
23.4315 10.1716 0
24.9016 10.1122 0
25.7609 10.1301 0
26.534 10.0095 0
27.7876 9.98088 0
29.1564 9.87279 0
15.8981 9.09967 0
17.1902 9.14921 0
18.4916 9.15901 0
19.3937 9.16074 0
20.3658 9.0513 0
21.3871 9.18037 0
22.5626 9.14436 0
23.6808 9.13704 0
24.7564 9.25595 0
25.7349 9.13048 0
26.6737 9.27282 0
27.7319 9.29548 0
28.666 9.17502 0
16.105 7.91651 0
17.1519 7.7271 0
18.2719 7.6553 0
19.3353 7.6087 0
20.3717 7.59341 0
21.4799 7.61369 0
22.5872 7.87823 0
23.6769 7.68931 0
24.7355 7.78892 0
25.7246 7.78954 0
26.7303 7.80009 0
27.7145 7.83484 0
28.523 7.90577 0
15.7518 6.78149 0
17.1351 6.98413 0
18.2676 6.97081 0
19.3237 6.95849 0
20.328 6.94443 0
21.5054 6.73693 0
22.8112 6.7605 0
23.6157 6.70977 0
24.4994 6.57064 0
25.6827 6.55559 0
26.7382 6.55343 0
27.8393 6.55897 0
29.223 6.76528 0
16.4496 5.68172 0
17.2637 5.71409 0
18.2769 5.70841 0
19.3142 5.72258 0
20.3131 5.75912 0
21.4587 5.74087 0
22.5454 5.73748 0
23.5701 5.70089 0
24.627 5.85613 0
25.6629 5.87505 0
26.7229 5.84329 0
27.7943 5.80586 0
28.626 5.65552 0
15.9561 4.29195 0
17.16 4.25058 0
18.0504 4.38911 0
19.5404 4.30352 0
20.4052 4.48826 0
21.4595 4.56084 0
22.5184 4.56871 0
23.5524 4.53844 0
24.6448 4.37871 0
25.4406 4.50731 0
26.674 4.30704 0
27.8043 4.33841 0
29.1532 4.31365 0
15.8832 3.47206 0
17.187 3.51405 0
18.477 3.38797 0
19.4114 3.40098 0
20.4201 3.40494 0
21.4644 3.42698 0
22.5111 3.43766 0
23.5303 3.43539 0
24.6764 3.42964 0
25.6831 3.44819 0
26.7111 3.44442 0
27.8123 3.59523 0
28.7293 3.55285 0
16.0479 2.31195 0
16.9226 2.18532 0
18.4487 2.19035 0
19.3736 2.41121 0
20.372 2.16854 0
21.4723 2.29247 0
22.5212 2.28268 0
23.5729 2.31394 0
24.68 2.45552 0
25.6915 2.18788 0
26.7345 2.27841 0
27.6876 2.0712 0
29.1115 2.16383 0
15.9409 0.856296 0
17.1152 1.31381 0
18.2514 1.32513 0
19.3322 0.895582 0
20.4033 1.2877 0
21.4423 1.28446 0
22.5667 0.789288 0
23.6918 1.14648 0
24.6867 0.994988 0
25.7372 1.31074 0
26.7553 1.33603 0
27.8912 1.04076 0
29.1035 1.23277 0
29.1074 33.7545 0
27.8955 33.9346 0
26.7062 33.7221 0
25.5832 33.9776 0
24.5729 33.8151 0
23.8031 33.6037 0
22.5092 33.7476 0
21.5298 33.9331 0
20.2943 33.9324 0
19.3217 33.8108 0
15.1013 32.1612 0
15.0929 32.0581 0
15.0864 31.3665 0
15.0863 31.4651 0
18.4363 34.9138 0
15.0865 31.8594 0
15.0863 31.7608 0
15.0863 31.6622 0
15.0863 31.5636 0
15.0868 31.2681 0
15.0877 31.1697 0
15.0889 31.0713 0
15.0901 30.9728 0
15.0914 30.8742 0
15.0927 30.7745 0
15.0953 30.6721 0
17.7305 34.8841 0
17.8429 34.897 0
17.9451 34.9062 0
18.0432 34.9115 0
18.1409 34.9133 0
18.2393 34.9137 0
18.3378 34.9138 0
18.5348 34.9134 0
18.6332 34.9128 0
18.7317 34.9118 0
18.8303 34.9109 0
18.9289 34.91 0
19.0276 34.9095 0
19.1254 34.9096 0
19.2239 34.9095 0
19.3248 34.9062 0
15.1156 32.2729 0
15.0883 31.9583 0
17.2649 33.7527 0
17.1578 33.574 0
16.6756 33.0307 0
15.5668 32.4793 0
17.5416 34.5357 0
15.965 32.6022 0
17.4964 34.3312 0
16.2473 32.7351 0
17.3128 33.8451 0
17.5211 34.4331 0
16.7532 33.0997 0
15.7689 32.5325 0
16.0608 32.6429 0
17.3977 34.035 0
16.3377 32.7869 0
16.4259 32.8425 0
16.5952 32.9647 0
17.4675 34.2311 0
16.8281 33.1715 0
15.4642 32.46 0
17.357 33.9393 0
17.0361 33.4049 0
17.0988 33.4882 0
15.8676 32.5656 0
15.6685 32.5039 0
16.155 32.6872 0
17.4344 34.1324 0
16.9004 33.2464 0
17.2132 33.6623 0
15.1307 30.4807 0
19.5164 34.8674 0
15.1868 30.3045 0
19.688 34.8029 0
15.2683 30.0017 0
19.9804 34.7059 0
18.68 34.8241 0
15.1773 31.1232 0
15.173 31.7115 0
18.4848 34.8272 0
15.173 31.5138 0
15.184 30.9252 0
15.1932 30.7236 0
18.0931 34.8251 0
18.2885 34.8272 0
18.8787 34.8186 0
19.0768 34.8176 0
19.2702 34.8166 0
15.1743 31.909 0
18.1903 34.8267 0
15.1881 30.8264 0
15.1726 31.4144 0
15.1734 31.8101 0
15.1731 31.6128 0
15.1813 31.0249 0
17.9972 34.819 0
18.3867 34.8272 0
18.5819 34.8265 0
18.7787 34.8208 0
18.9779 34.8168 0
15.21 30.5996 0
19.391 34.7942 0
15.1139 32.3912 0
16.9698 33.3242 0
17.6101 34.8858 0
16.5118 32.9019 0
17.6165 34.4693 0
16.6926 32.9292 0
16.1455 32.5853 0
15.7424 32.4349 0
15.4149 32.3682 0
16.4295 32.7389 0
17.3673 33.7581 0
16.8521 33.0712 0
15.5285 32.3853 0
17.4143 33.8548 0
17.3164 33.6633 0
15.8456 32.4667 0
17.2026 33.4801 0
15.947 32.5025 0
17.5653 34.2572 0
16.3368 32.6835 0
17.1394 33.3924 0
17.5333 34.1543 0
16.7742 32.999 0
17.5927 34.3621 0
17.4973 34.0529 0
16.2421 32.6324 0
17.4575 33.9531 0
17.2615 33.5706 0
16.9279 33.1461 0
15.6364 32.4078 0
16.047 32.5421 0
17.6345 34.5828 0
15.3003 30.4498 0
19.5343 34.6939 0
15.4162 30.2451 0
19.7249 34.5615 0
15.4146 29.5458 0
20.4311 34.5379 0
15.2626 32.0499 0
15.2604 31.5613 0
15.2512 31.2681 0
15.2613 31.8603 0
15.2605 31.6615 0
15.2584 31.4571 0
15.2607 31.7608 0
18.4365 34.7413 0
18.3378 34.7402 0
18.2393 34.7399 0
18.1412 34.7374 0
17.9544 34.7313 0
19.0303 34.721 0
18.9277 34.7219 0
18.8253 34.7259 0
15.2879 30.7844 0
15.2759 30.9802 0
18.7236 34.7326 0
15.2688 31.0824 0
15.2947 32.2497 0
17.7559 34.7006 0
16.6076 32.8624 0
17.0722 33.3075 0
17.0014 33.225 0
16.5198 32.7988 0
15.4847 32.2909 0
17.7106 34.5093 0
15.5978 32.3106 0
15.8198 32.3665 0
15.9257 32.4011 0
15.7102 32.3364 0
17.6899 34.3975 0
17.6639 34.2872 0
17.5988 34.074 0
17.6332 34.1798 0
17.56 33.9701 0
16.0299 32.4393 0
17.5178 33.8677 0
17.4722 33.7668 0
16.1327 32.4811 0
16.2339 32.5267 0
16.8761 32.9702 0
16.3333 32.5768 0
16.796 32.8964 0
17.4226 33.6674 0
16.9524 33.0434 0
16.4306 32.6317 0
17.3687 33.5698 0
17.2467 33.3818 0
17.3101 33.4745 0
15.3713 30.5982 0
19.3779 34.6412 0
15.4925 30.4582 0
19.5053 34.5066 0
15.5916 29.9617 0
19.9835 34.3521 0
15.347 31.1544 0
19.2283 34.6365 0
18.6614 34.6514 0
19.0945 34.6194 0
15.3489 31.7112 0
15.3461 31.499 0
15.3505 31.8125 0
15.3485 31.6074 0
15.3369 31.3856 0
18.2903 34.6526 0
15.3547 31.9163 0
15.3565 32.0259 0
18.392 34.6541 0
18.494 34.6591 0
18.1892 34.6485 0
18.0856 34.6409 0
17.9771 34.6371 0
17.8507 34.667 0
18.98 34.6195 0
15.3687 30.9345 0
18.8718 34.6256 0
18.7648 34.6365 0
15.3641 31.0444 0
17.6423 34.7316 0
16.7088 32.8246 0
17.0302 33.1203 0
16.5257 32.6918 0
17.1785 33.2922 0
17.5313 33.675 0
17.479 33.5725 0
15.4419 32.2052 0
16.0092 32.3349 0
16.1161 32.3749 0
17.6641 33.9905 0
17.6232 33.8841 0
15.7883 32.2649 0
17.5791 33.779 0
15.9001 32.2985 0
17.7643 34.3233 0
17.7345 34.2094 0
16.9701 32.9499 0
17.701 34.099 0
16.9086 32.8707 0
16.222 32.4185 0
15.5497 32.2121 0
17.7966 34.5506 0
15.6705 32.2357 0
16.3264 32.4667 0
17.7883 34.4438 0
16.4291 32.5206 0
17.3582 33.3737 0
17.4213 33.4719 0
17.1061 33.2046 0
16.6184 32.7564 0
15.2666 32.3604 0
15.3268 32.1535 0
15.408 30.7456 0
15.5304 30.6385 0
19.3211 34.4954 0
15.6681 30.2803 0
19.6591 34.3222 0
15.8506 29.6259 0
15.4065 31.2735 0
18.5745 34.5805 0
19.1668 34.4992 0
15.4489 31.1261 0
18.6943 34.5551 0
19.036 34.506 0
15.436 31.5422 0
15.4264 31.4185 0
15.4416 31.7654 0
15.439 31.6567 0
18.2406 34.5605 0
18.1343 34.5513 0
18.0279 34.5369 0
15.4465 31.869 0
15.4579 31.9744 0
15.4553 30.8734 0
18.9186 34.5172 0
18.8047 34.5336 0
15.4623 30.997 0
17.0528 33.0083 0
16.8171 32.7902 0
16.5294 32.5806 0
17.2892 33.2788 0
17.6421 33.6867 0
17.2155 33.1861 0
17.5921 33.5793 0
16.2057 32.3083 0
15.9843 32.2297 0
16.0953 32.2674 0
17.6878 33.795 0
17.7694 34.0149 0
17.73 33.9044 0
17.8062 34.128 0
17.841 34.2457 0
16.3152 32.3537 0
15.8698 32.1941 0
15.7499 32.1597 0
15.6222 32.1284 0
16.7229 32.7158 0
17.8728 34.3718 0
17.9002 34.5177 0
16.4238 32.4056 0
17.1372 33.0954 0
16.6274 32.646 0
17.5364 33.4731 0
17.4739 33.3688 0
15.4761 32.102 0
15.6822 30.5245 0
19.4212 34.3315 0
15.9418 30.0682 0
16.2234 29.7607 0
15.5041 31.3438 0
15.5347 31.2208 0
18.511 34.4835 0
18.622 34.4879 0
19.0893 34.3779 0
18.4041 34.4995 0
18.3047 34.4771 0
18.1866 34.4608 0
15.5328 31.7096 0
15.5285 31.5885 0
15.5227 31.4583 0
18.089 34.461 0
15.5368 31.9166 0
18.7218 34.4499 0
15.5598 31.0749 0
18.9635 34.3994 0
18.8424 34.4218 0
15.5659 30.9343 0
16.9344 32.7612 0
16.5304 32.4648 0
17.7544 33.7028 0
17.3297 33.1697 0
17.7074 33.591 0
17.4044 33.2676 0
16.0704 32.1591 0
16.1843 32.1968 0
16.834 32.679 0
17.7975 33.8153 0
17.2505 33.0748 0
17.1648 32.98 0
17.8803 34.044 0
15.9543 32.1227 0
17.8394 33.929 0
17.9216 34.1632 0
16.6342 32.5307 0
16.2985 32.2385 0
15.834 32.0847 0
15.5772 32.0118 0
17.963 34.2894 0
15.7071 32.0431 0
17.9935 34.4193 0
16.7352 32.6024 0
17.6546 33.4793 0
16.4133 32.2871 0
17.5938 33.3684 0
15.6792 30.708 0
15.5535 30.7934 0
19.237 34.3539 0
15.8965 30.4141 0
19.5131 34.123 0
16.5703 29.4659 0
16.2731 30.1222 0
18.5936 34.3759 0
15.617 31.3451 0
18.409 34.3953 0
15.6558 31.1697 0
15.6172 31.509 0
18.2607 34.3765 0
15.6192 31.6393 0
15.6315 31.7607 0
18.9986 34.2759 0
18.751 34.3319 0
15.6765 31.0111 0
18.8793 34.3064 0
17.0388 32.7255 0
15.6794 30.8611 0
16.5272 32.3444 0
16.158 32.085 0
17.8242 33.608 0
17.8673 33.7242 0
16.0399 32.0486 0
16.9481 32.6457 0
17.9101 33.8399 0
17.2005 32.8782 0
17.3677 33.0564 0
17.9568 33.956 0
17.2824 32.9626 0
16.2758 32.1223 0
17.5246 33.26 0
18.0068 34.0751 0
16.8486 32.5622 0
15.9193 32.0097 0
18.0532 34.1993 0
15.6614 31.8989 0
15.797 31.9662 0
16.6383 32.41 0
17.7752 33.4912 0
16.7456 32.4831 0
18.1179 34.3395 0
17.4485 33.1558 0
16.3962 32.1662 0
17.7174 33.3737 0
19.1291 34.234 0
15.8337 30.6397 0
19.2969 34.1836 0
19.8128 34.0608 0
16.095 30.3034 0
16.5485 29.9039 0
16.3532 28.9994 0
18.4735 34.2511 0
15.7234 31.4448 0
18.3354 34.2984 0
15.6962 31.5724 0
15.7169 31.6852 0
18.6533 34.235 0
15.785 31.1035 0
18.9117 34.2069 0
18.7983 34.2151 0
16.1265 31.9704 0
17.0668 32.6228 0
16.2472 32.0057 0
17.9406 33.6316 0
17.9803 33.7491 0
18.0329 33.8618 0
16.5179 32.2198 0
17.3045 32.847 0
16.0052 31.9276 0
17.3999 32.9394 0
16.9673 32.5281 0
18.0884 33.9789 0
17.8971 33.5099 0
17.6495 33.2573 0
17.4894 33.0384 0
15.7939 30.7886 0
15.8822 31.886 0
16.8635 32.4391 0
16.7538 32.3571 0
16.3718 32.0442 0
16.6379 32.2839 0
17.8438 33.3858 0
17.5727 33.145 0
15.7534 31.2767 0
15.8054 30.933 0
19.1498 34.0698 0
15.9839 30.5945 0
16.2912 30.4314 0
19.5613 33.8529 0
16.5567 30.247 0
16.7907 29.0658 0
15.7762 29.0519 0
18.4432 34.1321 0
15.813 31.5759 0
18.3053 34.1779 0
15.8276 31.751 0
18.72 34.113 0
18.8672 34.1066 0
18.1731 34.2213 0
15.7782 31.8592 0
15.8552 31.3917 0
17.1822 32.7393 0
17.0565 32.8641 0
16.2143 31.888 0
16.0955 31.8459 0
18.0564 33.6614 0
18.0851 33.7701 0
18.1861 33.8654 0
18.0196 33.5359 0
17.0923 32.5017 0
17.4249 32.8172 0
15.9717 31.7797 0
17.7789 33.2611 0
16.3403 31.9218 0
16.5008 32.0924 0
17.5249 32.9149 0
16.9888 32.4011 0
15.9726 30.8057 0
16.8772 32.308 0
15.8898 31.2149 0
17.9724 33.4055 0
17.6179 33.0228 0
16.7572 32.2245 0
16.6304 32.1528 0
17.7027 33.1392 0
16.1461 30.6376 0
17.1732 32.5983 0
19.3333 33.9887 0
19.0054 34.1451 0
18.5698 34.1294 0
15.9297 31.0352 0
19.8723 33.7862 0
16.5555 30.539 0
16.8369 30.0653 0
17.2486 28.8494 0
16.7042 28.6011 0
15.9751 31.517 0
18.263 34.0629 0
18.1552 34.102 0
18.789 33.9874 0
15.9909 31.3316 0
16.184 31.7717 0
18.4944 34.0308 0
16.3029 31.8023 0
17.3262 32.7428 0
18.1734 33.7059 0
16.0839 31.7212 0
18.1439 33.5704 0
17.9122 33.2723 0
16.4746 31.9632 0
17.5552 32.7824 0
17.1245 32.369 0
18.1032 33.4334 0
17.0096 32.2634 0
17.6593 32.8928 0
16.886 32.1682 0
18.6335 34.0083 0
16.7526 32.0857 0
17.7539 33.0124 0
16.6137 32.0179 0
17.8383 33.1402 0
18.2912 33.9667 0
17.2412 32.4902 0
18.3678 34.0523 0
16.0336 31.1681 0
18.9759 33.9802 0
16.0965 31.0001 0
16.2023 30.8376 0
16.8397 30.405 0
16.3535 30.6849 0
19.683 33.5713 0
19.4049 33.6282 0
16.8334 29.7448 0
17.5533 29.2776 0
16.0079 31.654 0
16.2617 31.692 0
17.2868 32.6334 0
16.1666 31.6739 0
18.3259 33.8666 0
16.2656 31.0156 0
18.5426 33.91 0
18.0491 33.2921 0
16.438 31.8341 0
18.6872 33.8767 0
17.4336 32.6727 0
18.2384 33.4703 0
17.1517 32.2214 0
17.7031 32.7559 0
17.026 32.1144 0
17.8055 32.8784 0
18.3011 33.7518 0
16.8869 32.0183 0
16.0824 31.4203 0
18.2731 33.612 0
16.5852 31.8786 0
17.9799 33.1496 0
18.4111 33.9383 0
17.8982 33.0111 0
17.2702 32.3315 0
16.7373 31.9397 0
16.1205 31.29 0
16.5475 30.7763 0
18.8522 33.8441 0
19.1544 33.6884 0
19.158 33.8926 0
16.7593 30.6784 0
16.3871 30.8892 0
19.4804 33.3773 0
20.0228 33.514 0
17.7956 28.9095 0
17.4568 29.6892 0
16.2188 31.5854 0
16.1605 31.4914 0
18.4457 33.8007 0
16.3897 31.7078 0
18.5886 33.797 0
18.1913 33.3218 0
17.5963 32.6426 0
18.3776 33.5151 0
16.1802 31.1518 0
17.3869 32.4323 0
19.0137 33.8188 0
17.179 32.063 0
17.8642 32.7384 0
16.5408 31.7346 0
16.1864 31.3875 0
17.3047 32.1765 0
17.0383 31.9483 0
18.1276 33.1695 0
16.5381 30.9522 0
17.9631 32.875 0
18.4065 33.6554 0
16.876 31.8521 0
18.051 33.02 0
16.7052 31.7836 0
16.4263 31.0664 0
18.7215 33.7111 0
16.7143 30.9019 0
16.9686 30.6132 0
19.237 33.4627 0
19.7714 33.2676 0
17.1227 29.8665 0
17.8231 29.5703 0
17.676 28.4412 0
16.3311 31.6034 0
17.4941 32.532 0
18.3408 33.3603 0
16.2572 31.2834 0
18.9299 33.6856 0
17.4231 32.2836 0
16.6325 31.1219 0
17.7598 32.6132 0
16.4731 31.5766 0
16.3122 31.1562 0
18.2814 33.1982 0
18.4948 33.5645 0
17.3435 32.0145 0
17.2096 31.8893 0
18.0357 32.7319 0
17.3685 32.5521 0
16.3179 31.4521 0
16.6547 31.6222 0
18.2104 33.0377 0
18.1287 32.8823 0
17.0482 31.7484 0
19.0214 33.5093 0
16.8395 31.6733 0
19.2722 33.2282 0
17.2141 30.6898 0
16.9453 30.82 0
19.5176 33.1001 0
20.1339 33.1 0
17.1092 30.2102 0
17.4074 30.0642 0
17.7389 29.9375 0
17.605 27.9172 0
18.3009 32.8968 0
17.6507 32.4952 0
18.5111 33.4101 0
17.4592 32.1299 0
18.4416 33.2325 0
17.9336 32.5904 0
17.5382 32.3855 0
18.8175 33.5303 0
16.6013 31.4884 0
17.3903 31.8456 0
18.3772 33.0641 0
18.5481 33.68 0
16.4887 31.4244 0
16.7813 31.4788 0
18.1182 32.5788 0
17.3465 30.393 0
16.888 31.0555 0
19.0916 33.333 0
17.6636 30.2884 0
16.4363 31.2637 0
19.2779 32.9688 0
17.1482 30.9762 0
19.7872 32.942 0
18.0889 29.8294 0
18.6322 33.546 0
17.5726 32.2311 0
18.4007 32.7425 0
18.5916 33.2567 0
17.8205 32.4554 0
17.5079 31.9783 0
18.9022 33.3389 0
16.9822 31.559 0
17.255 31.7171 0
18.3085 32.5781 0
18.5527 33.0969 0
16.6266 31.3414 0
18.4834 32.9171 0
18.0079 32.4244 0
19.0487 32.8198 0
17.4224 30.9106 0
19.0296 33.1165 0
17.0848 31.2356 0
16.828 31.2719 0
17.9932 30.1831 0
19.5139 32.8106 0
17.9147 29.2505 0
17.5866 30.6412 0
18.7016 33.3739 0
17.2957 31.546 0
17.5891 32.0951 0
17.6966 32.3334 0
18.507 32.5704 0
16.9607 31.3993 0
18.2112 32.4103 0
18.6002 32.7547 0
17.5767 31.8162 0
17.4434 31.6714 0
17.1296 31.4498 0
18.7585 33.1565 0
18.677 32.9448 0
17.8736 32.274 0
17.3405 31.1393 0
19.1433 32.5557 0
19.4467 32.5008 0
19.7599 32.6168 0
17.9073 30.5083 0
18.8642 32.9631 0
18.3389 30.099 0
17.6879 30.9336 0
18.2168 29.0569 0
18.7286 32.574 0
17.6814 31.9818 0
17.648 31.6271 0
17.4891 31.48 0
18.3957 32.4245 0
18.8087 32.7793 0
17.7199 32.1589 0
18.0857 32.2302 0
17.3109 31.354 0
18.1168 30.7361 0
17.542 31.0858 0
17.8554 30.769 0
18.4647 29.7353 0
19.7203 32.297 0
19.2165 32.278 0
18.5708 30.3776 0
18.6219 29.3132 0
17.7034 31.411 0
18.3449 32.2154 0
17.7872 31.8076 0
18.9295 32.621 0
17.5199 31.2737 0
17.7294 31.1768 0
17.907 32.0383 0
18.9145 32.3746 0
18.4337 30.6948 0
18.6047 32.3442 0
19.4704 32.2012 0
20.0704 32.3983 0
18.702 30.0362 0
18.6061 28.8217 0
17.8804 31.5869 0
19.3132 31.9415 0
19.655 31.9834 0
18.1725 32.0142 0
18.0337 31.7996 0
17.9446 31.3338 0
19.9227 32.0804 0
18.3068 30.9858 0
18.5685 32.0842 0
18.7675 30.6641 0
18.9616 30.3388 0
18.8515 29.6955 0
17.9785 31.0275 0
19.0005 29.0313 0
20.5002 32.3233 0
18.3816 31.9935 0
18.7729 32.1642 0
19.9434 31.7173 0
19.0015 32.0804 0
18.209 31.2569 0
18.624 30.9681 0
18.2896 31.8032 0
19.0215 29.9853 0
20.8001 32.6704 0
18.9798 28.6255 0
19.0224 29.4001 0
18.5327 31.8447 0
18.4446 31.6138 0
19.0148 31.782 0
18.4799 31.2257 0
18.771 31.9314 0
19.2849 29.7108 0
19.5653 31.6621 0
18.9518 30.9445 0
19.0514 30.6617 0
20.952 32.235 0
20.6041 33.0864 0
19.4096 28.7599 0
18.6351 28.2839 0
19.458 31.3852 0
19.2677 30.8568 0
18.7929 31.2798 0
18.998 31.5045 0
20.3928 33.4388 0
19.7044 29.5011 0
18.7316 31.6277 0
18.3737 31.4158 0
18.1699 28.6045 0
21.0537 33.0464 0
20.6257 31.9256 0
18.4493 27.7476 0
20.0205 32.7549 0
18.5645 31.4326 0
19.1791 31.2349 0
19.5836 30.7135 0
19.7574 29.0731 0
19.7334 29.996 0
20.9175 33.5661 0
20.2362 32.0124 0
21.0284 31.7803 0
21.5875 33.2774 0
17.9992 27.6662 0
19.5772 30.3723 0
19.8455 28.7018 0
20.0911 29.6636 0
21.4198 32.0808 0
20.1198 31.3033 0
17.6212 27.3647 0
19.3128 30.1522 0
19.9566 30.5004 0
19.7472 31.3538 0
20.5279 31.257 0
19.685 28.4006 0
21.0079 31.2765 0
21.915 31.9065 0
19.8673 30.9747 0
19.5171 31.0865 0
19.7554 27.9651 0
21.5023 31.0365 0
21.9925 31.3305 0
22.0068 30.6626 0
21.1207 30.8138 0
20.9403 30.3765 0
20.7192 30.848 0
20.273 30.8925 0
21.3492 30.013 0
20.7089 31.5737 0
20.2199 30.0824 0
21.798 30.1377 0
20.9168 29.857 0
20.503 29.7454 0
20.6054 30.1065 0
21.6813 29.7369 0
21.8487 29.3258 0
20.8109 29.4193 0
20.6793 29.0103 0
22.0795 29.7618 0
21.4825 28.9334 0
22.5451 29.8694 0
20.2052 28.9154 0
21.0622 29.1023 0
21.0229 28.6844 0
20.0281 29.2992 0
20.813 28.144 0
22.1205 28.7416 0
21.2675 27.7807 0
22.873 29.5 0
21.9632 32.7803 0
17.0983 27.6399 0
19.3142 27.655 0
22.5439 31.0368 0
18.896 27.8586 0
20.2925 27.7603 0
20.9652 34.2448 0
21.7887 32.3474 0
16.5641 27.9854 0
20.578 28.6223 0
17.6764 26.7465 0
22.2783 32.3372 0
18.8329 27.3891 0
28.6566 0.568382 0
17.7189 0.627458 0
18.4816 0.569635 0
20.9217 0.613397 0
24.1341 0.535367 0
26.317 0.623727 0
27.0874 0.600103 0
29.2704 2.93393 0
29.1422 8.43442 0
29.243 13.1776 0
29.2196 18.7315 0
29.2765 24.2997 0
29.1702 26.5884 0
29.1708 29.7933 0
29.3055 32.0596 0
29.1478 16.3663 0
29.2807 10.6166 0
29.2281 5.20421 0
15.7574 19.905 0
15.7501 21.9605 0
15.8018 25.4144 0
15.7824 14.1356 0
15.8194 5.24646 0
15.7047 2.87911 0
15.8213 10.8731 0
15.7289 8.5024 0
15.7844 27.6676 0
15.8873 16.4189 0
23.1034 34.1794 0
24.01 34.337 0
26.4151 34.4219 0
27.0695 34.4157 0
15.5363 28.4431 0
28.6433 34.4223 0
23.0881 31.3366 0
18.7828 26.8032 0
22.2587 33.2659 0
22.9686 32.42 0
21.7802 27.7217 0
20.8294 27.5147 0
19.8179 27.4128 0
23.1577 30.0408 0
22.8702 28.8988 0
16.5408 27.2926 0
17.1686 26.4053 0
21.5339 34.4959 0
18.2356 26.4754 0
25.4217 0.488243 0
20.1841 0.559336 0
16.9445 0.559513 0
29.3875 17.1011 0
29.4306 3.5919 0
29.2661 5.98315 0
29.3929 9.15554 0
29.3303 11.7412 0
29.5163 23.2444 0
29.3677 25.863 0
29.202 29.016 0
29.4391 31.4387 0
29.2452 19.5131 0
29.2687 13.9291 0
29.2043 7.56361 0
29.5537 1.84347 0
15.6935 23.0744 0
15.5952 26.2465 0
15.6877 15.685 0
15.7787 11.6533 0
15.465 9.37342 0
15.655 7.43099 0
15.6685 1.77174 0
15.6581 13.0506 0
15.7786 6.0256 0
15.4598 3.74862 0
15.5797 20.4913 0
15.6579 18.6986 0
24.7275 34.4259 0
28.4292 1.84602 0
27.2672 1.6816 0
24.331 1.72967 0
20.9225 1.75829 0
17.6941 1.97489 0
28.4694 33.1114 0
27.2467 33.1309 0
24.3593 33.243 0
22.9897 33.2583 0
26.2296 1.77826 0
19.0176 1.70404 0
26.1187 33.348 0
29.2218 27.4271 0
15.7935 17.2666 0
15.7534 24.5357 0
29.2121 15.5 0
29.559 33.146 0
28.1995 16.4304 0
16.8592 16.3883 0
28.3769 32.1843 0
28.2732 29.9929 0
16.6687 25.5262 0
28.4498 24.3081 0
16.6146 21.9014 0
16.702 19.9185 0
28.2966 18.4674 0
16.6876 14.1061 0
28.3602 10.4869 0
16.7376 10.6536 0
28.1654 8.53092 0
16.6312 8.61866 0
28.318 4.91007 0
16.7284 5.03192 0
28.3578 2.71323 0
16.5774 2.99062 0
28.3347 12.8697 0
28.2903 26.5332 0
21.6704 0.53743 0
22.1857 34.2953 0
19.3155 26.4991 0
16.647 26.6265 0
23.0941 30.7251 0
15.4843 26.9106 0
19.8597 26.8253 0
17.6934 26.0389 0
22.0142 33.7039 0
20.8434 27.0097 0
22.202 30.1698 0
27.4894 26.5278 0
27.5479 24.3013 0
17.3685 25.4302 0
24.0515 29.9272 0
18.7662 26.1756 0
23.1456 28.3769 0
22.0959 28.1334 0
23.5216 28.7195 0
21.9858 27.2481 0
23.1554 31.8537 0
28.3458 15.0788 0
28.3634 4.14204 0
16.4129 18.4833 0
16.4103 12.8186 0
16.5731 9.32633 0
16.4082 7.20556 0
16.5527 3.70385 0
16.339 1.68782 0
28.5144 6.32189 0
28.3404 9.76222 0
28.5396 11.9783 0
28.5133 14.2536 0
28.5425 19.7489 0
28.2396 25.4659 0
28.3584 27.7648 0
28.3696 31.3562 0
27.2201 32.2381 0
24.2435 32.0376 0
28.3051 28.651 0
16.588 24.1836 0
28.3108 23.0477 0
16.68 20.6288 0
28.2872 17.6892 0
16.9847 15.2956 0
16.6442 12.0349 0
28.3265 7.14578 0
16.6462 6.40843 0
17.7337 2.85779 0
20.7554 2.8293 0
24.1149 2.90862 0
27.4607 2.8205 0
24.9614 33.3106 0
26.3311 32.2849 0
18.6889 2.84966 0
26.0357 2.84674 0
27.3224 16.4049 0
16.6511 17.6716 0
17.7537 16.4157 0
27.3406 29.973 0
16.563 23.2902 0
17.5635 21.9649 0
17.6822 19.7629 0
27.3283 18.604 0
17.7088 14.0184 0
27.2399 10.541 0
17.7487 10.6181 0
27.2063 8.54054 0
17.7672 8.58357 0
27.2436 4.89696 0
17.7116 4.99728 0
25.0253 1.73576 0
22.9052 1.64083 0
22.1815 1.65795 0
19.6997 1.69341 0
27.2697 12.9522 0
23.159 27.8097 0
24.1249 28.3892 0
23.5573 32.1415 0
19.8654 26.2097 0
18.702 25.4886 0
20.4799 26.5483 0
16.7718 26.1143 0
21.1628 26.5887 0
21.8777 26.6525 0
18.6347 16.4375 0
26.4678 29.8894 0
18.5607 19.7379 0
26.4606 16.3765 0
26.4693 18.6388 0
23.6171 31.0317 0
18.5144 22.1157 0
27.5804 27.6545 0
27.64 25.4363 0
17.4229 24.29 0
27.5599 23.0591 0
17.4764 23.1805 0
22.4328 27.6366 0
26.7828 26.5248 0
26.819 24.2975 0
27.1262 17.5104 0
27.2331 19.8492 0
17.7866 15.2679 0
17.7048 12.7766 0
17.8392 18.4463 0
17.7873 9.3227 0
17.7126 7.16075 0
17.8836 3.73969 0
27.2723 6.36633 0
27.1934 9.81994 0
27.2303 11.8164 0
27.1396 14.3016 0
28.2717 21.0536 0
27.0681 31.3201 0
25.0241 32.1709 0
27.3643 28.6965 0
17.8533 20.8498 0
28.2937 21.8002 0
27.3092 15.0297 0
17.7202 12.1101 0
27.2628 7.04434 0
17.7297 6.4884 0
27.2491 4.11641 0
20.7702 3.96173 0
24.101 3.94555 0
20.0665 2.84299 0
22.1661 2.86317 0
22.8603 2.86657 0
25.3533 2.87359 0
26.246 31.1182 0
18.6922 4.01847 0
25.9887 4.10647 0
18.6881 14.0193 0
17.7139 17.7191 0
26.2374 10.6852 0
18.7612 10.6376 0
26.2197 8.50502 0
18.8532 8.42533 0
26.1241 4.95035 0
18.7772 4.88344 0
26.3107 12.9908 0
24.1305 30.6978 0
26.2202 24.6431 0
26.1718 26.1851 0
26.2065 26.901 0
26.2744 23.9171 0
23.8563 27.7766 0
22.929 27.2726 0
20.8922 26.1199 0
18.0143 25.4341 0
24.1872 31.3164 0
24.0476 29.1004 0
19.857 25.5919 0
19.7087 10.7018 0
25.3703 10.7079 0
19.6037 14.0573 0
25.4109 12.983 0
27.5446 20.9653 0
26.4458 14.2209 0
18.5273 18.5433 0
26.5902 19.8508 0
18.4364 20.8686 0
22.5224 26.4329 0
26.5951 28.6968 0
26.5621 17.506 0
26.5229 15.1695 0
18.5432 17.5819 0
22.1294 26.0851 0
25.35 30.9214 0
27.5965 21.9478 0
19.2078 16.4354 0
25.7482 16.3767 0
25.7939 29.8615 0
19.2801 19.7398 0
25.7665 18.6526 0
18.1254 23.1385 0
26.9985 23.0665 0
20.6982 5.11877 0
24.3061 5.11811 0
20.1095 3.91188 0
22.1639 3.99956 0
22.8552 3.99595 0
25.2867 3.97407 0
26.205 6.37566 0
18.8801 9.5369 0
18.8009 7.1331 0
18.675 15.2672 0
26.0303 9.63724 0
26.109 11.8324 0
18.921 12.7715 0
18.7768 12.0693 0
26.2196 7.0263 0
18.7906 6.49467 0
25.1343 5.11428 0
25.2338 8.49143 0
19.867 8.37162 0
19.8414 5.04595 0
29.5313 20.9958 0
22.139 25.4754 0
23.0217 26.7537 0
23.0599 26.1917 0
24.5675 28.8254 0
20.929 25.5739 0
25.2718 29.5823 0
18.7371 23.3833 0
19.8778 20.0761 0
25.209 19.0231 0
25.1719 16.7187 0
25.1693 16.04 0
25.1856 18.3176 0
19.861 19.3947 0
26.3314 23.1014 0
25.3119 30.1883 0
20.3873 25.2876 0
19.3332 25.249 0
24.2264 27.3302 0
17.7017 24.8769 0
26.1606 25.4168 0
26.3113 27.547 0
24.2177 8.47328 0
25.4368 9.6532 0
25.4697 11.8286 0
19.6036 12.8778 0
19.4622 15.2535 0
19.6136 11.9196 0
24.6463 30.9805 0
20.3077 10.7387 0
24.7848 10.6813 0
20.3414 14.0814 0
24.6911 12.9627 0
24.7929 29.9036 0
25.511 24.2348 0
25.3579 26.6039 0
20.0184 9.59022 0
19.836 7.11718 0
25.1298 14.1457 0
25.192 7.04363 0
25.1328 6.38021 0
19.8037 6.49339 0
20.7142 6.45891 0
24.078 6.20936 0
22.1716 5.15019 0
22.8716 5.13914 0
26.2007 20.9796 0
20.896 8.37813 0
23.5942 26.4531 0
19.8756 24.9787 0
24.4797 16.3454 0
24.4953 18.73 0
25.1893 28.9282 0
18.0415 24.4035 0
20.9282 14.4281 0
24.1499 13.3447 0
24.0734 12.6734 0
20.9401 13.7692 0
19.7699 16.3846 0
22.7158 25.4103 0
24.5081 27.81 0
25.5901 25.4158 0
18.4913 22.7942 0
18.7489 24.2317 0
19.9125 20.8759 0
26.2101 22.2626 0
21.9138 8.44799 0
20.6892 9.60324 0
24.3471 14.0426 0
25.4099 21.0038 0
24.3439 7.16045 0
21.4865 25.235 0
18.9004 24.8978 0
23.2158 8.46923 0
20.6762 19.6442 0
25.0934 17.5124 0
19.8982 18.7429 0
20.8798 7.06948 0
24.0238 9.8203 0
25.0932 15.3586 0
25.1471 19.7808 0
22.2549 6.39675 0
22.9595 6.26108 0
19.9299 17.5307 0
24.353 26.6825 0
25.1293 27.8016 0
23.3458 13.0634 0
20.9012 10.7063 0
19.3975 24.1378 0
25.3596 22.1837 0
23.1239 25.6602 0
20.9172 24.8712 0
20.5451 16.3459 0
20.6981 17.5104 0
23.2408 9.68257 0
24.3371 15.2602 0
24.2087 17.5162 0
20.6088 18.7113 0
21.9727 24.7924 0
19.3549 23.3296 0
22.5699 8.48495 0
21.6547 14.1206 0
19.287 22.0258 0
22.2711 7.10689 0
24.106 10.5782 0
20.9808 15.1181 0
21.0278 13.096 0
23.9647 11.9746 0
21.9518 9.61887 0
22.9924 7.22894 0
21.0623 11.875 0
23.7287 25.4037 0
21.7577 24.2119 0
20.6005 24.2722 0
19.9412 24.3185 0
19.8499 22.3402 0
19.8249 21.654 0
21.7283 10.6656 0
21.8887 11.8621 0
21.795 13.04 0
23.071 11.8693 0
21.7592 15.2201 0
24.0707 25.9857 0
23.2287 10.6702 0
21.3974 17.4996 0
23.019 14.2062 0
22.9389 16.4533 0
23.1458 25.0984 0
20.4831 22.0033 0
19.9085 23.0787 0
21.9407 17.8307 0
19.6826 23.7214 0
24.1831 24.9339 0
21.1842 24.2366 0
20.7334 20.934 0
22.0761 16.4968 0
24.4559 25.4204 0
22.4839 11.8604 0
23.06 15.2103 0
24.242 24.3073 0
20.5873 23.1289 0
21.9671 17.1851 0
20.8851 23.6902 0
23.0748 24.4614 0
21.9846 18.5492 0
25.1286 25.4075 0
23.07 17.0469 0
24.8431 24.1344 0
23.6055 24.0833 0
22.4236 24.189 0
22.6384 17.5313 0
25.1105 23.5635 0
22.0282 23.638 0
23.0504 23.7287 0
24.0384 23.6942 0
24.4398 23.1763 0
21.7303 23.1014 0
22.8072 23.0978 0
23.3722 23.1407 0
23.8529 23.2463 0
25.606 23.1677 0
21.1657 23.1185 0
22.2674 23.0757 0
25.1378 22.8742 0
21.9825 22.5404 0
20.8641 22.5707 0
23.1279 22.548 0
22.2165 21.9909 0
21.1383 22.0388 0
23.4399 21.9409 0
21.6793 22.0376 0
21.867 21.5117 0
22.7943 21.9252 0
24.1118 21.9568 0
20.9242 21.5127 0
21.3838 21.1363 0
23.0498 21.0732 0
22.0757 20.8636 0
21.9544 20.1811 0
22.2662 19.6864 0
21.556 19.6815 0
23.0642 19.7162 0
21.9133 19.1975 0
20.7208 19.1202 0
22.646 18.5236 0
23.2261 18.8272 0
23.0401 18.121 0
23.8612 18.877 0
24.1415 19.3104 0
23.4275 17.5404 0
24.4272 19.8065 0
23.8088 19.8118 0
25.1548 20.4263 0
23.0444 20.3691 0
24.1495 20.3374 0
23.8943 20.9184 0
24.6388 20.8113 0
24.3326 21.3873 0
25.252 21.5865 0
24.7526 21.8156 0
29.0936 36.2238 0
27.8694 36.0398 0
26.7407 36.3426 0
25.7411 36.3158 0
24.6712 35.8066 0
23.743 36.1743 0
22.5661 36.1591 0
21.324 36.1132 0
20.3523 35.9913 0
19.3076 36.1389 0
18.2451 36.0986 0
29.1079 37.1378 0
27.676 37.0666 0
26.7248 37.2633 0
25.6707 37.308 0
24.6666 37.4003 0
23.6781 37.2381 0
22.6574 37.1969 0
21.3743 37.2471 0
20.3889 37.1502 0
19.2252 37.2354 0
18.1965 37.2068 0
17.1258 37.2083 0
28.662 38.4342 0
27.9793 38.3151 0
26.6197 38.158 0
25.6533 38.2913 0
24.6544 38.1869 0
23.6412 38.3111 0
22.4631 38.3642 0
21.4386 38.2632 0
20.4052 38.2638 0
19.3404 38.4575 0
18.2153 38.2254 0
17.1103 38.3315 0
16.071 38.3449 0
28.9222 39.2748 0
27.8142 39.383 0
27.0235 39.3709 0
25.5572 39.2145 0
24.6863 39.4642 0
23.6802 39.335 0
22.5483 39.5916 0
21.3986 39.2049 0
20.4735 39.3019 0
19.2075 39.5098 0
18.1922 39.4104 0
17.1145 39.4671 0
16.1147 39.4611 0
28.556 40.7771 0
27.6648 40.6111 0
26.7447 40.5228 0
25.8107 40.4853 0
24.9062 40.4751 0
23.5995 40.7226 0
22.5436 40.8245 0
21.3596 40.3819 0
20.4226 40.4392 0
19.2233 40.6521 0
18.3232 40.4532 0
17.1424 40.4423 0
16.0398 40.5527 0
28.8316 41.7013 0
27.6494 41.6816 0
26.7142 41.6665 0
25.7757 41.6507 0
24.7669 41.6498 0
23.7012 42.157 0
22.4569 41.9833 0
21.2426 41.675 0
20.0463 41.7792 0
19.121 41.5292 0
18.3322 41.5663 0
17.0596 41.5463 0
16.0655 41.5254 0
28.5203 42.6305 0
27.6295 42.7416 0
26.7338 42.7666 0
25.8179 42.7831 0
24.8319 42.852 0
23.8002 43.2981 0
22.5869 43.0702 0
21.4296 42.879 0
20.2732 42.7593 0
19.1615 42.5663 0
18.2913 42.6766 0
16.9199 42.7041 0
16.0635 42.8403 0
28.548 43.9698 0
27.67 43.8956 0
26.811 43.8892 0
26.0009 43.8955 0
24.6997 44.0852 0
23.6029 44.2603 0
22.6716 44.2026 0
21.5748 43.933 0
20.5183 43.7757 0
19.2482 43.7726 0
18.1627 43.8137 0
17.2304 43.7363 0
16.0491 43.8472 0
28.8936 44.8137 0
27.7677 44.9745 0
26.8411 44.9934 0
25.8913 44.9652 0
24.4942 44.9943 0
23.6277 45.141 0
22.561 45.2744 0
21.6303 44.9144 0
20.737 44.6758 0
18.9921 44.9612 0
18.0364 44.969 0
17.2096 44.9331 0
16.3817 44.783 0
28.5708 46.3199 0
27.7096 46.1716 0
26.8294 46.1354 0
25.8881 46.1591 0
24.4738 46.2008 0
23.5761 46.2257 0
22.5173 46.3098 0
21.488 45.94 0
20.5827 45.9895 0
19.0044 45.9668 0
18.0582 46.0777 0
17.1722 46.132 0
16.0822 46.3046 0
28.8406 47.241 0
27.6894 47.2303 0
26.8091 47.2246 0
25.9998 47.2252 0
24.6822 47.1209 0
23.4103 47.2788 0
22.4733 47.2396 0
21.6097 46.9365 0
20.107 47.1629 0
18.9478 47.1442 0
18.1429 47.1948 0
17.2917 47.2141 0
16.4388 47.1542 0
28.5221 48.1735 0
27.6304 48.2904 0
26.7344 48.3218 0
25.8212 48.3396 0
24.8536 48.3745 0
23.8752 48.2253 0
22.6935 48.2128 0
21.698 47.8435 0
20.0828 48.1643 0
19.1457 48.2621 0
18.23 48.3233 0
17.3376 48.375 0
16.4694 48.5012 0
28.5377 49.5129 0
27.6303 49.4439 0
26.7152 49.444 0
25.7747 49.4649 0
24.7913 49.512 0
23.8019 49.2985 0
22.5187 49.3359 0
21.5521 49.3513 0
20.1528 49.4038 0
19.183 49.4278 0
18.2538 49.4402 0
17.3311 49.4446 0
16.1764 49.4458 0
28.8783 50.3527 0
27.7074 50.5227 0
26.7345 50.5527 0
25.7953 50.569 0
24.8452 50.6304 0
23.7475 50.3923 0
22.4604 50.4431 0
21.5224 50.504 0
20.1509 50.5484 0
19.1849 50.5528 0
18.2562 50.5442 0
17.3562 50.5128 0
16.4857 50.3907 0
28.5517 51.8623 0
27.6478 51.7209 0
26.7253 51.6794 0
25.811 51.6503 0
24.9124 51.5913 0
23.4755 51.3082 0
22.4975 51.4962 0
21.6147 51.6706 0
20.162 51.7052 0
19.1866 51.6748 0
18.2576 51.6689 0
17.3511 51.6712 0
16.468 51.7365 0
28.8336 52.7723 0
27.648 52.7769 0
26.7116 52.7762 0
25.7927 52.7757 0
24.836 52.7925 0
23.4445 52.8105 0
22.6914 52.8176 0
21.38 52.6938 0
20.022 52.7877 0
19.1788 52.7842 0
18.252 52.7753 0
17.2853 52.7403 0
16.132 52.5725 0
28.5424 53.6859 0
27.6352 53.8322 0
26.6986 53.8709 0
25.7856 53.8791 0
24.9722 53.8688 0
23.7334 53.7991 0
22.4349 53.7961 0
20.9948 53.9935 0
20.1011 53.9135 0
19.2136 53.9027 0
18.263 53.9012 0
17.3097 53.8958 0
16.5159 53.8811 0
28.8852 55.1873 0
27.6896 55.0297 0
26.6782 55.0066 0
25.7128 54.9976 0
24.8058 54.965 0
23.924 54.8809 0
22.4586 54.7746 0
21.0248 54.8661 0
20.1446 54.9747 0
19.2444 55.0027 0
18.2741 55.0163 0
17.2646 55.0351 0
16.0676 55.1375 0
28.5318 56.0387 0
27.6163 56.1359 0
26.6525 56.167 0
25.6711 56.1732 0
24.7317 56.1573 0
23.8909 56.102 0
22.3752 55.6873 0
21.0855 56.0054 0
20.241 56.0846 0
19.2935 56.1116 0
18.3026 56.1193 0
17.3023 56.1168 0
16.2096 56.0392 0
28.5418 57.2662 0
27.7179 57.4717 0
26.6905 57.5295 0
25.6545 57.5401 0
24.6075 57.5257 0
23.6156 57.3725 0
22.4907 57.2673 0
21.3254 57.2343 0
20.3147 57.2601 0
19.3128 57.2443 0
18.3159 57.2454 0
17.3541 57.2671 0
16.4526 57.3636 0
29.1268 58.4348 0
27.7501 58.1206 0
26.6985 58.1447 0
25.6663 58.1584 0
24.5862 58.2082 0
23.5477 58.3987 0
22.3499 58.1882 0
21.5277 58.4931 0
20.0659 58.3464 0
19.2539 58.3521 0
18.2879 58.3549 0
17.2901 58.3279 0
16.1255 58.1687 0
28.6408 59.2111 0
27.69 59.2825 0
26.704 59.2996 0
25.7381 59.3339 0
24.9013 59.3546 0
23.3461 59.5661 0
22.483 59.4229 0
21.4394 59.44 0
20.2873 59.4751 0
19.2897 59.5489 0
18.2778 59.5822 0
17.278 59.5706 0
16.4675 59.5166 0
28.8957 60.7214 0
27.7126 60.5668 0
26.7559 60.5332 0
25.9767 60.5236 0
24.4989 60.6992 0
23.4572 60.558 0
22.4684 60.5377 0
21.4814 60.5706 0
20.499 60.7563 0
19.3111 60.5912 0
18.2838 60.817 0
17.122 60.7826 0
15.7514 60.5697 0
28.5772 61.5829 0
27.6578 61.719 0
26.7037 61.7005 0
25.7593 61.6318 0
24.6567 61.6344 0
23.4785 61.6252 0
22.4833 61.6173 0
21.4921 61.6277 0
20.3437 61.6285 0
19.2949 61.5724 0
18.2433 61.6042 0
17.1011 61.4762 0
16.0998 61.6473 0
29.0524 62.8931 0
27.761 62.9381 0
26.489 62.9401 0
25.6713 62.799 0
24.6631 62.7079 0
23.5027 62.6907 0
22.4904 62.7152 0
21.4756 62.6886 0
20.3113 62.699 0
19.2649 62.7414 0
18.1927 62.7412 0
17.1172 62.7833 0
16.1212 62.927 0
28.9242 63.8756 0
27.7435 63.6421 0
26.6878 63.7095 0
25.653 64.1181 0
24.5986 63.6881 0
23.5646 63.6802 0
22.4955 64.1007 0
21.4185 63.6823 0
20.3666 63.7057 0
19.2494 64.2121 0
18.0955 63.8524 0
17.1371 63.9183 0
15.9866 64.0556 0
15.0861 38.4363 0
15.0887 39.3235 0
15.0893 38.9288 0
15.0885 38.8302 0
15.0864 38.5348 0
15.086 38.1407 0
15.0863 38.0419 0
18.5348 35.0863 0
18.6332 35.087 0
17.7271 35.1151 0
17.8387 35.1018 0
17.9418 35.0929 0
18.0417 35.0881 0
18.1405 35.0864 0
18.2392 35.086 0
18.3378 35.086 0
18.4363 35.0861 0
18.7317 35.0879 0
18.8303 35.0889 0
18.929 35.0897 0
19.0276 35.0903 0
19.126 35.0908 0
19.2254 35.0917 0
19.3273 35.0946 0
15.0893 39.1268 0
15.0901 39.0275 0
15.0876 38.7317 0
15.0869 38.6332 0
15.086 38.3378 0
15.086 38.2392 0
15.0879 37.9426 0
15.0941 37.8438 0
17.214 36.3383 0
17.4962 35.6688 0
16.2472 37.2646 0
16.9001 36.7535 0
16.7533 36.9001 0
17.5206 35.567 0
16.0607 37.3568 0
17.3974 35.9649 0
15.6684 37.4963 0
16.4258 37.1578 0
17.3131 36.1549 0
16.1548 37.3124 0
15.8675 37.4343 0
17.4671 35.7688 0
15.7687 37.4671 0
16.828 36.8281 0
15.4566 37.5472 0
15.3329 37.5756 0
17.3569 36.0606 0
15.5651 37.5224 0
17.099 36.5126 0
17.2655 36.2475 0
16.6755 36.9693 0
16.9694 36.676 0
15.9648 37.3973 0
17.1585 36.4267 0
16.3376 37.2131 0
16.5116 37.0986 0
17.4341 35.8675 0
17.5398 35.4642 0
15.1292 39.5143 0
19.5185 35.1325 0
15.1914 39.6881 0
19.6922 35.1954 0
15.2893 39.9819 0
19.9907 35.2867 0
18.68 35.1753 0
15.1729 38.4853 0
15.1795 38.8784 0
15.1725 38.0911 0
18.2884 35.1722 0
18.0908 35.1737 0
18.4848 35.1722 0
18.8786 35.1808 0
19.0757 35.1831 0
19.2753 35.1895 0
15.1817 39.0779 0
15.1753 38.6817 0
15.1724 38.2885 0
15.1848 37.8018 0
19.1735 35.1849 0
18.5819 35.1729 0
18.1898 35.1726 0
18.3867 35.1722 0
18.7787 35.1786 0
18.9773 35.1828 0
15.1804 39.1813 0
15.1817 38.9774 0
15.1775 38.7798 0
15.1741 38.5835 0
15.1726 38.3869 0
15.1724 38.1899 0
15.1746 37.9905 0
15.2033 39.3862 0
19.3977 35.2084 0
17.6088 35.1138 0
16.5949 37.0355 0
17.0358 36.5957 0
16.4296 37.2618 0
17.2635 36.4311 0
16.8519 36.9275 0
16.0468 37.4571 0
16.2419 37.3672 0
17.5921 35.6379 0
15.637 37.5937 0
17.4147 36.1449 0
17.0006 36.7744 0
16.7735 37.0005 0
17.5643 35.7425 0
17.3685 36.2419 0
17.5324 35.8453 0
17.4966 35.9467 0
15.7423 37.5648 0
15.9468 37.4967 0
15.4082 37.6574 0
16.145 37.4139 0
15.8453 37.5325 0
17.4572 36.0465 0
15.5268 37.6231 0
16.9274 36.8522 0
17.6146 35.5303 0
17.3183 36.3375 0
17.2037 36.5219 0
16.5199 37.2024 0
17.6322 35.4162 0
16.3368 37.3167 0
15.1648 37.5989 0
15.3017 39.5386 0
19.5431 35.3072 0
15.4237 39.7341 0
19.7402 35.437 0
15.5061 40.439 0
20.4403 35.4393 0
15.2601 38.4364 0
15.2594 38.1403 0
15.2596 38.3378 0
15.2594 38.2391 0
18.4378 35.2563 0
18.3395 35.2577 0
18.2404 35.2585 0
18.1399 35.2599 0
17.9518 35.2614 0
15.2614 38.0392 0
15.2658 37.9357 0
15.2762 39.1304 0
15.2761 39.0262 0
19.0263 35.2779 0
15.2838 39.2537 0
15.2608 38.5351 0
18.9264 35.2769 0
18.8249 35.273 0
19.2178 35.2784 0
15.2739 38.9248 0
15.2693 38.8251 0
18.7235 35.2662 0
17.7525 35.2951 0
16.6074 37.1385 0
17.0714 36.6934 0
17.1393 36.6093 0
16.6919 37.0709 0
17.7115 35.4926 0
17.6882 35.6043 0
17.662 35.7129 0
15.4915 37.7286 0
17.5592 36.0292 0
17.518 36.1314 0
17.5973 35.9253 0
17.6314 35.8197 0
15.82 37.6324 0
15.9254 37.5973 0
15.7126 37.6638 0
16.0294 37.5589 0
15.6034 37.6948 0
16.132 37.5175 0
16.2332 37.4727 0
16.3332 37.424 0
16.4312 37.3703 0
16.5266 37.3108 0
16.8749 37.0306 0
16.9538 36.9545 0
17.4738 36.2326 0
17.0304 36.876 0
17.4258 36.3331 0
17.3131 36.529 0
17.3724 36.4322 0
15.3708 39.3838 0
19.3932 35.364 0
15.4911 39.5238 0
19.5204 35.497 0
15.606 39.9843 0
20.0128 35.6361 0
19.2645 35.3778 0
18.6603 35.3452 0
19.0831 35.3746 0
15.347 38.4916 0
15.347 38.289 0
15.3473 38.3903 0
15.347 38.1894 0
15.3621 37.8822 0
18.2975 35.3432 0
18.1929 35.347 0
18.0875 35.3514 0
18.4958 35.3329 0
15.3416 38.6795 0
15.3704 39.0767 0
15.3482 38.0882 0
15.3528 37.9863 0
18.977 35.3771 0
15.3632 38.8657 0
18.8707 35.3721 0
18.7638 35.361 0
15.3707 38.9708 0
15.377 37.7733 0
17.1052 36.7949 0
16.7928 37.105 0
17.2477 36.6218 0
16.6188 37.246 0
17.5808 36.2193 0
17.5358 36.3241 0
16.3257 37.5348 0
17.059 36.981 0
17.8118 35.4588 0
16.1151 37.6229 0
17.6623 36.0082 0
17.6228 36.1141 0
15.6814 37.7661 0
16.2206 37.5809 0
15.7914 37.7336 0
15.9006 37.6992 0
16.0084 37.6623 0
17.6987 35.9002 0
17.7599 35.679 0
17.7312 35.7901 0
16.9795 37.0604 0
15.5718 37.7999 0
16.4296 37.4833 0
16.5314 37.4245 0
17.178 36.7104 0
17.4852 36.4289 0
17.4272 36.5323 0
16.7075 37.1769 0
17.6405 35.2671 0
17.8532 35.3251 0
15.2653 37.7111 0
15.4217 39.253 0
15.5208 39.3506 0
19.3368 35.505 0
15.6624 39.6869 0
19.6831 35.6888 0
15.4647 37.8374 0
18.5681 35.4102 0
19.1748 35.4773 0
15.4281 38.5644 0
15.4416 38.7953 0
15.4346 38.4535 0
18.6898 35.4406 0
19.0364 35.4837 0
15.4355 38.3448 0
15.4353 38.2398 0
18.3667 35.4239 0
18.2522 35.4346 0
18.1409 35.4445 0
18.0295 35.4533 0
15.4351 38.136 0
15.4588 39.1424 0
15.463 38.9074 0
18.919 35.477 0
15.4724 39.027 0
18.8031 35.4628 0
16.8964 37.1379 0
17.1368 36.9001 0
17.3615 36.6323 0
17.6474 36.3101 0
17.6891 36.2017 0
17.2898 36.7269 0
16.3131 37.6485 0
16.4232 37.6006 0
16.6294 37.3588 0
16.7227 37.2879 0
16.0941 37.7295 0
16.2033 37.6907 0
17.8674 35.5384 0
17.2143 36.8161 0
15.8728 37.8028 0
17.7286 36.0932 0
17.0863 37.0877 0
17.7665 35.9832 0
15.9838 37.7669 0
17.8023 35.8704 0
15.7613 37.8392 0
17.8579 35.6387 0
17.8336 35.7549 0
15.6496 37.8765 0
17.6009 36.4197 0
16.811 37.2138 0
16.5324 37.5438 0
17.5457 36.5303 0
17.9176 35.45 0
15.6682 39.453 0
19.4343 35.6759 0
15.9015 39.8741 0
19.8644 35.9678 0
15.5009 38.6828 0
18.4718 35.5045 0
18.6076 35.5088 0
15.522 38.5351 0
19.0966 35.6047 0
15.5244 38.4105 0
18.3206 35.5245 0
18.1984 35.5339 0
15.524 38.2965 0
15.5107 37.9911 0
15.5448 38.8266 0
15.5237 38.1865 0
18.717 35.5494 0
15.5745 38.956 0
18.9718 35.5878 0
15.5911 39.1112 0
18.8473 35.5735 0
17.0028 37.1692 0
17.164 37.0053 0
17.7604 36.2908 0
17.7995 36.1794 0
16.2945 37.7639 0
16.7381 37.4052 0
17.4077 36.7422 0
16.1814 37.8014 0
17.246 36.9253 0
16.41 37.7214 0
17.7186 36.4042 0
17.4806 36.6387 0
17.3284 36.8376 0
16.0687 37.8376 0
16.9164 37.2469 0
17.8383 36.0673 0
17.878 35.9523 0
15.9558 37.8743 0
17.9646 35.5726 0
15.8446 37.9127 0
17.9148 35.8327 0
15.7337 37.954 0
17.9432 35.7084 0
16.8311 37.327 0
15.5274 39.2253 0
16.6382 37.478 0
16.5275 37.6686 0
17.6679 36.5213 0
15.6432 39.2719 0
19.2459 35.6367 0
15.8932 39.556 0
19.5233 35.9169 0
15.8591 40.1908 0
19.9633 36.3888 0
18.5798 35.6422 0
15.6185 38.6219 0
15.6127 38.7442 0
18.3905 35.6294 0
15.6111 38.3639 0
18.2494 35.6272 0
18.1486 35.6182 0
15.6143 38.249 0
15.6161 38.1307 0
15.6611 38.8565 0
19.0205 35.6918 0
15.6127 38.0016 0
18.761 35.6719 0
15.7035 39.0005 0
18.904 35.6922 0
17.8775 36.2653 0
17.8385 36.3818 0
16.2697 37.88 0
16.154 37.9139 0
17.2677 37.0374 0
17.9158 36.1503 0
17.0157 37.2709 0
16.389 37.8441 0
17.3603 36.9546 0
17.4494 36.8589 0
16.8555 37.4481 0
16.9486 37.3581 0
17.9571 36.0339 0
16.0392 37.9503 0
15.9287 37.9859 0
18.006 35.9115 0
15.8249 38.0265 0
18.056 35.6586 0
18.0408 35.7819 0
16.7538 37.5302 0
17.6054 36.6392 0
16.6433 37.6041 0
16.5141 37.7976 0
17.7927 36.5043 0
17.5317 36.7527 0
17.1822 37.0994 0
19.1348 35.747 0
19.3009 35.8132 0
15.7487 39.1594 0
15.8017 39.3338 0
16.2443 40.1013 0
16.1557 39.7201 0
19.6318 36.1831 0
20.4371 36.5556 0
18.5558 35.7782 0
15.7139 38.5527 0
18.4354 35.7492 0
15.6878 38.4339 0
18.2882 35.7392 0
15.7298 38.7185 0
15.7067 38.3298 0
15.72 38.0764 0
15.7163 38.2034 0
18.6786 35.7784 0
15.7933 38.8809 0
18.9912 35.827 0
18.8251 35.8022 0
17.9603 36.3531 0
17.2645 37.1611 0
16.2378 37.9977 0
18.0001 36.2328 0
16.1207 38.031 0
16.3594 37.9675 0
17.3811 37.0843 0
18.0376 36.1144 0
17.0925 37.3659 0
17.485 36.9858 0
16.9872 37.4823 0
18.0856 35.9981 0
16.0071 38.0688 0
17.9194 36.4792 0
16.8808 37.5789 0
15.9091 38.0882 0
17.7347 36.6311 0
17.5792 36.8764 0
16.6414 37.737 0
16.4905 37.929 0
16.765 37.6635 0
15.8494 39.0383 0
17.6627 36.7567 0
19.1545 35.9115 0
15.9063 39.2034 0
16.3167 39.5483 0
15.9585 39.3617 0
20.808 36.2308 0
16.5548 40.5315 0
16.4664 39.7619 0
18.4668 35.8699 0
15.7989 38.4458 0
17.2115 37.421 0
18.6014 35.8842 0
15.8224 38.2877 0
15.8259 38.1491 0
15.8782 38.7572 0
18.7346 35.9066 0
18.0823 36.3206 0
18.1588 35.7148 0
16.198 38.1178 0
15.9414 38.9116 0
16.3208 38.0923 0
17.2368 37.2992 0
18.0458 36.4469 0
17.5164 37.1254 0
18.1419 36.0784 0
17.0196 37.6216 0
16.4564 38.0631 0
17.8677 36.6135 0
16.6289 37.8755 0
17.6222 37.0103 0
16.8993 37.7204 0
19.0172 36.0041 0
17.7179 36.8853 0
17.3933 37.244 0
16.7672 37.8053 0
17.7999 36.751 0
15.8304 38.6055 0
19.315 35.9938 0
16.0799 39.2539 0
16.0107 39.0752 0
18.8746 35.9412 0
16.3069 39.308 0
16.5414 39.4688 0
16.7275 40.0626 0
16.3057 41.0148 0
15.9298 38.3858 0
16.024 38.7795 0
18.1395 36.1952 0
18.6482 36.0012 0
18.173 35.864 0
16.2741 38.2206 0
18.2669 35.9243 0
18.1905 36.3006 0
18.1682 36.4098 0
15.9579 38.6348 0
15.907 38.5153 0
16.4127 38.2011 0
16.0674 38.2356 0
18.0027 36.5859 0
16.6052 38.0204 0
17.5579 37.2696 0
17.125 37.5124 0
17.6632 37.1513 0
19.4379 36.0994 0
17.0494 37.7705 0
16.1032 38.9349 0
19.1689 36.0823 0
18.778 36.0362 0
18.9013 36.0689 0
17.7697 37.0258 0
18.5186 35.9853 0
16.9093 37.8725 0
17.943 36.7348 0
16.7595 37.9563 0
17.8644 36.8841 0
17.3338 37.3948 0
16.1901 39.1039 0
16.5456 39.1993 0
16.8011 39.6608 0
18.2892 36.2281 0
16.0965 38.6399 0
16.2183 38.3532 0
18.2847 36.3625 0
16.3629 38.3412 0
17.2693 37.5254 0
18.3572 35.9924 0
18.3573 36.1248 0
18.6821 36.123 0
18.5757 36.0776 0
18.1376 36.5484 0
16.5698 38.1734 0
17.7 37.2852 0
18.8248 36.1703 0
19.2146 36.2552 0
17.8178 37.1822 0
18.09 36.706 0
17.0754 37.9352 0
17.9295 37.0335 0
16.7417 38.1211 0
16.914 38.0384 0
18.0202 36.8711 0
17.4659 37.3697 0
19.416 36.2654 0
16.183 38.7867 0
17.1723 37.651 0
16.2813 38.9433 0
19.0114 36.1884 0
16.3645 39.1003 0
16.8018 39.3269 0
18.433 36.2134 0
15.9646 38.2137 0
16.309 38.4854 0
17.349 37.6638 0
18.2726 36.5017 0
18.5656 36.1852 0
16.5172 38.3214 0
17.4308 37.5048 0
18.7011 36.2657 0
16.251 38.635 0
19.0813 36.4021 0
18.2419 36.6657 0
17.847 37.381 0
17.2268 37.8108 0
16.7065 38.311 0
17.9953 37.2058 0
16.5001 38.9445 0
17.097 38.1191 0
18.1858 36.8448 0
16.3558 38.7799 0
18.1035 37.0273 0
16.9105 38.2243 0
17.6174 37.4354 0
19.5858 36.4614 0
19.3138 36.4558 0
18.8769 36.3354 0
16.7555 39.0397 0
17.0415 39.1289 0
17.14 39.8812 0
15.7374 41.0192 0
16.8411 41.0021 0
20.9087 35.7152 0
21.008 36.7778 0
18.5386 36.3406 0
18.4067 36.4419 0
18.3987 36.6127 0
16.1606 38.4939 0
16.0205 38.5024 0
18.3904 36.3173 0
16.4148 38.6184 0
19.1499 36.6352 0
16.6019 38.4342 0
17.5507 37.6428 0
17.2678 37.993 0
18.3613 36.8038 0
18.9192 36.5422 0
17.3165 38.1912 0
18.722 36.4453 0
18.0695 37.395 0
18.2937 37.005 0
17.448 37.8499 0
16.69 38.7987 0
17.7635 37.5936 0
16.8972 38.4275 0
16.9442 38.8463 0
19.4218 36.7103 0
17.3782 39.2166 0
17.4754 39.6094 0
19.7456 36.7532 0
16.5621 41.4293 0
17.4115 41.0229 0
18.5585 36.5389 0
16.5126 38.7473 0
16.7268 38.4778 0
18.9457 36.7825 0
18.4679 36.0964 0
17.4519 38.0486 0
18.5459 36.7433 0
17.9457 37.5456 0
17.3616 38.4315 0
18.4182 37.1899 0
16.468 38.466 0
18.291 37.4118 0
18.7352 36.6569 0
17.6842 37.7979 0
16.8279 38.6243 0
18.5014 36.9634 0
17.1099 38.604 0
19.2008 36.9098 0
17.2451 38.8966 0
17.7633 39.3133 0
20.0843 36.7941 0
17.5568 40.0542 0
19.5077 37.0231 0
16.606 38.5952 0
18.7237 36.8926 0
17.6053 37.9787 0
18.5559 37.4151 0
18.6737 37.1536 0
18.9446 37.0623 0
17.9113 37.7376 0
19.5533 37.4015 0
18.1204 37.6087 0
17.6181 38.9114 0
17.6315 38.2198 0
17.3926 38.6814 0
19.8725 37.1158 0
17.8779 39.734 0
17.817 37.965 0
17.6373 38.5622 0
18.1209 37.9013 0
18.3718 37.6636 0
18.8925 37.411 0
19.9503 37.5684 0
18.3133 39.8839 0
19.2106 37.6035 0
18.0359 39.0006 0
17.7352 40.5225 0
16.5254 42.0397 0
18.6688 37.6958 0
17.9312 38.4149 0
18.4545 37.9613 0
19.5202 37.8553 0
18.6716 39.4911 0
18.4846 39.0284 0
18.0184 41.021 0
20.4121 37.7633 0
17.9432 38.1453 0
17.898 38.7025 0
18.9355 37.7378 0
18.7768 37.99 0
19.9412 38.1106 0
18.27 38.6115 0
18.8562 40.0769 0
18.5649 38.2795 0
20.8922 37.4482 0
18.9869 39.023 0
17.9613 40.1296 0
18.6292 40.961 0
20.8678 38.0179 0
17.2962 42.124 0
19.1162 37.9856 0
18.7601 38.6116 0
19.4677 39.0338 0
20.0256 38.7484 0
20.7682 38.6333 0
18.758 40.5358 0
18.9117 38.2648 0
19.7988 39.4194 0
21.2827 37.7131 0
17.6818 41.5727 0
21.8183 36.6903 0
19.506 39.9984 0
29.2479 37.8867 0
29.1645 51.284 0
17.5369 64.4492 0
29.1638 54.2544 0
20.9057 64.3789 0
29.1121 56.7055 0
29.1966 59.7902 0
24.0806 64.3717 0
29.2107 62.1317 0
27.2344 64.3604 0
29.1231 48.8328 0
29.1757 45.7482 0
29.1251 43.2963 0
29.1758 40.2122 0
15.8547 56.7998 0
15.8599 59.0767 0
15.7713 62.2369 0
15.8806 51.0548 0
15.6936 42.0749 0
15.4993 41.5102 0
15.8815 53.4814 0
15.8692 47.8354 0
15.8009 45.3642 0
21.8391 37.5791 0
20.1302 39.9058 0
19.832 40.3983 0
17.9664 42.1286 0
29.3078 49.5818 0
29.308 53.5636 0
29.3058 55.9547 0
29.3664 38.5402 0
29.3127 40.9065 0
29.2954 42.5256 0
29.3133 44.0475 0
29.3174 46.4408 0
29.2972 48.06 0
29.3928 59.1188 0
29.3367 61.4662 0
29.31 51.9732 0
29.5504 36.8272 0
21.6481 64.4324 0
24.8138 64.4356 0
27.9909 64.3756 0
15.6961 51.8075 0
15.703 48.6148 0
15.678 47.0789 0
15.6463 44.6616 0
15.5269 63.2484 0
15.5693 55.707 0
15.7085 50.2748 0
15.5282 43.2025 0
21.4365 35.5155 0
23.1363 35.7711 0
26.3008 35.6368 0
27.0483 35.6038 0
28.6333 35.5659 0
19.8736 40.9769 0
18.5745 42.0934 0
17.6019 42.6743 0
21.9595 35.7463 0
20.7569 39.8467 0
25.5608 35.5518 0
17.852 43.2173 0
20.5889 41.0504 0
18.5432 43.2093 0
23.1562 36.5079 0
25.0185 36.7019 0
27.2527 36.6781 0
28.4196 36.8278 0
16.7072 43.2565 0
17.6604 44.3718 0
28.3524 63.1467 0
27.1746 63.1302 0
25.3119 63.3356 0
24.0822 63.1917 0
22.1441 63.2964 0
20.893 63.1939 0
17.4647 63.3362 0
26.2193 36.8074 0
15.7882 59.8319 0
15.8731 54.2347 0
29.2032 57.5535 0
15.6521 61.202 0
29.4942 63.2053 0
15.6865 57.4349 0
17.0082 52.1876 0
28.3611 37.6508 0
28.1404 38.8275 0
16.8175 53.3178 0
16.9308 55.5796 0
16.8299 56.7122 0
16.8006 58.9319 0
16.6139 62.2035 0
16.7653 63.4041 0
27.9754 41.181 0
27.9603 42.1935 0
28.1184 43.3102 0
16.9062 44.3343 0
28.0276 44.4189 0
16.707 45.51 0
28.2374 45.5997 0
16.9357 46.6935 0
28.0123 46.7303 0
16.8591 47.8104 0
27.9762 47.7397 0
17.0233 48.9338 0
28.1057 48.8553 0
16.888 51.0782 0
28.1948 51.1441 0
27.9706 52.2749 0
27.9647 53.2762 0
28.1845 54.4036 0
27.9741 55.5922 0
28.1171 56.7328 0
28.142 58.5957 0
28.0045 61.1407 0
28.2576 62.4047 0
28.236 40.0396 0
17.0312 49.9562 0
27.987 49.9647 0
28.2243 59.921 0
26.494 64.4376 0
23.3439 64.4305 0
20.157 64.4594 0
16.9216 64.4846 0
17.2623 43.1177 0
18.42 44.3776 0
16.8013 54.4413 0
17.0094 57.7849 0
16.6493 60.219 0
28.4136 57.9071 0
27.4475 37.8641 0
25.1612 37.7966 0
23.1099 37.7776 0
17.5888 45.5244 0
16.396 60.9828 0
27.177 62.4428 0
25.3891 62.208 0
24.0753 62.1645 0
22.1529 62.1614 0
20.9057 62.161 0
17.4537 62.1617 0
22.8395 63.2966 0
19.6173 63.3451 0
26.1671 37.7552 0
25.9626 63.3804 0
24.3555 36.6642 0
17.8046 51.0975 0
27.3467 38.6969 0
17.8138 52.2109 0
17.7805 53.3285 0
17.8123 55.5717 0
17.8218 56.6899 0
17.7885 58.9488 0
18.884 63.3784 0
27.1675 41.1274 0
27.1569 42.2107 0
27.2149 43.323 0
27.2551 44.4348 0
27.2991 45.5726 0
17.6898 46.6573 0
27.2434 46.6955 0
17.753 47.7762 0
27.194 47.7628 0
17.8151 48.8993 0
27.1789 48.8743 0
27.2123 51.1221 0
27.1598 52.2419 0
27.15 53.3097 0
27.1815 54.4304 0
27.1289 55.5833 0
27.1592 56.8071 0
27.1997 58.5762 0
27.184 61.1215 0
27.2962 39.9549 0
17.8249 49.9823 0
27.1712 49.9886 0
27.2208 59.9296 0
18.5097 46.6164 0
26.4148 46.6969 0
26.4199 44.4253 0
26.4057 45.5644 0
18.336 45.4998 0
17.7809 54.4581 0
17.8451 57.7959 0
17.7312 60.3164 0
27.2114 57.9685 0
24.1601 37.7841 0
24.9758 38.7988 0
25.4029 60.9435 0
24.0228 61.1292 0
22.147 61.0855 0
20.9541 61.1458 0
17.6963 60.9993 0
22.8216 62.1619 0
19.6282 62.16 0
26.4157 38.9222 0
26.1982 62.287 0
18.9248 62.1638 0
18.721 51.1087 0
18.7185 52.2243 0
18.7276 53.3391 0
18.7816 55.5619 0
18.8119 56.681 0
18.7766 58.9442 0
26.2608 41.0876 0
26.2532 42.2152 0
26.3409 43.3379 0
18.6304 47.719 0
26.338 47.7721 0
18.7085 48.8672 0
26.2586 48.8938 0
26.2767 51.1115 0
26.2601 52.2215 0
26.2502 53.3245 0
26.2231 54.4359 0
26.174 55.5815 0
26.1636 56.8365 0
26.195 58.593 0
26.2971 61.0757 0
18.7229 49.9903 0
26.3108 39.7708 0
26.2522 50.0086 0
26.2753 59.9539 0
19.5998 52.2454 0
19.6293 51.1173 0
25.3394 39.9012 0
19.627 49.9852 0
25.3836 53.3391 0
19.607 48.8203 0
25.3731 52.1982 0
25.362 41.0617 0
19.5173 47.5879 0
25.4125 51.1097 0
25.3324 42.2337 0
25.3371 50.0431 0
25.3459 48.9252 0
25.4924 43.3955 0
25.4968 47.7598 0
24.3276 38.8192 0
19.181 46.6374 0
25.7281 44.3659 0
25.7245 46.763 0
25.6809 45.5637 0
25.292 60.0946 0
24.2637 59.8515 0
22.13 59.9952 0
20.7032 60.0914 0
22.8069 61.0847 0
19.6987 60.953 0
18.7463 54.456 0
18.8024 57.8012 0
18.8053 60.2893 0
26.181 57.9932 0
18.9395 60.9712 0
19.6276 53.3439 0
19.7257 55.5429 0
19.7956 56.6707 0
19.7256 58.9017 0
25.3274 54.4187 0
25.2359 55.5694 0
25.1707 56.8322 0
25.1868 58.6407 0
19.876 46.4172 0
25.0665 44.585 0
25.0527 46.5828 0
25.1013 45.8921 0
25.106 45.2653 0
20.588 55.4977 0
24.3705 55.5374 0
24.5316 54.3616 0
20.4599 53.3389 0
20.3142 52.3163 0
20.3646 51.1196 0
24.7749 39.9881 0
24.6956 53.4027 0
20.3588 49.9757 0
20.3446 48.7691 0
24.6462 52.1692 0
24.6675 41.0282 0
24.8664 51.1165 0
20.117 47.6206 0
24.567 42.2967 0
24.5856 50.0797 0
24.6081 48.9668 0
24.7153 43.5805 0
24.7233 47.6778 0
19.6498 54.4497 0
19.7586 57.826 0
19.7992 60.2436 0
25.1403 58.0146 0
24.1749 40.1152 0
24.0973 58.8486 0
22.1638 58.856 0
20.6413 58.768 0
22.7769 60.016 0
20.7588 56.6201 0
19.9885 45.426 0
24.2212 56.7744 0
24.3965 45.6199 0
24.0381 53.2192 0
21.0197 52.1173 0
24.1008 51.7994 0
20.9281 50.8159 0
20.9301 49.6667 0
20.9242 48.3558 0
24.0448 41.2707 0
20.7522 47.5389 0
24.3246 51.1397 0
24.2316 49.8206 0
24.2251 42.651 0
20.9568 51.4148 0
24.2847 48.7163 0
20.9228 50.2424 0
24.183 47.4178 0
24.2186 43.9371 0
20.9364 49.0443 0
24.0514 52.485 0
19.5258 46.9899 0
25.2799 47.1883 0
25.2838 43.9846 0
23.3316 56.6472 0
21.7629 56.4325 0
20.8853 45.3891 0
23.3093 40.1178 0
20.383 54.4395 0
21.2383 55.4726 0
23.6901 55.5352 0
23.941 54.2311 0
21.2031 53.2607 0
20.7638 57.9643 0
23.9353 58.0572 0
21.6915 57.8294 0
23.0208 58.7529 0
23.0832 38.9005 0
24.2849 44.5005 0
20.7359 46.6642 0
21.6633 51.0575 0
21.6511 49.9239 0
23.1405 55.1883 0
21.7585 55.1654 0
23.2691 54.3026 0
21.8939 53.0942 0
24.2786 40.7224 0
24.3187 53.8138 0
20.7332 52.7525 0
19.8968 44.5223 0
23.2639 52.1277 0
21.7205 48.6906 0
24.2297 46.8045 0
22.6225 56.3961 0
23.16 58.0061 0
21.9548 52.2952 0
21.659 53.7089 0
23.1751 55.926 0
21.6441 55.7526 0
23.2692 41.3916 0
23.2686 53.4575 0
22.6019 52.1842 0
23.0452 50.91 0
21.7218 54.3841 0
23.0705 45.7377 0
23.1321 49.8675 0
23.1158 44.7196 0
22.9943 46.7635 0
23.2223 48.7681 0
21.8931 41.2497 0
13.9251 30.4955 0
0.905456 33.7621 0
2.1301 33.962 0
3.29397 33.7437 0
4.39201 34.105 0
5.39317 33.672 0
6.21427 33.5868 0
7.31272 34.0652 0
8.65868 33.8636 0
9.64337 34.0064 0
10.6899 33.7974 0
11.7927 33.8819 0
0.885445 32.8263 0
2.3365 32.8975 0
3.33489 32.7359 0
4.37604 32.6144 0
5.34372 32.8361 0
6.35046 32.7253 0
7.54087 32.6299 0
8.45352 32.7062 0
9.55956 32.8238 0
10.6871 32.6362 0
11.7844 32.7141 0
1.25214 31.431 0
2.08269 31.4092 0
3.48717 31.8638 0
4.37044 31.8118 0
5.3091 31.5894 0
6.27377 31.7821 0
7.21962 31.6817 0
8.52204 31.6632 0
9.68338 31.6859 0
10.7224 31.4996 0
11.8326 31.668 0
12.873 31.6452 0
0.854962 30.6785 0
2.41159 30.6697 0
3.31411 30.5584 0
4.24089 30.4882 0
5.23474 30.4508 0
6.1621 30.4413 0
7.53146 30.3546 0
8.6148 30.3088 0
9.60068 30.5699 0
10.7286 30.4888 0
11.7767 30.5545 0
12.8862 30.4832 0
1.39301 29.335 0
2.23551 29.1735 0
3.21662 29.2172 0
4.181 29.0636 0
5.30094 29.183 0
6.2018 29.2476 0
7.89565 29.1167 0
8.95697 29.4141 0
9.80361 29.2434 0
10.7337 29.3006 0
11.8388 29.2561 0
12.8695 29.3063 0
13.8381 29.3335 0
0.779913 28.2318 0
2.19 28.4228 0
3.31483 28.2031 0
4.0408 28.1579 0
5.55208 28.3365 0
6.34971 28.1857 0
7.40298 28.1024 0
8.73247 28.2528 0
9.79041 28.4783 0
10.5983 28.3332 0
11.7781 28.2532 0
12.8547 28.3476 0
13.9365 28.4157 0
1.46756 27.0838 0
2.2396 27.147 0
3.11303 27.1633 0
4.03897 27.2385 0
5.53143 27.1127 0
6.3352 26.8234 0
7.40876 26.7897 0
8.59708 27.1131 0
9.74742 27.4191 0
10.5224 27.3546 0
11.8279 26.8509 0
13.0942 27.1621 0
14.0332 26.9219 0
1.34501 25.8263 0
2.28128 25.7516 0
3.15273 25.8893 0
4.03723 25.8271 0
5.48461 25.8489 0
6.32836 25.8379 0
7.39082 25.7031 0
8.52149 25.9645 0
9.73332 26.2719 0
10.6482 26.1243 0
12.0126 26.072 0
12.8902 26.0309 0
13.6761 26.0682 0
0.863308 25.1192 0
2.39754 24.9982 0
3.17094 24.8764 0
4.0372 24.9407 0
5.47734 24.8872 0
6.32227 24.8019 0
7.28971 24.8331 0
8.36668 24.8412 0
9.57416 25.1257 0
10.5885 24.6764 0
12.0385 24.8631 0
12.8623 24.7962 0
13.5957 24.8439 0
1.12076 23.7506 0
2.18264 23.577 0
3.12771 23.6638 0
4.02839 23.5743 0
5.46911 23.6165 0
6.30211 23.668 0
7.1985 23.5544 0
8.70283 23.8061 0
9.66981 23.7437 0
10.6998 23.7256 0
11.6177 23.7429 0
12.8734 23.5189 0
14.2621 23.7369 0
0.760666 22.5861 0
2.33436 22.741 0
3.15238 22.6149 0
4.03107 22.6789 0
5.4767 22.6384 0
6.34154 22.6163 0
7.35121 22.8198 0
8.80591 22.4437 0
9.75074 22.5223 0
10.782 22.6357 0
11.8324 22.6539 0
12.8627 22.7445 0
13.9054 22.5718 0
1.37042 21.3973 0
2.19298 21.2559 0
3.12904 21.3335 0
4.0326 21.2575 0
5.50636 21.3358 0
6.42738 21.4375 0
7.5194 21.4873 0
8.60552 21.4666 0
9.52738 21.4261 0
10.98 21.393 0
11.8348 21.4208 0
12.6142 21.2972 0
14.1497 21.2144 0
0.777665 20.2926 0
2.17133 20.5078 0
3.28676 20.3139 0
4.01852 20.3081 0
5.56862 20.3083 0
6.45726 20.2896 0
7.56853 20.1719 0
8.48515 20.533 0
9.93027 20.3271 0
10.878 20.5207 0
11.8137 20.4155 0
12.7267 20.5543 0
13.6757 20.5226 0
1.46673 19.1595 0
2.23665 19.2327 0
3.10549 19.2599 0
4.02477 19.3543 0
5.50448 19.2904 0
6.40475 19.193 0
7.57424 19.1472 0
8.46301 19.0794 0
9.93873 19.0152 0
10.8856 19.096 0
11.8198 19.0924 0
12.8175 19.1261 0
13.828 19.2169 0
1.34963 17.8914 0
2.28588 17.8336 0
3.15322 17.9826 0
4.03498 17.9306 0
5.48942 17.99 0
6.38538 18.0535 0
7.54102 18.057 0
8.39842 18.0614 0
9.94056 18.0563 0
10.6784 18.044 0
11.76 17.849 0
12.8681 17.8537 0
14.2469 18.038 0
0.88237 17.1484 0
2.41288 17.0729 0
3.17771 16.9639 0
4.03923 17.0394 0
5.48528 16.9998 0
6.37748 16.941 0
7.55705 16.9529 0
8.44789 17.0414 0
9.92282 17.1137 0
10.8412 17.0617 0
11.7752 17.1892 0
12.8016 17.181 0
13.6033 17.0203 0
1.39035 15.8071 0
2.19441 15.6126 0
3.12926 15.711 0
4.04473 15.6446 0
5.46309 15.7474 0
6.35804 15.7943 0
7.54981 15.7989 0
8.44375 15.7385 0
9.93065 15.6961 0
10.8919 15.8025 0
11.8049 15.8242 0
12.757 15.7966 0
13.8959 15.6256 0
0.908806 14.5124 0
2.13793 14.5465 0
3.15322 14.5636 0
4.16239 14.6068 0
5.27339 14.6383 0
6.34584 14.6686 0
7.54259 14.6878 0
8.437 14.75 0
9.9287 14.787 0
10.8886 14.682 0
11.791 14.6672 0
12.6908 14.6935 0
13.5607 14.804 0
0.887769 13.6134 0
2.18625 13.5832 0
3.36861 13.5695 0
4.08211 13.5829 0
5.50849 13.5625 0
6.37893 13.5882 0
7.55019 13.5828 0
8.43987 13.5233 0
9.87491 13.4071 0
10.8482 13.4412 0
11.7983 13.419 0
12.801 13.4531 0
13.8137 13.5605 0
0.895455 12.5456 0
2.17924 12.7292 0
3.19138 12.6007 0
4.15669 12.6717 0
5.25008 12.3726 0
6.39612 12.6104 0
7.54425 12.548 0
8.59619 12.4727 0
9.69636 12.4229 0
10.5758 12.394 0
11.7403 12.1991 0
12.864 12.2063 0
14.2455 12.4027 0
1.12872 11.4394 0
2.22084 11.3248 0
3.19976 11.3065 0
4.12966 11.3274 0
5.11413 11.4148 0
6.62683 11.3318 0
7.53633 11.223 0
8.61523 11.2584 0
9.70958 11.353 0
10.7663 11.3875 0
11.75 11.5373 0
12.7971 11.5355 0
13.6056 11.3807 0
1.0122 9.82588 0
2.23013 9.8632 0
3.27382 9.9287 0
4.20408 10.085 0
5.13701 10.0605 0
6.59042 10.1304 0
7.5015 10.1742 0
8.41349 10.1766 0
9.90839 10.1134 0
10.8622 10.1727 0
11.7918 10.1831 0
12.7733 10.1556 0
13.9499 10.002 0
1.17872 9.0544 0
2.44242 9.1485 0
3.33243 9.15341 0
4.27579 9.05111 0
5.26392 9.17977 0
6.38531 8.97528 0
7.52037 9.17742 0
8.63857 9.03576 0
9.76565 9.22747 0
10.8016 9.06579 0
11.7623 9.02555 0
12.7402 9.03116 0
13.8134 9.11033 0
1.41012 7.89416 0
2.24026 7.68928 0
3.28407 7.62155 0
4.33018 7.6334 0
5.28956 7.77618 0
6.23655 7.76706 0
7.77666 7.8875 0
8.67183 7.83097 0
9.73702 7.82343 0
10.7265 7.77549 0
11.7511 7.75983 0
12.7939 7.79319 0
13.8212 7.88876 0
0.78125 6.77675 0
2.17754 6.97221 0
3.2781 6.95777 0
4.36621 6.95644 0
5.53979 6.76996 0
6.417 6.76904 0
7.56404 6.68336 0
8.59548 6.8878 0
9.46255 6.61198 0
10.6852 6.55173 0
11.7495 6.54842 0
12.8581 6.56557 0
14.245 6.77016 0
1.4559 5.66048 0
2.2702 5.7025 0
3.28099 5.70088 0
4.32385 5.70141 0
5.31478 5.70447 0
6.41517 5.70085 0
7.55283 5.81215 0
8.58364 5.54549 0
9.60588 5.83345 0
10.6798 5.88092 0
11.7495 5.89336 0
12.8016 5.89329 0
13.6111 5.74519 0
1.00433 4.24393 0
2.18144 4.22293 0
3.05837 4.37427 0
4.54148 4.29335 0
5.40058 4.48014 0
6.4448 4.55199 0
7.50968 4.55652 0
8.55368 4.50294 0
9.6698 4.35536 0
10.5283 4.49944 0
11.9851 4.50173 0
12.8512 4.47829 0
13.9878 4.36154 0
1.10283 3.44893 0
2.21985 3.4501 0
3.49212 3.35204 0
4.42165 3.365 0
5.4236 3.40404 0
6.4536 3.43371 0
7.49767 3.4374 0
8.52306 3.41949 0
9.69218 3.38865 0
10.7077 3.3888 0
11.5889 3.2331 0
13.0661 3.40199 0
13.9085 3.47172 0
0.866215 2.18731 0
2.14754 2.09283 0
3.44395 2.12061 0
4.4095 2.23345 0
5.41105 2.29524 0
6.44392 2.32296 0
7.49203 2.30805 0
8.52339 2.32545 0
9.69944 2.31083 0
10.7205 2.3132 0
11.7564 2.32091 0
12.867 2.28068 0
13.8801 2.10699 0
0.881497 1.2432 0
2.07644 1.06335 0
3.26292 1.28119 0
4.37945 1.0263 0
5.45071 1.16218 0
6.40561 1.29061 0
7.48835 0.893541 0
8.55703 1.29687 0
9.67626 1.18379 0
10.7934 1.20239 0
11.7922 1.35286 0
12.7925 1.15162 0
14.0001 0.965108 0
14.9161 32.0594 0
10.9725 34.9108 0
11.2682 34.9131 0
11.4651 34.914 0
14.914 31.5636 0
10.8731 34.9124 0
11.0712 34.9111 0
11.1698 34.9119 0
11.3666 34.9136 0
11.5636 34.9141 0
11.6622 34.9141 0
11.7607 34.9141 0
11.8593 34.9141 0
11.9581 34.9132 0
12.0584 34.9085 0
12.1599 34.9023 0
12.2632 34.8954 0
14.9141 31.8598 0
14.914 31.7609 0
14.914 31.6622 0
14.9139 31.4651 0
14.9138 31.3665 0
14.9134 31.2681 0
14.9126 31.1697 0
14.9114 31.0713 0
14.9101 30.9728 0
14.9089 30.8742 0
14.9075 30.7745 0
14.9049 30.672 0
14.9146 31.9597 0
12.5327 34.2312 0
12.7351 33.7527 0
12.8422 33.574 0
13.4057 32.965 0
12.4522 34.5378 0
14.035 32.6023 0
13.7526 32.7352 0
13.0999 33.2464 0
14.2312 32.5327 0
12.4769 34.4335 0
14.6467 32.4274 0
12.6873 33.8452 0
12.4305 34.6444 0
13.6623 32.7871 0
14.4336 32.4765 0
12.6026 34.0351 0
13.2473 33.0998 0
14.3316 32.5034 0
13.5743 32.8428 0
14.7621 32.4036 0
12.413 34.7511 0
13.1723 33.1716 0
14.5389 32.4501 0
13.9392 32.643 0
12.6433 33.9394 0
12.9641 33.4048 0
14.884 32.3958 0
13.845 32.6872 0
14.1325 32.5657 0
13.4887 32.9022 0
13.3252 33.0309 0
12.9013 33.4881 0
12.3859 34.8768 0
12.5658 34.1325 0
12.7868 33.6623 0
12.5035 34.3316 0
14.8696 30.4806 0
10.4863 34.87 0
14.8137 30.3043 0
10.3106 34.8054 0
14.7328 30.0007 0
10.0106 34.7122 0
14.8276 31.5138 0
14.8233 31.1232 0
14.8351 32.1236 0
14.8277 31.7116 0
14.8166 30.9251 0
14.8073 30.7235 0
10.9185 34.8207 0
10.7261 34.8405 0
11.1221 34.8216 0
11.2217 34.8249 0
11.0207 34.8195 0
11.6119 34.8284 0
11.7111 34.8281 0
11.8101 34.828 0
11.9092 34.8271 0
12.0093 34.8225 0
14.8298 32.017 0
14.8282 31.9123 0
14.8277 31.811 0
14.8125 30.8263 0
14.8275 31.6128 0
14.8281 31.4145 0
14.8193 31.0249 0
14.7906 30.5994 0
10.6154 34.8031 0
13.0305 33.3242 0
12.3737 34.471 0
13.3936 32.8626 0
12.4672 34.1545 0
13.6627 32.6833 0
12.338 34.5866 0
12.6327 33.7583 0
14.3625 32.4043 0
12.5861 33.8551 0
13.7576 32.632 0
14.053 32.5027 0
12.8609 33.3922 0
12.6834 33.6634 0
13.072 33.1471 0
13.1476 33.0715 0
12.435 34.2576 0
12.5033 34.0532 0
14.5838 32.3356 0
13.2262 32.9989 0
13.9531 32.5423 0
12.7975 33.4799 0
14.1545 32.4671 0
14.2577 32.4346 0
14.4703 32.3721 0
13.5702 32.739 0
13.8546 32.5852 0
12.5431 33.9534 0
13.4805 32.799 0
12.7383 33.5704 0
13.3084 32.9294 0
12.4045 34.3628 0
14.7005 30.4496 0
10.4643 34.6971 0
14.5851 30.2446 0
10.2621 34.5642 0
14.5885 29.5396 0
9.55917 34.5573 0
14.7414 32.0851 0
11.9629 34.7378 0
14.7407 31.6618 0
14.7479 31.359 0
14.7406 31.5609 0
11.4578 34.7497 0
11.5552 34.7449 0
11.6581 34.7424 0
11.7599 34.7415 0
11.8611 34.7398 0
14.7404 31.8628 0
14.7406 31.7617 0
14.7429 31.4569 0
14.7393 31.971 0
12.0596 34.7346 0
10.7349 34.7438 0
10.8514 34.7267 0
11.2768 34.745 0
14.7132 30.7843 0
10.9644 34.7239 0
14.7252 30.9801 0
14.7426 31.1788 0
11.1789 34.7351 0
11.0735 34.7275 0
14.7323 31.0824 0
12.9988 33.2258 0
12.9283 33.3075 0
14.7355 32.2333 0
12.3026 34.3961 0
14.394 32.3024 0
12.4025 34.0745 0
12.3676 34.1802 0
12.335 34.2875 0
12.4412 33.9707 0
14.1801 32.3669 0
14.0745 32.4018 0
14.2868 32.3347 0
13.9704 32.4397 0
13.8676 32.4808 0
12.483 33.8684 0
13.7659 32.5257 0
13.6658 32.5755 0
12.5282 33.7674 0
13.5679 32.6308 0
13.4732 32.6911 0
13.3819 32.7558 0
13.1193 32.9655 0
13.0414 33.0435 0
13.2922 32.8236 0
13.2031 32.8923 0
12.5773 33.6677 0
12.631 33.5697 0
12.7534 33.3812 0
12.6897 33.4739 0
14.844 32.2555 0
12.258 34.7367 0
14.6301 30.5981 0
10.624 34.6439 0
14.5093 30.4582 0
10.4835 34.5066 0
14.409 29.9591 0
9.98681 34.3639 0
12.1854 34.6577 0
14.6558 31.4985 0
14.6531 31.7112 0
11.7045 34.6527 0
14.6469 31.9193 0
11.5932 34.6568 0
11.8095 34.6495 0
14.641 32.0376 0
14.6508 31.8132 0
14.6535 31.6071 0
11.9163 34.6458 0
10.7688 34.6221 0
11.1359 34.6383 0
14.6332 30.9344 0
10.8993 34.6197 0
11.02 34.6261 0
14.6378 31.0443 0
14.6349 32.1892 0
12.9672 33.1243 0
12.822 33.292 0
12.4686 33.6758 0
12.5203 33.5726 0
12.3381 33.9916 0
12.3784 33.8853 0
12.4217 33.7802 0
12.2667 34.2093 0
12.3011 34.0998 0
13.9914 32.3357 0
14.0996 32.2995 0
14.209 32.2661 0
12.2352 34.3199 0
13.8847 32.3745 0
13.6726 32.4641 0
13.0029 32.9301 0
13.0859 32.848 0
12.1729 34.518 0
14.3183 32.2352 0
13.7784 32.4167 0
13.1834 32.7815 0
13.2765 32.7127 0
13.5685 32.5178 0
13.3702 32.6436 0
13.4674 32.578 0
12.6414 33.3724 0
12.5778 33.4712 0
12.8938 33.2065 0
14.5941 30.7457 0
14.4722 30.6388 0
10.6698 34.4942 0
14.3325 30.2806 0
10.314 34.3174 0
14.1479 29.6111 0
10.8258 34.5004 0
11.361 34.5943 0
14.5958 31.2735 0
14.5538 31.1259 0
11.9739 34.5419 0
11.8616 34.5472 0
11.5088 34.5709 0
14.5627 31.7613 0
11.6329 34.5607 0
11.7488 34.5521 0
14.555 31.8643 0
14.5645 31.656 0
14.5419 31.9753 0
14.5761 31.4194 0
14.5674 31.5403 0
11.2112 34.5535 0
11.0863 34.531 0
10.9613 34.5136 0
14.5473 30.8734 0
14.5405 30.9969 0
12.9336 33.0193 0
12.7111 33.2778 0
12.3581 33.6885 0
12.4068 33.5802 0
13.6845 32.3495 0
14.0166 32.2308 0
13.168 32.6699 0
13.9061 32.2669 0
12.7849 33.1878 0
12.3139 33.797 0
13.2617 32.5969 0
12.2342 34.0168 0
12.1985 34.1299 0
12.2728 33.9064 0
12.1662 34.2449 0
14.129 32.1965 0
14.4483 32.1281 0
13.7957 32.3058 0
14.2431 32.1642 0
12.139 34.3587 0
12.8597 33.102 0
13.3603 32.5254 0
13.5736 32.4003 0
13.4648 32.4593 0
12.4617 33.4726 0
12.5245 33.3671 0
14.3207 30.5251 0
10.56 34.3294 0
14.0497 30.0677 0
13.7484 29.7376 0
10.1351 34.0397 0
14.4994 31.3432 0
11.4196 34.4767 0
14.469 31.2198 0
11.2886 34.4663 0
14.4744 31.7036 0
14.4753 31.5859 0
11.9143 34.4345 0
11.796 34.4393 0
11.6728 34.4514 0
11.5485 34.4695 0
14.4806 31.4564 0
11.1617 34.4389 0
14.444 31.0744 0
11.0357 34.4128 0
14.4378 30.9343 0
12.8995 32.9198 0
12.595 33.2655 0
12.2466 33.706 0
13.8182 32.1939 0
12.2912 33.5934 0
12.6709 33.1696 0
13.1495 32.5547 0
13.932 32.1588 0
12.2055 33.8184 0
13.7027 32.2325 0
14.0463 32.1251 0
12.7491 33.0795 0
12.8265 32.9943 0
12.1286 34.05 0
12.1662 33.933 0
13.0654 32.6331 0
12.0963 34.1687 0
14.1621 32.0908 0
12.0663 34.2854 0
14.4191 32.0325 0
14.2826 32.0562 0
12.0381 34.4178 0
13.2468 32.475 0
13.5848 32.2789 0
12.3424 33.4799 0
14.4499 30.7938 0
13.3537 32.4008 0
13.4675 32.3351 0
12.4028 33.3668 0
10.7487 34.358 0
14.3262 30.7078 0
10.9019 34.386 0
14.1045 30.4186 0
10.4575 34.1101 0
13.3813 29.3891 0
10.0099 33.6533 0
13.6845 30.1348 0
11.3548 34.3894 0
11.4688 34.3796 0
14.3866 31.3402 0
14.3479 31.167 0
14.3832 31.5032 0
11.5881 34.3784 0
14.3848 31.6356 0
11.8498 34.3318 0
14.3857 31.8411 0
11.2483 34.3528 0
11.1205 34.3172 0
14.3269 31.0099 0
14.3254 30.86 0
13.8461 32.0819 0
13.7274 32.1149 0
12.1747 33.6125 0
12.1343 33.7293 0
12.0962 33.8473 0
12.7993 32.8794 0
13.9621 32.0495 0
13.0335 32.5223 0
12.9624 32.6251 0
12.7168 32.969 0
12.4732 33.2568 0
12.6337 33.0566 0
12.0582 33.9684 0
14.0772 32.0149 0
12.017 34.0945 0
12.0008 34.2054 0
14.1934 31.9766 0
13.1265 32.4298 0
12.5513 33.1529 0
12.2207 33.4941 0
13.6039 32.1548 0
13.2341 32.3445 0
12.2771 33.3734 0
13.4775 32.2058 0
13.3529 32.2695 0
10.9901 34.2814 0
10.8477 34.24 0
14.3205 31.927 0
11.956 34.307 0
10.6782 34.185 0
14.1765 30.6374 0
13.8935 30.3183 0
10.4104 33.8005 0
13.3621 29.8847 0
9.55629 33.4425 0
13.6575 28.9163 0
14.2815 31.4238 0
11.5353 34.2822 0
11.3694 34.2771 0
14.293 31.5627 0
14.2965 31.6874 0
11.7065 34.301 0
14.2136 31.0972 0
11.2172 34.2276 0
12.9325 32.7782 0
13.7588 31.9981 0
13.878 31.9676 0
12.0572 33.6399 0
12.0219 33.7631 0
12.6884 32.8705 0
11.99 33.8845 0
13.9932 31.9301 0
12.9049 32.5038 0
10.9516 34.1365 0
12.6039 32.9414 0
11.9461 34.0059 0
12.0976 33.5163 0
11.0851 34.1835 0
13.6317 32.0299 0
12.9958 32.3934 0
14.1053 31.8958 0
12.5124 33.0339 0
12.3457 33.2537 0
13.1043 32.2931 0
12.4253 33.1396 0
12.1483 33.3883 0
13.4973 32.0731 0
13.2275 32.2049 0
13.3607 32.1317 0
12.831 32.6269 0
14.2518 31.2663 0
13.7006 30.4785 0
14.1983 30.9248 0
14.2178 30.7829 0
10.8068 34.0788 0
10.6394 33.985 0
14.031 30.5996 0
13.3283 30.3315 0
9.1785 33.7593 0
9.99974 33.2098 0
10.3293 33.4464 0
14.2082 31.495 0
14.2021 31.613 0
11.6127 34.1762 0
14.2087 31.7409 0
11.319 34.1383 0
11.8607 34.1635 0
11.0584 34.0422 0
14.2103 31.8568 0
13.7959 31.8786 0
14.1637 31.3696 0
11.1847 34.0972 0
13.9097 31.845 0
11.9398 33.6785 0
11.9114 33.8085 0
11.9738 33.5475 0
13.6688 31.9045 0
11.8968 33.9171 0
12.5915 32.8187 0
14.0225 31.7869 0
11.8394 34.0026 0
12.8502 32.367 0
12.4821 32.9076 0
12.732 32.7518 0
14.111 31.2063 0
12.213 33.2585 0
12.0174 33.4126 0
12.3821 33.0134 0
10.7884 33.9333 0
12.9604 32.2483 0
13.5286 31.9384 0
10.9237 33.9806 0
12.2921 33.1321 0
13.0881 32.1425 0
13.3795 31.9873 0
12.7587 32.4954 0
13.23 32.0551 0
13.8858 30.6644 0
11.4665 34.1673 0
14.0463 31.0125 0
14.0635 30.7844 0
10.6087 33.5797 0
13.4674 30.6623 0
12.9701 30.0471 0
10.2212 32.7663 0
11.7201 34.1713 0
14.0907 31.5082 0
14.106 31.6781 0
11.1606 33.9802 0
11.4207 34.0445 0
13.8344 31.762 0
11.282 34.009 0
13.7153 31.7798 0
14.0252 31.3342 0
11.5477 34.0768 0
11.8497 33.588 0
12.4596 32.7709 0
10.876 33.8167 0
11.8851 33.4464 0
12.0757 33.273 0
12.3443 32.8769 0
12.6979 32.6127 0
13.5729 31.8026 0
12.7981 32.2111 0
12.2395 32.9991 0
12.6846 32.3525 0
11.8203 33.7279 0
12.15 33.1335 0
12.9292 32.0826 0
13.4132 31.8382 0
13.0798 31.9743 0
13.245 31.8936 0
13.9594 31.175 0
12.5842 32.6813 0
13.8878 30.8736 0
10.7985 33.6633 0
13.7025 30.7622 0
10.5972 33.3041 0
13.0348 29.673 0
12.6011 30.1672 0
9.92132 32.2746 0
11.6626 33.8938 0
11.6968 34.0397 0
13.9732 31.627 0
11.3812 33.9092 0
11.5371 33.9449 0
11.2323 33.8757 0
13.7711 31.6632 0
13.8707 31.6698 0
12.5838 32.513 0
11.7503 33.4919 0
13.6314 31.6687 0
11.9345 33.2988 0
12.3114 32.7287 0
11.7234 33.6375 0
11.697 33.7746 0
12.1856 32.8522 0
13.9367 31.459 0
12.6142 32.1831 0
13.8777 31.3067 0
13.4662 31.6868 0
10.9968 33.6516 0
12.7468 32.0317 0
11.9993 33.1481 0
12.0792 32.996 0
12.4409 32.6237 0
13.2824 31.7224 0
12.9013 31.8915 0
13.0858 31.7846 0
11.0589 33.8704 0
13.8863 31.0409 0
10.8206 33.469 0
13.5341 30.9115 0
10.3514 33.1428 0
12.5893 29.7386 0
12.3823 30.4972 0
10.4653 32.3015 0
9.33754 32.2402 0
11.4689 33.8296 0
13.8437 31.5638 0
11.3497 33.7335 0
13.7051 31.5412 0
11.6135 33.5512 0
12.4187 32.4822 0
11.7871 33.3381 0
11.5776 33.8125 0
11.599 33.6906 0
13.7911 31.4251 0
12.1454 32.6903 0
13.5401 31.5354 0
12.2845 32.5674 0
12.4986 32.3435 0
11.8399 33.1788 0
11.9865 32.8316 0
12.539 31.9904 0
11.1684 33.7426 0
11.9081 33.0182 0
13.349 31.5465 0
12.6907 31.8277 0
13.7971 31.1609 0
10.8706 33.2046 0
13.315 30.8586 0
13.1322 31.5781 0
11.0574 33.4091 0
12.6377 30.8371 0
12.1742 30.0782 0
12.3777 29.2531 0
10.309 31.8405 0
11.6342 33.393 0
11.4845 33.6236 0
11.2063 33.579 0
12.2791 32.3631 0
11.4959 33.7379 0
13.737 31.2903 0
13.7312 30.9863 0
11.6719 33.2248 0
12.1098 32.5156 0
11.9871 32.6501 0
12.4036 32.1631 0
13.4443 31.3688 0
13.6328 31.3883 0
11.7325 33.055 0
12.4545 31.7667 0
12.9759 31.3863 0
12.6187 31.626 0
13.2235 31.3735 0
13.4002 31.0316 0
13.2065 30.6427 0
10.6197 32.9903 0
11.1565 33.1686 0
12.2197 30.875 0
13.0307 30.8792 0
12.1139 29.6392 0
12.6851 28.8934 0
8.94555 33.2237 0
9.08319 34.2728 0
14.2382 29.0274 0
13.1431 28.8858 0
11.4825 33.4656 0
13.5762 31.1663 0
11.4996 33.2898 0
12.045 32.3246 0
11.305 33.3782 0
11.5414 33.1012 0
11.9002 32.4982 0
12.6922 31.4055 0
12.3008 31.9524 0
11.3656 33.556 0
13.3316 31.1891 0
12.3779 31.4784 0
11.8073 32.905 0
13.1041 31.1654 0
10.9968 32.8891 0
12.1738 32.1465 0
12.8203 31.1382 0
12.4815 31.1574 0
11.6029 29.8612 0
13.2363 31.0248 0
11.6207 32.9074 0
11.9618 32.1433 0
11.3707 33.1784 0
12.1796 31.7126 0
12.0306 31.9401 0
11.6501 32.4956 0
11.8038 32.2902 0
11.3491 32.9544 0
11.0509 32.5497 0
12.1461 31.2134 0
11.7234 32.0195 0
11.5027 32.7144 0
11.2523 32.7205 0
10.8429 32.3353 0
11.5241 32.2616 0
12.0727 31.475 0
11.3597 32.4944 0
11.8318 31.307 0
11.4718 31.7917 0
11.1786 32.2261 0
11.4935 31.4474 0
11.4219 32.0463 0
11.9046 30.9993 0
10.8391 31.9682 0
11.1451 31.6449 0
11.5532 31.0518 0
11.1325 31.2376 0
11.2113 31.9355 0
11.1853 30.776 0
10.7004 31.0169 0
10.2076 30.7829 0
9.01393 32.6405 0
11.2293 30.3089 0
11.2537 29.3095 0
10.2331 31.3233 0
10.2183 30.187 0
12.1915 28.6775 0
8.19641 33.3499 0
9.0984 31.8031 0
13.4165 28.4779 0
12.2407 0.61127 0
11.3596 0.611116 0
8.94092 0.608833 0
5.92377 0.59635 0
3.52395 0.57936 0
2.87793 0.584779 0
0.79268 16.2564 0
0.763702 10.6765 0
0.814567 8.41812 0
0.830306 5.20905 0
0.692219 2.93314 0
0.723256 32.0548 0
0.857661 26.5632 0
0.754574 21.8182 0
0.858481 18.6248 0
0.729916 24.3716 0
0.785048 29.7883 0
14.1703 25.3681 0
14.5001 28.4632 0
14.2822 21.9621 0
14.1943 19.9138 0
14.1795 10.9216 0
14.18 8.46733 0
14.1902 5.28967 0
14.2364 2.80984 0
14.1557 14.2522 0
14.1685 16.5523 0
14.3267 27.8431 0
5.95461 34.3152 0
6.70466 34.2335 0
3.57998 34.4542 0
2.93466 34.432 0
1.36631 34.431 0
8.54387 34.4599 0
1.33159 0.576636 0
10.8615 29.8597 0
13.4962 27.8405 0
11.544 28.7573 0
7.95856 34.1788 0
9.17699 31.2123 0
8.77872 32.2111 0
9.66755 29.8577 0
9.78035 31.1149 0
10.4365 0.49955 0
8.31305 0.559849 0
5.20342 0.556967 0
0.506043 11.7633 0
0.601098 9.11877 0
0.789202 5.99351 0
0.762253 15.4646 0
0.559876 3.55702 0
0.566071 31.401 0
0.741847 29.0133 0
0.613197 25.8427 0
0.668808 23.253 0
0.793709 19.493 0
0.618095 17.892 0
0.731488 21.0664 0
0.794555 27.4316 0
0.447725 33.1528 0
14.3528 23.0809 0
14.3759 26.1156 0
14.2596 11.6665 0
14.4408 9.39754 0
14.4701 1.77226 0
14.2961 18.6885 0
14.4039 20.5247 0
14.2378 24.512 0
14.2575 17.3001 0
5.25369 34.4184 0
12.2772 27.9871 0
5.8254 33.2051 0
5.75458 1.756 0
11.0916 1.7904 0
12.4826 1.75287 0
4.01995 33.2977 0
2.77386 33.3348 0
1.57836 33.1382 0
1.51885 1.88248 0
2.74048 1.87195 0
3.87396 1.66539 0
6.95553 33.459 0
9.11403 1.77924 0
14.262 6.03597 0
0.750101 7.56773 0
14.2919 13.0516 0
0.436928 1.85194 0
14.2929 7.4125 0
14.4741 3.76593 0
14.3225 14.8814 0
1.63886 32.2564 0
13.2509 16.4391 0
13.2141 14.142 0
13.2634 10.8017 0
13.2654 8.45418 0
13.2905 5.15332 0
1.72951 30.0577 0
13.2797 25.4228 0
1.66845 24.4777 0
13.3506 21.8374 0
1.65091 22.1151 0
13.255 19.8566 0
1.81487 18.5531 0
1.72639 16.5091 0
1.67998 10.6261 0
1.80057 8.56502 0
1.74427 5.00624 0
13.4082 2.8428 0
1.61797 2.80731 0
1.81397 26.4763 0
6.64776 0.556099 0
13.0172 0.545599 0
11.6486 27.6335 0
10.9553 28.8133 0
10.2732 29.5653 0
8.23918 32.221 0
9.17157 30.1623 0
12.8191 27.7311 0
12.4813 25.4349 0
7.59282 33.5366 0
5.65855 32.2242 0
5.75935 2.86128 0
11.0281 2.82224 0
12.5034 2.98025 0
7.84004 1.70748 0
10.3962 1.76012 0
1.66618 30.8492 0
1.50041 28.6668 0
1.71112 25.2346 0
1.45302 23.0038 0
1.48388 20.7373 0
1.73143 17.2911 0
1.47875 15.1886 0
1.73281 9.2914 0
1.50451 7.21385 0
1.62528 3.63464 0
2.6358 32.0702 0
3.89213 32.2565 0
1.66658 27.8353 0
1.65911 19.9112 0
1.83058 12.0002 0
1.67485 6.39687 0
2.78132 2.77875 0
3.70971 2.76997 0
6.84618 32.2048 0
5.08106 1.69464 0
7.13399 1.70453 0
13.027 15.2303 0
13.407 12.7672 0
13.1028 9.57683 0
13.4033 7.12025 0
13.2295 3.90311 0
13.2045 1.65145 0
13.3034 21.0852 0
13.6092 23.295 0
13.2546 26.566 0
13.3984 24.1146 0
13.5305 17.637 0
13.5298 11.9931 0
13.5302 6.35507 0
9.10952 2.86111 0
4.70498 33.305 0
12.2846 16.478 0
12.2683 14.0754 0
12.2782 10.8339 0
12.2584 8.41691 0
12.3167 5.15572 0
2.77184 29.9222 0
2.68456 24.3099 0
12.3211 21.994 0
2.66987 22.0079 0
12.295 19.8051 0
13.4143 18.4158 0
2.69198 18.5798 0
2.70102 16.3704 0
2.71803 10.6187 0
2.81614 8.42889 0
2.72097 4.98188 0
2.69334 26.4911 0
11.2409 28.2495 0
10.3591 28.9557 0
9.02093 30.6485 0
11.4334 22.0117 0
3.55172 26.5219 0
3.56065 16.3471 0
3.5526 24.2696 0
3.54655 18.6231 0
3.54704 21.979 0
12.5754 26.6667 0
5.01157 32.2152 0
11.8124 25.4359 0
12.3238 18.3424 0
12.1028 20.9233 0
12.2349 15.2411 0
12.3093 12.6867 0
12.2463 9.5954 0
12.2947 7.03055 0
12.3506 3.79472 0
12.1611 23.3282 0
5.81496 31.0583 0
12.3416 24.1028 0
12.3058 17.6831 0
12.2921 12.033 0
12.2907 6.38624 0
5.76495 3.95842 0
11.2484 4.05475 0
7.83729 2.8747 0
10.3696 2.84474 0
2.86294 28.5902 0
2.95903 31.2879 0
2.89183 25.379 0
2.84839 23.1456 0
2.82181 20.6918 0
2.8976 17.4658 0
2.81422 15.1148 0
1.53121 13.9009 0
2.8197 9.52345 0
2.74507 7.13992 0
2.90508 3.70088 0
3.84575 31.1811 0
2.69029 27.8697 0
2.67314 19.9642 0
1.53598 13.2745 0
2.71444 11.9847 0
2.74855 6.47651 0
3.70155 3.995 0
5.08503 2.8318 0
7.1449 2.87536 0
9.10968 3.91661 0
11.3521 19.7801 0
3.72915 29.8459 0
11.3346 16.4596 0
11.3323 14.0624 0
11.3041 10.8091 0
11.2571 8.42015 0
11.2388 5.01396 0
3.69057 10.6624 0
3.80249 8.38488 0
3.78276 4.86852 0
8.54381 30.9673 0
10.908 27.7461 0
11.2509 25.7639 0
11.2751 25.0957 0
10.3876 10.7541 0
10.422 14.0804 0
4.60473 10.7135 0
10.4329 16.4208 0
4.65471 29.8109 0
10.4467 19.7442 0
11.5219 20.9347 0
3.52324 28.6464 0
4.71179 31.093 0
11.4186 23.2173 0
3.46076 15.1282 0
3.45799 25.3825 0
3.46055 17.4765 0
3.43759 23.1355 0
3.45775 20.781 0
6.62937 31.0492 0
11.4269 24.3678 0
3.42174 19.8401 0
3.43958 27.7265 0
5.26765 31.0479 0
10.8499 21.9725 0
4.27196 26.5248 0
4.2673 16.3527 0
4.2621 24.2578 0
4.26162 18.6368 0
4.26168 21.9751 0
11.3047 18.3748 0
11.3637 15.2422 0
11.2592 12.7207 0
11.3294 9.61164 0
11.2297 7.01789 0
5.78375 29.8321 0
11.1427 17.6833 0
11.0781 12.0247 0
11.2187 6.37846 0
5.68549 5.09406 0
7.84782 3.98359 0
10.3693 3.9374 0
2.87258 13.921 0
3.92958 9.56149 0
3.81433 7.12692 0
2.88814 13.2518 0
3.64365 11.9706 0
3.81199 6.47805 0
5.11045 3.90019 0
7.15071 3.99264 0
9.31533 5.06981 0
10.2607 8.46604 0
10.173 5.10882 0
4.77816 8.40865 0
4.84149 5.02366 0
0.449144 13.9917 0
7.92673 31.2973 0
4.85227 16.7124 0
4.86081 26.1537 0
4.85912 19.0044 0
4.84609 23.9047 0
4.85915 21.6155 0
4.85256 22.3379 0
4.84957 24.604 0
4.85623 18.2811 0
4.87358 26.8663 0
4.84752 16.0239 0
8.00531 30.6348 0
10.3133 27.8663 0
11.2268 26.4392 0
5.71503 8.41417 0
9.2877 8.47363 0
3.52778 14.0487 0
10.3652 11.9164 0
4.56208 9.58758 0
10.5051 17.5918 0
6.56323 29.8175 0
10.5496 18.5173 0
10.6007 15.242 0
10.4509 12.8772 0
10.5334 9.6382 0
4.45884 11.9514 0
3.53739 13.1353 0
5.24353 29.8192 0
9.7765 10.6986 0
5.34966 10.7299 0
9.67433 14.1023 0
9.6929 16.4021 0
9.71588 19.7122 0
10.5117 25.5097 0
12.3737 27.3386 0
10.1862 7.0614 0
5.99728 28.7326 0
10.138 21.0557 0
5.71173 6.27414 0
10.1239 6.3879 0
7.87339 5.11385 0
5.01483 7.1355 0
4.80783 28.4891 0
4.86902 6.43143 0
7.15918 5.14707 0
8.89996 6.22276 0
5.569 26.4405 0
5.54442 24.2471 0
5.57728 21.9969 0
5.9594 11.0614 0
9.07954 14.4637 0
9.08893 16.7588 0
9.15826 20.0852 0
9.08953 16.0365 0
9.11563 19.363 0
9.06954 13.7864 0
5.95629 10.4048 0
7.88969 31.8986 0
8.05343 29.9414 0
11.1066 27.1276 0
8.23919 6.23031 0
5.69954 7.24355 0
9.30744 20.8156 0
6.58767 28.6838 0
9.33062 7.24312 0
6.34908 8.36547 0
8.66081 8.44862 0
5.58323 18.6354 0
5.56395 16.3698 0
5.90205 27.6164 0
9.96247 24.3267 0
10.2017 21.8494 0
6.02193 9.73096 0
4.92337 25.3757 0
4.9158 23.1258 0
4.95557 20.785 0
4.92605 17.4925 0
4.90832 15.3155 0
4.96382 27.6882 0
4.95585 19.8339 0
4.93183 13.196 0
6.98726 6.24135 0
9.00747 9.799 0
10.034 23.1505 0
8.35312 14.1323 0
8.36283 16.3878 0
8.39414 19.73 0
9.25612 23.1286 0
8.21628 9.67259 0
5.66973 15.2328 0
5.73272 17.4954 0
5.70719 25.3503 0
5.70105 23.133 0
5.78304 20.8312 0
6.67974 27.5035 0
9.25519 24.3687 0
5.77819 19.783 0
5.69309 13.066 0
6.8039 9.63764 0
9.37825 21.9416 0
10.4975 26.7894 0
7.37354 30.9053 0
6.69513 10.7209 0
6.04705 11.7799 0
7.95354 7.35167 0
4.93794 13.9432 0
7.16787 7.46066 0
9.01158 18.5348 0
9.01582 15.2446 0
8.98437 13.1076 0
9.00247 17.5863 0
9.09562 10.5823 0
8.95033 11.8749 0
8.05461 8.44761 0
7.07006 8.29729 0
6.92935 30.3979 0
8.1298 11.8757 0
5.68892 14.0802 0
8.18937 17.5398 0
8.19765 18.5759 0
8.1978 15.244 0
8.22297 13.0469 0
6.94785 11.895 0
8.23243 10.6829 0
8.56977 23.1041 0
7.86907 20.9033 0
6.97629 24.1936 0
7.11181 22.1066 0
6.97635 18.6127 0
6.96059 16.3718 0
6.86579 26.2885 0
7.95225 23.362 0
7.32661 29.7964 0
7.91937 22.1835 0
7.74771 24.0984 0
7.16833 20.8579 0
7.53956 11.8854 0
6.79834 23.1646 0
6.96523 17.5011 0
6.94907 15.2374 0
7.0012 19.7004 0
6.96737 13.0824 0
6.95439 14.1319 0
6.83279 25.294 0
8.1197 22.7826 0
6.99632 29.1274 0
8.00003 27.6078 0
12.8411 38.3502 0
11.7342 38.3297 0
10.6907 38.2574 0
9.63208 38.243 0
8.60792 38.4383 0
7.59491 38.4757 0
6.3351 38.4227 0
5.01793 38.3806 0
4.2665 38.1905 0
3.39639 38.4198 0
2.18472 38.4493 0
1.12211 38.4309 0
0.92959 37.1563 0
2.34337 37.258 0
3.03221 37.0924 0
4.48165 37.2752 0
5.41394 37.3503 0
6.29227 37.1413 0
7.52773 37.1372 0
8.61929 37.1406 0
9.68948 37.1723 0
10.7083 37.156 0
11.7864 37.2166 0
12.8693 37.2027 0
13.9712 39.4411 0
12.8675 39.4723 0
11.7859 39.4508 0
10.7674 39.4821 0
9.76507 39.3758 0
8.55469 39.3995 0
7.52265 39.4579 0
6.36432 39.5264 0
5.46685 39.4459 0
4.01587 39.4471 0
3.18043 39.2133 0
2.14969 39.1523 0
0.999164 39.1951 0
13.9708 40.5347 0
12.7922 40.4611 0
11.7438 40.5282 0
10.6618 40.5353 0
9.54381 40.3676 0
8.59538 40.6514 0
7.65025 40.5336 0
6.3774 40.5587 0
5.25061 40.5696 0
4.36984 40.5931 0
3.02323 40.6021 0
2.16916 40.6177 0
1.41716 40.5929 0
13.8908 41.4599 0
12.838 41.6353 0
11.8501 41.6532 0
10.8654 41.479 0
9.63791 41.6609 0
8.6134 41.7269 0
7.5198 41.6375 0
6.36577 41.6385 0
5.23589 41.6663 0
4.35997 41.6679 0
3.22569 41.6618 0
2.13316 41.8764 0
0.767172 41.7098 0
14.1467 42.8882 0
12.9308 42.8582 0
11.7735 42.7667 0
10.7667 42.7449 0
9.77348 42.6525 0
8.48236 42.8125 0
7.49869 42.6807 0
6.37582 42.7315 0
5.28101 42.8107 0
4.2129 42.9047 0
3.04127 42.6693 0
2.16874 42.6138 0
1.38224 42.8065 0
14.1063 43.6947 0
13.0189 43.5991 0
11.8864 44.0709 0
10.7219 43.9047 0
9.61752 43.9321 0
8.58768 43.9245 0
7.45556 43.873 0
6.42704 43.8182 0
5.22681 43.7535 0
4.21314 44.0448 0
3.06967 44.0219 0
2.33393 43.8946 0
1.17789 43.9813 0
13.601 45.0081 0
12.9298 44.9284 0
11.8438 44.9991 0
10.7292 45.0503 0
9.7805 45.1786 0
8.60895 45.1621 0
7.59387 44.9946 0
6.38088 44.9721 0
5.37407 44.9901 0
4.2724 44.9364 0
2.96718 44.8735 0
2.04348 44.9009 0
0.998405 44.7728 0
13.6259 46.1827 0
12.8145 46.1291 0
11.9024 46.2621 0
10.8597 46.1759 0
9.61536 46.0716 0
8.5646 46.2061 0
7.55571 46.0591 0
6.44873 46.097 0
5.26934 46.1876 0
4.30017 46.2983 0
2.95145 46.2019 0
2.06349 46.1599 0
1.35849 46.1374 0
13.9363 47.0079 0
12.8628 47.1675 0
11.8907 47.108 0
10.718 47.325 0
9.48753 47.3342 0
8.50768 47.1066 0
7.66743 47.1897 0
6.48122 47.1215 0
5.12967 47.2283 0
4.18258 47.1829 0
3.10962 47.0556 0
2.26648 47.3568 0
0.757294 47.2313 0
13.6089 48.397 0
12.8043 48.5414 0
11.8711 48.446 0
10.9108 48.4792 0
9.77857 48.3708 0
8.76584 48.0158 0
7.53638 48.2901 0
6.41099 48.3891 0
5.10629 48.5232 0
4.05386 48.2529 0
3.11983 48.2998 0
2.20242 48.2062 0
1.36991 48.3362 0
14.2203 49.4492 0
12.8183 49.2556 0
11.6265 49.4424 0
10.7833 49.475 0
9.56848 49.5829 0
8.56053 49.6379 0
7.50476 49.5251 0
6.24574 49.4658 0
5.38784 49.5138 0
4.21507 49.3713 0
3.34705 49.3991 0
2.20347 49.6104 0
0.850603 49.6644 0
13.5268 50.584 0
12.7298 50.518 0
11.8027 50.4968 0
10.8207 50.4267 0
9.73693 50.7605 0
8.50088 50.533 0
7.58615 50.5426 0
6.07869 50.5976 0
5.41576 50.3221 0
4.03854 50.3851 0
3.1299 50.4272 0
2.21673 50.3094 0
1.3151 50.3918 0
13.6599 51.8507 0
12.7249 51.9539 0
11.6879 51.9106 0
10.8111 51.7512 0
9.91004 51.8184 0
8.73752 51.7607 0
7.43165 51.4754 0
6.18614 51.4458 0
5.40052 51.6024 0
4.0378 51.7663 0
3.09399 51.7257 0
2.20852 51.7162 0
1.44408 51.6482 0
14.1302 52.5814 0
12.7554 52.6521 0
11.5208 52.6568 0
10.7541 52.7565 0
9.93975 52.693 0
8.6636 52.6357 0
7.75779 52.6944 0
6.44718 52.5789 0
5.28646 52.6962 0
4.19879 52.7336 0
3.34481 52.7722 0
2.16682 52.9836 0
0.770749 52.77 0
13.6101 53.9274 0
12.7778 54.0756 0
11.7429 54.1286 0
10.7365 54.1201 0
9.87425 53.9081 0
8.50553 54.1213 0
7.57449 53.8398 0
6.57961 53.5926 0
5.09665 53.9486 0
4.18191 53.743 0
3.20253 53.8609 0
2.20523 53.7614 0
1.37119 53.8835 0
14.1993 55.1399 0
12.802 54.7891 0
11.7362 54.8023 0
10.673 54.7992 0
9.47698 54.9501 0
8.60211 54.9637 0
7.48909 54.9406 0
6.43035 54.8954 0
5.09929 55.1043 0
4.39015 55.0147 0
3.26978 55.173 0
2.19561 55.1645 0
0.853785 55.2025 0
13.8849 56.0015 0
12.7613 56.034 0
11.7161 56.0386 0
10.6824 56.0452 0
9.6837 56.0397 0
8.66073 55.8869 0
7.66312 55.9191 0
6.16313 56.1199 0
5.19811 55.9179 0
4.24106 55.9828 0
3.27305 55.8505 0
2.24257 55.8436 0
1.31788 55.942 0
13.687 57.452 0
12.7519 57.5369 0
11.7125 57.5529 0
10.6689 57.5532 0
9.62129 57.5452 0
8.52705 57.4693 0
7.27764 57.2021 0
6.17812 57.2514 0
5.25747 57.2901 0
4.28026 57.3203 0
3.27668 57.3302 0
2.2934 57.3372 0
1.35795 57.3802 0
14.1372 58.1677 0
12.7785 58.2182 0
11.7209 58.2143 0
10.6771 58.2112 0
9.61517 58.2406 0
8.49892 58.2001 0
7.18666 58.1547 0
6.36101 58.5011 0
5.5333 58.5481 0
4.33201 58.5378 0
3.27454 58.5456 0
2.21436 58.5517 0
0.866034 58.1696 0
13.6099 59.4975 0
12.7738 59.625 0
11.7054 59.622 0
10.7204 59.5141 0
9.81412 59.608 0
8.27185 59.543 0
7.42292 59.404 0
6.42036 59.4194 0
5.3702 59.2444 0
4.33084 59.1917 0
3.28104 59.2182 0
2.22862 59.2674 0
1.39404 59.4013 0
14.2016 60.7049 0
12.7982 60.3411 0
11.6953 60.3402 0
10.7542 60.5372 0
9.52897 60.5247 0
8.41285 60.5114 0
7.43028 60.5185 0
6.42613 60.5472 0
5.31969 60.7246 0
4.36694 60.6577 0
3.48508 60.7814 0
2.19892 60.7208 0
0.846539 60.7307 0
13.9068 61.5228 0
12.7917 61.572 0
11.7456 61.5706 0
10.7657 61.5481 0
9.66424 61.5788 0
8.46772 61.5991 0
7.46248 61.6094 0
6.46579 61.6323 0
5.35458 61.668 0
4.55782 61.6683 0
3.16723 61.6418 0
2.16452 61.4624 0
1.26372 61.4907 0
13.9327 62.7613 0
13.06 62.929 0
11.5276 62.9298 0
10.6852 62.7859 0
9.66723 62.6946 0
8.49479 62.6934 0
7.47016 62.7377 0
6.44587 62.7245 0
5.30783 62.7164 0
4.29545 62.7252 0
3.25421 62.7754 0
2.29115 62.9816 0
0.883571 62.8627 0
14.0559 64.1574 0
12.8712 63.734 0
11.7324 63.7293 0
10.6618 64.1219 0
9.59861 63.6908 0
8.54957 63.7058 0
7.431 64.2051 0
6.31287 63.8057 0
5.30995 63.7385 0
4.24395 64.2236 0
3.14873 63.8906 0
2.06564 64.0159 0
0.887827 63.7886 0
0.936563 36.1784 0
2.14369 35.7874 0
3.2665 36.1912 0
4.31177 36.3072 0
5.29588 35.8939 0
6.22033 36.2932 0
7.48337 36.2394 0
8.50215 36.1287 0
9.67437 36.1507 0
10.701 36.1179 0
14.9134 38.5348 0
14.9112 39.3234 0
14.9105 38.9288 0
14.9113 38.8302 0
14.9136 38.4363 0
14.9137 38.1406 0
14.9124 38.0417 0
14.8957 37.7369 0
10.9726 35.0895 0
11.2682 35.0871 0
11.1698 35.0882 0
11.5636 35.0861 0
10.6774 35.0875 0
10.8731 35.0879 0
11.0712 35.0893 0
11.3666 35.0866 0
11.4651 35.0863 0
11.6622 35.0861 0
11.7608 35.0861 0
11.8592 35.0863 0
11.9567 35.0879 0
12.0548 35.0935 0
12.1569 35.1029 0
12.2695 35.1165 0
14.9106 39.1268 0
14.9098 39.0275 0
14.9122 38.7317 0
14.9129 38.6332 0
14.9137 38.3378 0
14.9137 38.2392 0
14.9078 37.9414 0
14.9018 37.8401 0
12.8423 36.4259 0
13.3243 36.9693 0
12.7352 36.2473 0
14.035 37.3978 0
12.5036 35.6688 0
13.7526 37.265 0
12.6872 36.1549 0
13.0996 36.7536 0
12.479 35.567 0
14.4336 37.5234 0
12.6023 35.965 0
13.2468 36.9003 0
13.5739 37.1577 0
14.6441 37.5692 0
14.1324 37.4346 0
14.7511 37.5869 0
14.2312 37.4674 0
14.5386 37.5489 0
12.643 36.0607 0
12.9639 36.595 0
12.5326 35.7689 0
12.9013 36.5117 0
14.8768 37.6141 0
13.6622 37.2133 0
13.845 37.3129 0
13.4047 37.0354 0
14.3316 37.4969 0
13.9392 37.3571 0
12.5656 35.8676 0
12.7869 36.3376 0
12.4587 35.4643 0
13.1719 36.8284 0
14.8706 39.5143 0
10.4865 35.1304 0
14.8083 39.6879 0
10.3066 35.1988 0
14.7095 39.9806 0
9.98638 35.3084 0
14.82 38.8784 0
14.8265 38.4853 0
14.8259 38.0907 0
14.8178 39.0779 0
14.8242 38.6817 0
14.827 38.2885 0
10.9202 35.18 0
11.2215 35.1755 0
11.1227 35.179 0
10.8167 35.1739 0
11.0221 35.1811 0
11.6119 35.1723 0
11.7111 35.1726 0
11.8098 35.1728 0
11.9071 35.1747 0
12.0033 35.1807 0
14.822 38.7799 0
14.8192 39.1812 0
14.8178 38.9774 0
14.8254 38.5835 0
14.8268 38.3869 0
14.8268 38.1898 0
14.8211 37.9903 0
14.7964 39.3861 0
10.617 35.1976 0
12.39 35.1142 0
13.488 37.0982 0
13.0302 36.6757 0
13.3077 37.0708 0
14.2577 37.5659 0
14.5872 37.6611 0
14.0529 37.4977 0
13.7578 37.3678 0
12.5857 36.1452 0
12.6327 36.2419 0
12.3838 35.5306 0
12.8607 36.6073 0
13.57 37.2616 0
14.4731 37.6273 0
12.6837 36.3367 0
12.4348 35.7428 0
12.7977 36.5197 0
13.0721 36.8528 0
12.4668 35.8456 0
13.2266 37.0009 0
12.5027 35.947 0
13.6629 37.3169 0
13.8546 37.4147 0
12.3657 35.417 0
12.4075 35.6379 0
14.1545 37.5334 0
12.5425 36.0469 0
13.1482 36.9283 0
12.7387 36.4294 0
14.3641 37.5966 0
13.9531 37.4579 0
14.6977 39.5385 0
10.4669 35.3052 0
14.5728 39.7341 0
10.2612 35.4469 0
14.4923 40.433 0
9.42377 35.5242 0
14.7389 38.4364 0
14.7389 38.1394 0
11.4578 35.2515 0
11.5552 35.2564 0
11.6578 35.2588 0
11.7592 35.2598 0
11.859 35.2625 0
14.7394 38.2389 0
14.7392 38.3378 0
12.0465 35.2683 0
14.7357 38.0365 0
14.723 39.1304 0
14.723 39.0262 0
14.7324 37.9386 0
14.7155 39.2535 0
14.7381 38.5351 0
10.7396 35.257 0
10.8571 35.2742 0
11.2768 35.2561 0
10.9686 35.2772 0
14.7251 38.9248 0
11.1793 35.2661 0
11.0756 35.2738 0
14.7297 38.8251 0
12.2441 35.2989 0
13.3922 37.1379 0
12.9279 36.6921 0
12.9986 36.7739 0
13.4797 37.2017 0
12.2897 35.4901 0
14.402 37.6989 0
12.3104 35.6018 0
14.0741 37.5991 0
12.3363 35.7124 0
12.4013 35.9259 0
12.44 36.0299 0
14.1804 37.6341 0
12.3669 35.8201 0
14.2901 37.6669 0
12.482 36.1323 0
13.9701 37.5605 0
12.5277 36.2333 0
13.8675 37.5186 0
13.7663 37.4734 0
12.5775 36.3327 0
13.1251 37.0315 0
13.0455 36.9554 0
13.2071 37.105 0
13.6666 37.4239 0
13.5688 37.3693 0
12.6317 36.4302 0
12.7537 36.6177 0
12.6904 36.5254 0
14.7363 37.7408 0
14.6282 39.3836 0
10.6315 35.3574 0
14.5057 39.5255 0
10.4935 35.4963 0
14.3817 39.9829 0
9.97563 35.6804 0
14.6562 37.8099 0
14.6512 38.4916 0
14.6512 38.289 0
11.5939 35.3441 0
11.7038 35.3474 0
14.6497 38.1885 0
14.6509 38.3903 0
11.8101 35.3518 0
11.9151 35.3588 0
10.7782 35.3795 0
12.1496 35.3326 0
12.0242 35.3623 0
14.6282 39.0766 0
14.6567 38.6795 0
11.1383 35.3639 0
14.6434 38.0828 0
14.6368 37.9649 0
14.6352 38.8657 0
10.9078 35.3822 0
11.0258 35.376 0
12.3577 35.2683 0
14.6277 38.9707 0
12.9683 36.8758 0
13.2924 37.1762 0
13.4734 37.3093 0
12.8218 36.707 0
12.4686 36.3253 0
12.5213 36.4278 0
12.2038 35.4487 0
13.9907 37.6647 0
13.8841 37.6246 0
12.3359 36.0094 0
12.3766 36.1158 0
12.2656 35.7906 0
14.0996 37.7018 0
12.4206 36.221 0
13.1026 37.1376 0
14.2119 37.7364 0
12.2991 35.9008 0
13.7785 37.5814 0
13.0193 37.0604 0
14.4441 37.7967 0
12.2362 35.6753 0
12.2122 35.5552 0
14.3278 37.7684 0
13.674 37.5341 0
13.5706 37.481 0
12.6426 36.6261 0
12.5793 36.5283 0
13.3812 37.2445 0
12.8936 36.793 0
14.5769 39.2527 0
14.4759 39.3526 0
10.683 35.508 0
14.3299 39.6903 0
10.3284 35.6881 0
11.3632 35.4081 0
14.5694 38.5643 0
14.5559 38.7952 0
14.5627 38.4534 0
11.514 35.4298 0
11.6409 35.4361 0
14.5616 38.3444 0
14.5588 38.2392 0
11.9733 35.4622 0
11.7578 35.442 0
11.8662 35.4491 0
11.2159 35.4493 0
14.5497 38.1345 0
14.5337 38.0234 0
11.094 35.4723 0
14.5392 39.1423 0
14.5345 38.9072 0
10.8384 35.503 0
10.9718 35.4902 0
14.5251 39.027 0
12.9389 36.9798 0
13.1883 37.2123 0
13.4695 37.4213 0
12.7114 36.7203 0
12.3576 36.3136 0
12.3119 36.205 0
12.7846 36.8107 0
13.9046 37.7319 0
14.0158 37.77 0
13.6858 37.6469 0
12.2698 36.0956 0
12.2307 35.9847 0
12.194 35.8714 0
12.4081 36.4213 0
13.7952 37.6914 0
13.2777 37.2856 0
13.5768 37.5964 0
12.9941 37.167 0
12.1011 35.4819 0
14.1301 37.8058 0
12.1594 35.7531 0
14.3721 37.8704 0
14.2485 37.8392 0
13.3716 37.3557 0
12.1278 35.6266 0
12.8608 36.8965 0
12.4643 36.5275 0
12.5272 36.6313 0
14.5127 37.8933 0
14.3277 39.4618 0
10.5746 35.6701 0
14.0597 39.8612 0
11.4329 35.5243 0
14.4958 38.6827 0
14.4743 38.535 0
11.2995 35.5364 0
14.4707 38.4091 0
14.4672 38.2936 0
11.5695 35.528 0
11.6987 35.5346 0
11.8182 35.5441 0
14.4515 38.8264 0
11.9145 35.5401 0
14.4606 38.1871 0
11.173 35.5647 0
11.049 35.5923 0
14.4208 38.9563 0
10.9172 35.6206 0
14.4013 39.1131 0
12.9103 37.0843 0
13.0818 37.2441 0
13.469 37.538 0
12.2451 36.2973 0
12.6713 36.8272 0
12.5967 36.7315 0
12.2021 36.1845 0
13.1691 37.3229 0
13.8162 37.8024 0
13.9297 37.8402 0
13.703 37.7618 0
14.0456 37.8762 0
12.1609 36.0709 0
12.1189 35.9543 0
12.2925 36.4098 0
12.7515 36.9167 0
13.5883 37.7149 0
12.078 35.8336 0
14.4129 37.9778 0
13.3642 37.4721 0
14.2886 37.9448 0
14.166 37.9115 0
12.0392 35.7085 0
12.0096 35.5805 0
13.2638 37.3997 0
12.3461 36.5218 0
12.4074 36.6324 0
14.4682 39.2268 0
14.3452 39.2788 0
10.7621 35.6471 0
14.1333 39.5759 0
10.4726 35.8732 0
14.1309 40.1905 0
11.3719 35.6133 0
11.4908 35.6245 0
14.3757 38.6218 0
14.3817 38.7442 0
14.3785 38.4823 0
14.3763 38.3579 0
11.6307 35.6309 0
11.7616 35.6399 0
14.3679 38.2407 0
14.3718 38.1446 0
11.2624 35.6509 0
14.3308 38.857 0
11.135 35.6846 0
11.0083 35.7265 0
14.2809 39.0017 0
12.1322 36.2757 0
13.8422 37.914 0
12.813 37.092 0
13.7257 37.8776 0
13.0526 37.3525 0
13.4734 37.6591 0
12.0896 36.1595 0
12.1755 36.3924 0
13.9593 37.9496 0
12.4771 36.7399 0
12.6382 36.9396 0
12.0414 36.0408 0
12.7293 37.0261 0
13.1486 37.4395 0
12.5545 36.8427 0
13.6063 37.8355 0
14.0801 37.9876 0
11.9872 35.9147 0
14.33 38.0553 0
14.2062 38.0277 0
11.8978 35.662 0
13.2517 37.5203 0
12.2252 36.5101 0
13.3605 37.5937 0
12.2837 36.6279 0
12.9813 37.266 0
10.8602 35.7727 0
14.1694 39.3558 0
10.6821 35.8127 0
14.2213 39.1659 0
10.1701 35.9612 0
13.9368 39.6433 0
13.7582 40.1347 0
11.385 35.7302 0
14.2764 38.5495 0
14.2983 38.4273 0
14.261 38.7171 0
11.553 35.7338 0
14.2709 38.3175 0
11.7017 35.7388 0
11.2266 35.7768 0
14.1899 38.8765 0
11.1021 35.8005 0
13.754 37.9928 0
12.9062 37.3629 0
13.8714 38.0268 0
12.0183 36.2496 0
12.729 37.1472 0
11.9644 36.1348 0
12.0577 36.3683 0
13.0226 37.4746 0
13.4842 37.7839 0
13.6315 37.957 0
12.6152 37.063 0
11.9018 36.0112 0
12.3524 36.7436 0
13.9884 38.0695 0
12.5173 36.9621 0
14.1129 38.1216 0
14.2567 38.1697 0
13.131 37.5656 0
12.1023 36.4911 0
12.4307 36.8554 0
13.2438 37.6479 0
13.3624 37.7208 0
12.1567 36.6162 0
14.1147 39.0298 0
10.7914 35.9398 0
14.0099 39.2125 0
13.7574 39.5394 0
10.4349 36.1334 0
13.7585 39.7919 0
13.5252 40.4892 0
14.1341 38.2908 0
14.1879 38.4425 0
11.6328 35.8435 0
14.1126 38.7483 0
11.1589 35.9252 0
11.8692 35.7605 0
12.7507 37.289 0
13.7858 38.1064 0
11.9117 36.2272 0
13.6653 38.0779 0
11.9403 36.3373 0
13.894 38.1482 0
12.5962 37.2137 0
11.8032 36.1332 0
13.5031 37.9115 0
12.2228 36.7409 0
11.9783 36.4642 0
12.4834 37.0915 0
14.0041 38.2152 0
13.0034 37.6099 0
12.3867 36.9791 0
13.1188 37.7002 0
12.0269 36.5964 0
12.3002 36.8624 0
13.3718 37.853 0
13.2426 37.7817 0
11.479 35.8491 0
14.1602 38.6015 0
12.8927 37.5167 0
10.6164 35.9754 0
10.9804 35.8944 0
11.3257 35.8781 0
13.9434 39.0295 0
13.8003 39.3152 0
10.1235 36.242 0
13.5261 39.9095 0
13.3717 40.1415 0
13.691 40.9272 0
14.0987 38.4066 0
12.5195 37.3187 0
13.9745 38.7509 0
11.6878 35.949 0
11.814 35.8596 0
13.7083 38.1951 0
14.0472 38.6394 0
13.8112 38.2066 0
11.56 35.9477 0
14.0684 38.5102 0
12.7687 37.4395 0
11.8528 36.428 0
13.8881 38.2799 0
13.532 38.0405 0
12.4423 37.2216 0
12.0888 36.7303 0
12.3441 37.1093 0
11.894 36.5682 0
12.9858 37.7494 0
11.7057 36.0443 0
12.2494 36.9895 0
12.8734 37.651 0
13.3915 37.9888 0
13.1131 37.8416 0
11.2834 36.0188 0
12.1639 36.8622 0
13.2502 37.9217 0
11.4243 35.9758 0
11.8209 36.293 0
12.6333 37.3726 0
13.8388 39.1473 0
11.0406 36.0302 0
14.0365 38.8864 0
10.8934 36.0689 0
13.2462 39.8089 0
13.5506 39.3812 0
10.3332 36.4318 0
10.6077 36.3362 0
13.5241 39.6564 0
14.2521 40.9885 0
13.2036 40.77 0
13.9937 38.387 0
12.4075 37.3518 0
13.9092 38.5821 0
11.628 36.1336 0
12.7833 37.5635 0
11.0092 36.1744 0
13.5734 38.1711 0
13.8831 38.8796 0
11.5161 36.0617 0
11.9498 36.7131 0
11.7581 36.5315 0
12.3027 37.2443 0
12.8446 37.7945 0
12.2003 37.1222 0
11.3814 36.1092 0
13.4242 38.1289 0
12.9741 37.9006 0
12.1069 36.9914 0
11.15 36.0894 0
12.0229 36.8555 0
11.6915 36.2563 0
13.7664 38.3051 0
11.7243 36.3901 0
13.6637 39.1673 0
13.1186 37.9923 0
13.2706 38.068 0
12.518 37.4403 0
10.8309 36.2554 0
10.5539 36.6039 0
9.99635 36.5361 0
13.0264 40.098 0
13.3109 39.5085 0
12.7286 41.0352 0
13.2975 41.2863 0
13.7681 38.5253 0
13.8392 38.4176 0
11.2573 36.1464 0
13.8422 38.745 0
13.6291 38.3024 0
12.2663 37.3874 0
12.7365 37.6777 0
11.4831 36.1915 0
11.8025 36.6899 0
12.6473 37.5357 0
11.6252 36.49 0
13.4707 38.2741 0
12.1509 37.2607 0
12.39 37.4959 0
12.822 37.9634 0
12.0529 37.1247 0
11.8731 36.8489 0
11.9641 36.9909 0
13.3038 38.2201 0
12.9768 38.0671 0
11.1478 36.2449 0
13.1388 38.1514 0
11.6006 36.3585 0
10.9858 36.359 0
13.4562 39.1714 0
13.7693 39.0085 0
10.7884 36.4753 0
10.2735 36.7421 0
13.1838 40.3919 0
12.9187 39.7683 0
13.0925 39.5757 0
12.3649 40.6533 0
11.3236 36.2765 0
13.7002 38.4206 0
13.7196 38.8424 0
12.6901 37.8359 0
11.6511 36.6499 0
12.0992 37.4161 0
13.5328 38.4339 0
12.5074 37.5681 0
12.2366 37.5509 0
13.5568 38.9793 0
11.9832 37.2636 0
11.6927 36.8464 0
11.5132 36.4496 0
13.3485 38.3765 0
11.9197 37.1203 0
12.8215 38.1547 0
11.8136 37.0109 0
11.5757 36.2537 0
12.5831 37.692 0
13.7096 38.6587 0
12.996 38.2443 0
13.1241 39.3255 0
13.1725 38.318 0
13.3436 39.3119 0
11.161 36.4314 0
10.7758 36.7191 0
10.9782 36.5733 0
10.5451 36.9146 0
12.6815 40.008 0
12.631 39.6522 0
9.9679 36.9093 0
12.2584 41.0095 0
12.3969 37.6824 0
13.6477 38.5287 0
13.027 38.427 0
11.5045 36.5918 0
12.6357 38.0392 0
13.5378 38.7757 0
12.0547 37.5956 0
11.8888 37.4458 0
11.5229 36.7711 0
13.3881 38.5209 0
11.4759 36.336 0
11.358 36.4919 0
13.3427 39.0224 0
12.5168 37.8572 0
13.2185 38.4928 0
12.6598 38.2658 0
11.6465 37.0511 0
10.9873 36.804 0
11.1725 36.6471 0
10.8033 36.934 0
12.871 39.1973 0
12.6216 39.3422 0
10.2457 37.0531 0
12.3187 41.4073 0
11.9728 40.771 0
12.3598 39.8426 0
13.5211 38.6025 0
12.335 37.8863 0
11.5439 36.9295 0
12.1972 37.7365 0
12.8679 38.54 0
11.3571 36.7128 0
12.6817 38.4698 0
13.3079 38.699 0
13.3991 38.8734 0
12.4522 38.0147 0
13.0632 38.6184 0
11.6737 37.409 0
11.8772 37.6542 0
11.5769 37.2358 0
11.0012 37.0748 0
13.1168 39.0535 0
11.1959 36.8711 0
12.4813 38.1849 0
12.3571 39.4962 0
12.64 39.0644 0
10.4569 37.185 0
10.0028 37.2037 0
12.3828 40.231 0
11.8921 41.1746 0
12.3394 41.939 0
12.2863 38.1069 0
12.7204 38.6381 0
11.4683 37.0781 0
13.2496 38.8939 0
12.1392 37.9312 0
12.0102 37.7802 0
11.7395 37.566 0
12.4981 38.3877 0
11.5027 37.3963 0
12.8793 38.7301 0
11.3925 36.9078 0
10.5567 37.4487 0
12.8765 38.9476 0
13.2767 39.1769 0
12.3826 39.1845 0
10.8869 37.3675 0
9.89261 37.5299 0
11.2672 37.0839 0
10.2355 37.3496 0
12.058 40.0225 0
12.0681 39.6556 0
11.429 41.3492 0
9.59742 36.7386 0
12.8971 42.2277 0
11.7104 37.7279 0
11.934 37.9563 0
12.3502 38.2942 0
11.3845 37.2636 0
13.0822 38.8238 0
11.8473 37.8125 0
12.6751 38.819 0
11.16 37.3062 0
12.0529 38.1303 0
11.5447 37.5905 0
12.4334 38.9025 0
12.0963 39.3105 0
10.2646 37.6774 0
12.5085 38.6311 0
9.45995 37.5254 0
11.7563 39.8201 0
10.8066 37.6529 0
9.23273 37.1168 0
11.3168 41.8677 0
11.7003 37.944 0
11.8264 38.1454 0
12.3082 38.4792 0
11.0866 37.5665 0
12.1697 38.3121 0
11.3316 37.4793 0
12.2412 38.72 0
12.1581 38.9969 0
11.8287 39.086 0
11.7418 40.1971 0
11.4608 39.607 0
9.65117 37.8328 0
10.5494 37.753 0
9.0183 36.5507 0
9.98266 37.9417 0
11.8116 42.1945 0
9.01029 37.5819 0
12.068 38.5318 0
11.3116 37.7505 0
10.7402 37.944 0
11.965 38.7881 0
11.5855 38.1789 0
10.3866 38.0406 0
11.5161 39.2561 0
11.0244 37.8372 0
11.418 39.9986 0
12.044 40.4005 0
11.4222 40.4097 0
9.30433 37.9211 0
8.53945 37.7896 0
10.0814 38.3214 0
11.2704 42.4351 0
11.9379 38.3357 0
11.5158 38.4278 0
11.4398 37.9838 0
11.7702 38.5682 0
11.2108 37.9859 0
11.5595 38.9892 0
11.1787 39.3774 0
11.1032 39.7546 0
11.5253 40.8541 0
10.99 38.1146 0
10.4078 38.3815 0
9.84862 38.6457 0
11.0041 40.1953 0
8.03442 37.4792 0
11.2839 38.2336 0
11.7152 38.8333 0
11.5414 37.7993 0
11.2811 39.0425 0
10.6463 38.6251 0
10.9852 38.4205 0
9.43924 38.671 0
10.2411 38.6541 0
11.081 40.6734 0
10.7729 39.8621 0
10.9395 39.1279 0
11.4489 38.7361 0
11.2551 38.518 0
11.0416 38.7712 0
10.0418 38.9903 0
10.4328 38.951 0
9.67455 38.9596 0
9.15915 38.3332 0
11.1288 41.0666 0
10.7347 40.9783 0
10.4369 39.7531 0
10.5494 40.1282 0
10.7387 38.9282 0
10.2487 40.4039 0
10.3065 39.3427 0
9.28144 39.1032 0
9.05578 38.7109 0
10.2952 40.8318 0
9.88676 40.64 0
10.637 39.1664 0
10.0753 39.6818 0
9.29431 39.5982 0
10.367 41.2851 0
10.1562 40.0249 0
9.85956 41.1551 0
9.70811 39.911 0
9.90872 40.2695 0
10.0573 41.5717 0
9.19972 40.0547 0
10.0378 42.0573 0
8.84859 39.7443 0
10.4046 41.7008 0
10.7063 42.1164 0
9.42864 42.1779 0
8.37217 39.8344 0
8.06343 39.4284 0
9.12545 41.7401 0
8.31145 38.9738 0
7.84758 39.9251 0
8.84833 42.2324 0
9.32296 41.2848 0
8.89424 41.3778 0
8.79416 39.001 0
7.80038 38.9801 0
8.96447 40.9688 0
8.44713 41.1835 0
7.25354 38.961 0
8.07996 41.6723 0
8.22186 40.3155 0
7.8517 41.1451 0
8.29493 42.2014 0
8.95464 39.3692 0
12.3457 42.5206 0
13.4384 41.8769 0
8.04456 38.0996 0
8.04043 36.898 0
6.95437 39.4849 0
7.2714 39.9919 0
9.44323 40.8207 0
8.92423 38.0128 0
10.301 42.5368 0
8.15326 40.7658 0
6.99482 38.4133 0
14.4684 41.5007 0
11.2727 42.9439 0
9.05206 35.9817 0
8.07185 38.5935 0
12.2733 64.3938 0
9.07589 64.3809 0
1.33047 64.4511 0
5.71492 64.4019 0
2.68517 64.4766 0
0.725572 62.0971 0
0.769163 48.7818 0
0.786748 45.7055 0
0.803555 43.34 0
0.81508 40.1556 0
0.717634 37.9152 0
0.84195 51.1176 0
0.77139 54.3192 0
0.80635 56.6793 0
0.779157 59.8415 0
14.1823 47.9317 0
14.2074 42.1116 0
14.153 45.5077 0
14.2167 53.4738 0
14.2397 62.185 0
14.2182 59.0521 0
14.207 56.8183 0
14.1404 51.1139 0
6.9235 35.7874 0
3.86936 35.6127 0
8.43519 36.6172 0
1.37749 35.4915 0
7.98856 36.3774 0
8.71992 40.1847 0
8.63928 35.5596 0
12.3365 43.143 0
7.76614 42.1607 0
10.9011 43.3828 0
11.6726 43.423 0
13.5246 42.5143 0
10.2405 43.1208 0
6.64348 38.9754 0
6.67285 40.0237 0
7.41526 37.8221 0
9.07775 40.508 0
6.98588 40.546 0
7.27229 41.0953 0
9.15843 42.7489 0
7.98046 42.6108 0
9.81463 64.4387 0
13.0506 64.457 0
0.747344 46.4634 0
0.567167 61.4426 0
0.761758 59.049 0
0.606067 57.4458 0
0.595603 55.9332 0
0.731708 53.5469 0
0.782654 51.9776 0
0.60153 50.3927 0
0.595971 44.0504 0
0.770889 40.9338 0
0.567781 38.5293 0
0.729942 48.0078 0
0.442849 63.176 0
14.2107 44.6499 0
14.2048 50.2456 0
14.3861 51.8439 0
14.521 55.6982 0
14.4062 57.4561 0
14.2525 59.8427 0
14.3255 63.2594 0
14.5271 61.2619 0
14.2521 54.268 0
14.254 48.6835 0
14.3431 46.2406 0
6.11763 35.5949 0
5.84413 63.2463 0
12.293 63.1382 0
1.55306 63.1934 0
2.68993 63.4159 0
1.75857 36.8076 0
3.73991 36.902 0
7.01025 36.6539 0
9.07755 63.1962 0
14.5633 43.1764 0
0.737009 42.4961 0
0.466538 36.8205 0
1.62621 62.33 0
13.294 47.8081 0
1.67352 49.0657 0
13.2518 45.5396 0
1.67582 37.8224 0
1.7557 43.4595 0
1.62151 45.537 0
1.7796 51.0412 0
13.1705 51.2028 0
13.2924 53.1943 0
1.67824 54.6197 0
1.79817 56.6309 0
13.2539 56.769 0
13.3008 58.7596 0
13.3675 62.2232 0
1.69457 39.9415 0
1.69267 60.1454 0
11.5125 64.449 0
8.32708 64.4584 0
5.1064 64.4728 0
7.84642 35.7275 0
4.47718 35.5628 0
6.67553 37.8288 0
9.54596 43.3046 0
7.86458 43.196 0
6.67012 41.0942 0
5.94353 39.0537 0
8.88238 43.3223 0
13.5455 43.1109 0
6.95181 41.6336 0
6.0838 40.0508 0
10.415 43.628 0
2.47399 45.5352 0
12.3751 45.4696 0
6.98421 37.3167 0
7.22335 42.1662 0
11.2585 43.962 0
10.3193 63.332 0
12.2856 62.3702 0
5.89352 62.1853 0
5.65287 36.6762 0
1.63327 60.91 0
1.4846 47.6583 0
1.79068 44.2351 0
1.54812 58.7431 0
1.65762 55.3545 0
1.48081 53.2213 0
1.65188 49.8084 0
1.46904 42.1342 0
1.6263 38.61 0
3.60561 37.6342 0
1.62259 41.3116 0
1.64685 52.3922 0
1.841 58.04 0
2.50066 62.2382 0
5.03122 36.7006 0
13.1539 46.6295 0
13.3125 52.4465 0
13.4794 54.588 0
13.3311 58.0269 0
13.4794 60.1487 0
13.6491 63.3682 0
13.5078 49.0284 0
13.3275 49.8391 0
13.2288 55.3077 0
13.2367 60.8552 0
9.07349 62.1415 0
12.3774 47.8157 0
3.91176 63.3918 0
4.61379 63.3591 0
7.09542 63.3615 0
7.80819 63.3407 0
10.9853 63.3798 0
2.69568 49.0377 0
2.50887 36.6273 0
2.70975 37.905 0
13.4042 44.3634 0
1.58215 46.8172 0
2.64968 43.322 0
12.2355 51.2043 0
2.66156 51.0517 0
12.2154 53.2197 0
2.71744 54.6495 0
2.77511 56.6017 0
12.23 56.7848 0
12.2469 58.7411 0
2.61434 39.9199 0
2.78205 60.1528 0
10.2208 44.1291 0
6.65488 42.1786 0
10.8502 44.4842 0
11.5186 44.5145 0
7.22353 43.238 0
9.15134 43.7522 0
5.97113 37.8564 0
5.85999 39.6183 0
6.94076 42.7082 0
3.47306 39.9781 0
3.53909 51.0728 0
11.5536 47.8348 0
3.4863 48.8722 0
3.52311 43.2785 0
2.44099 44.3852 0
12.2946 43.7073 0
6.0591 41.1057 0
12.5607 44.2964 0
2.39464 46.7183 0
12.5249 46.6592 0
8.37241 43.401 0
10.008 43.6229 0
7.61007 36.6612 0
3.17558 45.539 0
12.2736 49.7914 0
12.1809 52.4786 0
12.261 54.6179 0
12.2422 58.0527 0
12.2431 60.154 0
12.1432 49.0749 0
12.2443 55.2695 0
12.2467 60.8125 0
5.89155 61.143 0
11.2333 62.2289 0
10.4031 62.1673 0
7.80566 62.1611 0
2.83341 47.7243 0
2.75294 58.7282 0
2.73969 55.3362 0
2.85591 53.1761 0
2.85098 49.7798 0
2.77527 42.0459 0
2.7242 38.6279 0
3.87999 38.8345 0
2.62907 41.3248 0
2.68308 52.4359 0
2.7786 58.0842 0
2.75956 60.9518 0
4.0006 62.045 0
4.92253 37.832 0
7.12999 62.173 0
4.70326 62.1646 0
9.01844 61.0535 0
11.3085 51.1592 0
11.2213 53.3729 0
3.75778 54.6149 0
3.76475 56.6185 0
11.1946 56.7916 0
11.2055 58.7226 0
3.84391 59.9929 0
5.43897 40.0202 0
9.12713 44.2908 0
3.73211 45.2113 0
3.71128 45.8882 0
8.0479 43.7531 0
6.91941 43.7018 0
12.033 44.5474 0
9.69154 44.5541 0
10.367 53.3605 0
4.63665 54.492 0
10.5174 51.1832 0
6.06139 42.1964 0
3.55679 53.2572 0
3.51631 49.8725 0
11.467 48.9835 0
3.45986 47.7031 0
3.45077 42.1461 0
6.66628 43.2503 0
3.4717 52.2867 0
3.44889 41.1628 0
11.4613 49.9265 0
5.40057 37.9702 0
4.54089 38.9019 0
4.25172 51.0676 0
11.2187 54.6294 0
11.197 58.0508 0
11.0767 60.1804 0
11.0492 52.2629 0
11.2038 55.2733 0
5.67078 59.9782 0
11.2362 60.8387 0
10.3863 60.8736 0
7.77775 61.0602 0
3.80315 58.71 0
4.04956 61.3306 0
3.91632 55.354 0
3.79893 58.0802 0
7.11249 61.0735 0
4.72972 61.2098 0
9.01764 59.8075 0
4.7369 56.6302 0
10.1643 56.7841 0
10.1771 58.7401 0
4.81706 59.9649 0
4.81798 40.2877 0
10.2716 44.8131 0
6.83135 44.3171 0
7.96773 44.3853 0
3.65102 46.5254 0
4.79689 50.7105 0
4.80745 51.3719 0
5.65282 38.4409 0
5.75356 41.6572 0
6.09985 43.3002 0
11.2349 45.0137 0
5.76768 40.5704 0
3.79384 44.4867 0
5.66605 56.6548 0
4.56899 55.4747 0
10.4928 52.2564 0
8.59463 44.6306 0
4.41665 45.5651 0
9.69817 53.3272 0
5.29739 54.5224 0
10.0323 54.5814 0
10.1519 58.0581 0
10.3801 60.2063 0
10.1524 55.3058 0
5.92122 58.9283 0
7.72635 59.9887 0
4.89037 53.3045 0
4.84144 58.0527 0
4.88156 58.7149 0
7.08521 59.9756 0
9.0501 58.8603 0
11.3427 46.7178 0
9.13269 56.7264 0
4.83348 44.9874 0
11.5259 45.5637 0
10.3654 45.4786 0
9.19203 53.0071 0
5.94285 54.2162 0
9.16581 53.6801 0
10.943 45.4564 0
6.2487 44.3452 0
4.80835 40.8495 0
9.15096 44.9993 0
4.77082 50.0606 0
8.12991 56.6232 0
9.27616 54.3674 0
5.70719 53.3895 0
9.31519 55.4292 0
5.23974 38.97 0
8.14883 45.0492 0
7.37421 44.5107 0
5.44758 51.0084 0
5.38337 41.1164 0
6.45256 56.7186 0
5.89694 55.4167 0
5.79075 57.9052 0
7.91471 58.7035 0
4.89472 52.044 0
7.06113 58.8365 0
9.0625 58.0631 0
10.2603 48.977 0
10.2273 50.0613 0
8.33485 45.5901 0
5.18453 44.3847 0
9.39641 45.5878 0
7.02875 44.9805 0
6.97305 56.353 0
5.78812 43.9386 0
4.50427 44.4552 0
5.73336 54.831 0
6.55884 57.8029 0
6.76928 55.6074 0
5.643 52.0735 0
8.47654 53.3297 0
12.3485 44.8482 0
7.51093 56.5243 0
4.81886 39.5948 0
7.881 57.9459 0
8.10376 55.4276 0
9.28859 52.383 0
6.72848 45.5471 0
4.70563 43.9013 0
6.80328 54.2969 0
8.86318 45.5938 0
9.85729 45.6638 0
4.21474 40.0828 0
7.82126 45.5376 0
5.79774 44.6571 0
3.76561 43.8728 0
8.04281 54.4663 0
5.8053 45.3043 0
10.1382 45.9951 0
4.85406 43.2493 0
8.04023 45.9885 0
9.12891 46.0055 0
7.28768 45.5366 0
3.78946 40.5919 0
7.08977 53.1764 0
9.21619 46.5516 0
7.94129 46.5312 0
10.0058 46.5756 0
7.01175 46.0883 0
5.19542 45.5863 0
6.23771 45.5886 0
5.50856 43.3013 0
6.73965 46.6352 0
5.81261 46.0141 0
7.32158 46.6189 0
4.81711 46.0482 0
5.78827 42.7598 0
5.53244 46.6697 0
4.87188 46.6025 0
7.01173 47.1866 0
5.38876 42.2255 0
7.28741 47.7704 0
4.79237 41.9515 0
4.78225 42.5583 0
6.56675 47.7497 0
6.15388 46.6441 0
5.87948 47.3284 0
7.97282 47.8196 0
4.21241 43.5419 0
5.36161 47.7947 0
3.67849 42.6413 0
8.08233 48.5304 0
4.15604 42.2184 0
4.7668 47.7964 0
5.88017 48.1007 0
5.94787 48.8177 0
6.97486 48.3382 0
3.80806 41.665 0
6.65224 48.9028 0
7.39042 48.9028 0
4.199 41.1323 0
4.79649 41.3973 0
8.03954 49.2369 0
8.79921 48.8958 0
6.93243 49.4833 0
7.90504 49.9205 0
7.22429 50.039 0
6.54798 50.0481 0
5.9352 49.9895 0
6.84248 50.6914 0
6.93941 52.0271 0

CELLS 13208 52832
3 969 27 28 
3 1023 975 1 
3 1025 1023 35 
3 1400 1312 1360 
3 1585 614 1553 
3 1842 641 1806 
3 2072 655 1999 
3 2250 2208 2230 
3 2279 2269 2273 
3 2283 697 2275 
3 2314 2312 2313 
3 2309 2197 725 
3 2009 739 738 
3 2020 753 752 
3 1900 767 766 
3 1898 111 1822 
3 1857 1822 112 
3 1857 112 113 
3 1857 767 1822 
3 1963 1908 753 
3 2021 739 740 
3 2163 725 726 
3 2316 2206 698 
3 2272 697 698 
3 2270 2260 2266 
3 2118 2087 656 
3 2068 2001 655 
3 1847 1799 1764 
3 1725 1711 1686 
3 1520 636 1483 
3 1435 1427 1396 
3 992 18 960 
3 963 26 962 
3 1401 1091 38 
3 1802 1795 613 
3 1804 640 1754 
3 2000 654 1935 
3 2231 2166 667 
3 2278 2259 2257 
3 2284 696 2281 
3 2293 710 2286 
3 2311 2307 724 
3 2126 2094 738 
3 2084 752 751 
3 1976 766 765 
3 1941 780 779 
3 110 793 109 
3 1898 110 111 
3 2 74 73 
3 73 74 937 
3 937 74 75 
3 1808 76 77 
3 1809 77 78 
3 940 78 79 
3 1810 80 81 
3 1920 81 82 
3 944 83 84 
3 1811 84 85 
3 1854 85 86 
3 1812 87 88 
3 1813 88 89 
3 948 89 90 
3 949 91 92 
3 93 949 92 
3 1869 93 94 
3 1814 94 95 
3 1814 936 94 
3 1942 922 923 
3 2042 1989 908 
3 2103 894 895 
3 2157 2156 880 
3 2139 866 867 
3 2211 852 853 
3 2225 2234 838 
3 2227 824 825 
3 2142 810 811 
3 2052 796 797 
3 2022 782 783 
3 1901 768 769 
3 1896 53 1834 
3 1872 1834 54 
3 1872 54 55 
3 1872 768 1834 
3 1909 782 781 
3 2023 796 795 
3 2110 810 2109 
3 2073 824 823 
3 2184 838 837 
3 2183 852 2225 
3 2226 866 865 
3 2160 880 879 
3 2113 894 893 
3 2058 2051 908 
3 1971 922 921 
3 1916 1883 936 
3 1916 936 1814 
3 1916 923 922 
3 52 742 51 
3 1896 52 53 
3 1977 755 756 
3 2053 756 757 
3 2086 744 2053 
3 2200 758 759 
3 2210 746 2200 
3 2258 2247 2241 
3 2306 2303 2267 
3 2213 762 763 
3 2192 763 2127 
3 2084 764 765 
3 2192 751 2129 
3 2129 751 2094 
3 2168 750 2129 
3 2302 2298 735 
3 2299 2261 735 
3 2300 2214 734 
3 2193 733 2130 
3 2079 732 731 
3 2024 731 730 
3 1943 730 729 
3 1943 1881 742 
3 1977 1943 742 
3 1977 742 1896 
3 1825 50 729 
3 1825 49 50 
3 1880 48 49 
3 1826 46 47 
3 1870 45 46 
3 1897 43 44 
3 1827 42 43 
3 1925 41 1871 
3 1833 39 40 
3 1401 637 1210 
3 1897 664 1827 
3 1870 46 690 
3 1826 690 46 
3 1880 49 1825 
3 55 56 781 
3 1828 781 56 
3 1944 795 794 
3 2039 809 2023 
3 2055 823 822 
3 2153 837 836 
3 2164 851 850 
3 2220 865 864 
3 2199 879 878 
3 2098 893 892 
3 2102 907 906 
3 1975 921 920 
3 1884 935 934 
3 1807 90 91 
3 1883 948 949 
3 1828 57 794 
3 1877 794 57 
3 1965 808 1944 
3 1986 822 821 
3 2104 836 835 
3 2115 850 849 
3 2194 864 863 
3 2220 2198 878 
3 2162 892 891 
3 2044 906 905 
3 2048 920 919 
3 1892 934 933 
3 1813 948 947 
3 1884 947 948 
3 58 59 807 
3 1873 807 59 
3 1911 821 820 
3 2025 835 834 
3 2057 849 848 
3 2154 863 862 
3 2194 2159 877 
3 2161 891 890 
3 2101 905 904 
3 1970 919 2044 
3 1991 933 932 
3 1812 947 946 
3 1892 946 947 
3 1873 60 1831 
3 1873 1831 820 
3 1945 834 833 
3 2025 1988 848 
3 2105 862 861 
3 2158 876 2154 
3 2097 890 889 
3 2100 904 903 
3 2047 918 917 
3 1885 932 931 
3 1854 86 87 
3 1991 946 933 
3 61 62 833 
3 1874 833 62 
3 1945 1913 847 
3 2026 861 860 
3 2112 875 2105 
3 2116 889 888 
3 2043 903 902 
3 2046 917 916 
3 1992 931 930 
3 1811 945 944 
3 1885 944 945 
3 1874 63 846 
3 1832 846 63 
3 1946 860 859 
3 2041 874 2026 
3 2059 888 887 
3 2099 902 901 
3 1969 916 915 
3 1993 930 929 
3 83 944 943 
3 1992 944 931 
3 1875 64 65 
3 1875 859 64 
3 1967 873 1946 
3 1990 887 886 
3 2059 2050 901 
3 2045 915 914 
3 1886 929 1969 
3 1920 82 943 
3 1993 942 943 
3 65 66 872 
3 1878 66 67 
3 1915 886 885 
3 2027 900 899 
3 1974 914 913 
3 1994 928 927 
3 1810 942 941 
3 1886 941 942 
3 1829 67 68 
3 1878 1829 885 
3 1947 899 898 
3 2027 1968 913 
3 1893 927 926 
3 1855 79 80 
3 1994 941 928 
3 68 69 898 
3 1879 69 70 
3 1947 1917 912 
3 1968 1887 926 
3 1809 940 939 
3 1893 939 940 
3 1830 70 71 
3 1830 911 70 
3 1948 925 924 
3 1808 939 938 
3 1887 938 939 
3 1876 71 72 
3 1876 72 937 
3 1856 75 76 
3 1948 938 925 
3 91 3 92 
3 1858 95 96 
3 1858 923 1814 
3 1942 1914 909 
3 2028 895 896 
3 2111 881 2103 
3 2114 867 868 
3 2195 853 854 
3 2240 839 840 
3 2235 825 826 
3 2223 811 812 
3 2075 797 798 
3 2106 783 784 
3 1978 769 770 
3 1901 755 1834 
3 96 97 910 
3 1824 97 98 
3 1949 896 897 
3 2040 882 2028 
3 2056 868 869 
3 2140 854 855 
3 2221 841 2147 
3 2237 826 827 
3 2236 812 813 
3 2174 2171 2148 
3 2143 784 785 
3 2005 770 771 
3 1978 756 1901 
3 1859 98 99 
3 1859 897 1824 
3 1966 883 1949 
3 1987 869 870 
3 2107 855 856 
3 2074 841 842 
3 2224 827 828 
3 2203 813 814 
3 2218 799 800 
3 2222 785 2171 
3 2175 771 772 
3 2005 758 757 
3 99 100 884 
3 1868 100 101 
3 1912 870 871 
3 2029 856 857 
3 2054 842 843 
3 2141 828 829 
3 2173 815 2149 
3 2242 800 801 
3 2238 786 787 
3 2209 772 773 
3 2175 758 2090 
3 1815 101 102 
3 1868 1815 871 
3 1950 857 858 
3 2029 1985 843 
3 2108 829 830 
3 2076 815 816 
3 2185 801 2172 
3 2242 2255 787 
3 2252 773 774 
3 2209 760 759 
3 1860 102 103 
3 1860 858 1815 
3 1950 1910 844 
3 2030 830 831 
3 2060 816 817 
3 2155 802 803 
3 2212 788 789 
3 2243 774 775 
3 2252 760 773 
3 103 104 845 
3 1823 845 104 
3 1951 831 832 
3 1995 817 818 
3 2078 803 804 
3 2196 789 790 
3 2167 775 776 
3 2263 2243 762 
3 1861 105 106 
3 1861 832 105 
3 1951 1918 818 
3 2031 804 805 
3 2085 790 791 
3 2128 777 2091 
3 2167 762 775 
3 106 107 819 
3 1816 819 107 
3 1952 805 806 
3 2038 791 2031 
3 2008 777 778 
3 2127 2091 764 
3 1867 1816 108 
3 1867 806 1816 
3 1952 1941 792 
3 1976 778 779 
3 2091 2008 764 
3 113 114 754 
3 1817 754 114 
3 1953 740 741 
3 2077 726 727 
3 2182 712 713 
3 2280 699 2277 
3 2256 2249 671 
3 2244 2176 670 
3 2004 2003 656 
3 1846 643 1792 
3 1759 1750 1724 
3 1685 1671 1653 
3 1601 1578 600 
3 1074 1064 1008 
3 1055 17 992 
3 1866 1817 115 
3 1866 741 1817 
3 2032 727 728 
3 2089 713 714 
3 2131 700 2096 
3 2268 2151 2264 
3 2249 2228 671 
3 2120 2119 2082 
3 1845 1792 643 
3 1782 1781 633 
3 1755 1718 1743 
3 1697 1696 1671 
3 1436 1411 1371 
3 1080 1001 1019 
3 116 117 728 
3 2117 728 117 
3 2037 714 2032 
3 2015 700 701 
3 2065 687 2019 
3 2262 673 2178 
3 2239 2165 658 
3 1996 1936 618 
3 1791 1784 617 
3 1776 632 1772 
3 1757 1753 1704 
3 1676 1624 1661 
3 1022 181 995 
3 1071 995 1016 
3 2117 118 715 
3 715 118 119 
3 1961 701 702 
3 1932 687 688 
3 2137 673 2062 
3 2152 659 660 
3 2135 2066 645 
3 1849 1793 631 
3 1779 1772 632 
3 1770 1760 1758 
3 1669 1650 1649 
3 1523 1490 1506 
3 1022 180 181 
3 715 119 702 
3 1862 702 120 
3 1905 688 689 
3 2013 674 675 
3 2063 661 2018 
3 2202 2177 646 
3 1997 1938 619 
3 1793 1785 631 
3 1775 1767 604 
3 1773 1736 580 
3 1550 1480 1517 
3 1029 985 984 
3 982 159 160 
3 1818 1862 121 
3 1818 689 1862 
3 1954 675 676 
3 1931 661 662 
3 2138 647 2064 
3 2169 2121 620 
3 2071 1934 630 
3 1924 1797 605 
3 1761 1752 581 
3 1723 597 1710 
3 1088 1026 1024 
3 991 149 150 
3 1818 122 676 
3 1863 676 123 
3 1919 662 663 
3 2012 648 649 
3 2083 621 622 
3 2123 628 2092 
3 2061 2010 606 
3 1844 1805 582 
3 1794 1747 596 
3 1800 145 1092 
3 1028 147 1026 
3 1863 124 1819 
3 1863 1819 663 
3 1955 649 650 
3 2035 622 623 
3 2006 628 627 
3 2132 2088 607 
3 2070 1958 583 
3 1891 1843 595 
3 1921 1852 957 
3 1852 145 1800 
3 1895 1819 125 
3 1895 125 126 
3 1959 623 1955 
3 1979 627 626 
3 2049 608 609 
3 2034 584 585 
3 1890 594 593 
3 1891 1835 956 
3 1921 143 144 
3 1895 650 1819 
3 1864 624 127 
3 1903 626 625 
3 2033 609 610 
3 1973 585 586 
3 1972 593 592 
3 1836 955 954 
3 1835 142 143 
3 1864 128 1820 
3 1864 1820 625 
3 1956 610 611 
3 2033 1957 586 
3 1894 592 591 
3 1882 140 141 
3 1836 141 142 
3 1820 129 611 
3 130 611 129 
3 1956 1902 587 
3 1957 1889 591 
3 1837 953 952 
3 140 953 139 
3 1865 611 130 
3 1865 1821 588 
3 1902 1888 590 
3 1838 952 951 
3 1837 138 139 
3 1821 132 589 
3 1899 132 133 
3 1840 136 951 
3 1838 137 138 
3 1899 589 132 
3 950 134 135 
3 1840 135 136 
3 134 4 135 
3 1560 1545 1539 
3 1643 1634 577 
3 1739 1733 1716 
3 1757 1704 1719 
3 1760 581 1746 
3 1767 1766 1765 
3 1841 582 1797 
3 2070 2010 2061 
3 2088 585 584 
3 2049 586 585 
3 2033 587 1957 
3 1956 588 1902 
3 1902 589 1888 
3 1957 590 1889 
3 1973 591 592 
3 2034 592 593 
3 1958 593 594 
3 1844 595 1805 
3 1801 1752 1761 
3 1722 1710 1701 
3 1738 1650 1684 
3 1619 1612 599 
3 1454 1377 1411 
3 1313 1260 1261 
3 1359 1313 1261 
3 1631 1552 1483 
3 1668 1653 1609 
3 1743 1718 1731 
3 1769 604 1768 
3 1775 604 1772 
3 1848 605 1785 
3 2061 1934 607 
3 2132 2123 2092 
3 2006 609 608 
3 1979 610 609 
3 1903 611 610 
3 1360 1312 637 
3 1519 1483 1444 
3 1734 1655 1519 
3 1737 1725 614 
3 1798 1796 615 
3 1764 616 1759 
3 1790 617 1788 
3 1845 617 1792 
3 1996 619 1936 
3 2177 1997 2066 
3 2202 621 620 
3 2138 622 621 
3 2012 623 622 
3 1959 1955 624 
3 1959 625 626 
3 2035 626 627 
3 2083 627 628 
3 2169 629 2121 
3 2071 1938 1997 
3 1849 630 1793 
3 1783 1780 631 
3 1787 1781 1782 
3 1742 1731 634 
3 1686 1672 1655 
3 1850 1795 1802 
3 1923 639 1850 
3 2069 1927 1933 
3 2189 2180 667 
3 2248 2216 2246 
3 2291 2245 707 
3 2288 709 2284 
3 2298 722 2296 
3 2307 2305 737 
3 1754 640 1748 
3 2072 1999 654 
3 1999 1926 1922 
3 1929 643 1846 
3 2004 644 1939 
3 2119 2067 644 
3 2201 646 2135 
3 2152 647 646 
3 2138 2064 648 
3 1931 649 648 
3 1919 650 649 
3 2002 1851 1923 
3 2002 1904 652 
3 2170 2014 679 
3 2124 679 2095 
3 2232 693 2219 
3 2292 2251 721 
3 2295 722 2294 
3 2298 2296 735 
3 1927 1853 1804 
3 1935 1842 1853 
3 2208 2122 2133 
3 2122 656 2068 
3 2118 657 2087 
3 2207 2120 657 
3 2253 2239 2228 
3 2262 660 659 
3 2137 661 2063 
3 2013 662 661 
3 1954 663 662 
3 1904 664 665 
3 1960 665 664 
3 2016 679 678 
3 2179 2011 693 
3 2233 2181 707 
3 2191 721 720 
3 2299 2296 2297 
3 2136 1933 665 
3 2189 2000 666 
3 2166 2072 2134 
3 2229 2215 669 
3 2266 2215 2229 
3 2260 671 2244 
3 2256 672 2249 
3 2151 673 672 
3 2137 2062 674 
3 1932 675 674 
3 1905 676 675 
3 1960 664 1897 
3 1980 678 1960 
3 1981 692 691 
3 2081 706 705 
3 2125 719 2093 
3 2297 2191 734 
3 2014 678 679 
3 2180 2170 679 
3 2248 2205 680 
3 2230 2208 668 
3 2274 2270 683 
3 2275 684 2270 
3 2271 685 2256 
3 2268 686 2151 
3 2131 2096 687 
3 2015 688 687 
3 1961 689 688 
3 1980 690 691 
3 1906 691 690 
3 2036 705 704 
3 2007 719 718 
3 2130 2125 2093 
3 2016 691 692 
3 2179 2124 2095 
3 2246 693 2232 
3 2282 2257 694 
3 2273 2269 682 
3 2290 2286 710 
3 2290 698 697 
3 2280 2206 699 
3 2182 700 2131 
3 2089 701 700 
3 2037 702 701 
3 1906 703 704 
3 1962 704 703 
3 1982 718 717 
3 2093 2007 732 
3 1981 704 705 
3 2011 705 706 
3 2233 2232 2219 
3 2291 2285 2245 
3 2287 2285 708 
3 2293 2286 2289 
3 2313 2186 711 
3 2313 2309 2186 
3 2163 713 712 
3 2077 714 713 
3 2037 2032 715 
3 1962 703 716 
3 1962 1907 717 
3 1982 730 731 
3 2036 717 718 
3 2081 718 719 
3 2181 719 2125 
3 2251 720 721 
3 2295 2294 721 
3 2310 2293 722 
3 2311 723 2308 
3 2080 738 739 
3 2080 725 738 
3 2021 727 726 
3 1953 728 727 
3 1907 729 730 
3 2197 737 2126 
3 1983 752 753 
3 1983 740 739 
3 1908 741 740 
3 2086 2053 757 
3 2053 2024 743 
3 2086 745 744 
3 2079 744 745 
3 2210 2200 759 
3 2193 745 746 
3 2210 747 746 
3 2214 746 747 
3 2247 747 2241 
3 2261 747 2247 
3 2306 2267 2263 
3 2303 2301 748 
3 2213 763 2192 
3 2168 749 750 
3 2009 751 752 
3 1963 766 767 
3 1963 753 766 
3 2020 765 766 
3 1964 781 782 
3 1964 768 781 
3 2022 770 769 
3 2106 771 770 
3 2143 772 771 
3 2222 773 772 
3 2238 774 773 
3 2255 775 774 
3 2212 776 775 
3 2196 777 2128 
3 2085 778 777 
3 1900 779 780 
3 2038 779 778 
3 1984 795 796 
3 1984 782 1909 
3 2052 784 783 
3 2075 785 784 
3 2171 785 2148 
3 2218 787 786 
3 2242 788 2255 
3 2185 789 788 
3 2155 790 789 
3 2078 791 790 
3 2038 2031 792 
3 1952 793 1941 
3 1909 794 795 
3 2110 2109 809 
3 2109 797 796 
3 2142 798 797 
3 2223 799 2174 
3 2236 800 799 
3 2203 801 800 
3 2172 2149 802 
3 2076 803 802 
3 2060 804 803 
3 1995 805 804 
3 1918 806 805 
3 1965 1944 807 
3 2039 2023 808 
3 2144 823 824 
3 2144 811 810 
3 2227 812 811 
3 2235 813 812 
3 2237 814 813 
3 2224 815 2173 
3 2141 816 815 
3 2108 817 816 
3 2030 818 817 
3 1951 819 1918 
3 1965 820 821 
3 2039 821 822 
3 2110 822 823 
3 2204 837 838 
3 2204 824 2146 
3 2234 826 825 
3 2240 827 826 
3 2221 828 827 
3 2074 829 828 
3 2054 830 829 
3 1985 831 830 
3 1910 832 831 
3 1911 833 834 
3 1986 834 835 
3 2055 835 836 
3 2073 836 837 
3 2183 2225 851 
3 2225 838 851 
3 2211 840 839 
3 2221 2195 841 
3 2140 842 841 
3 2107 843 842 
3 2029 844 1985 
3 1950 845 1910 
3 1945 846 1913 
3 2025 847 1988 
3 2104 848 849 
3 2153 849 850 
3 2184 850 851 
3 2190 865 866 
3 2217 2190 852 
3 2139 854 853 
3 2114 855 854 
3 2056 856 855 
3 1987 857 856 
3 1912 858 857 
3 1913 859 860 
3 1988 860 861 
3 2057 861 862 
3 2115 862 863 
3 2164 863 864 
3 2183 864 865 
3 2187 879 880 
3 2187 866 879 
3 2156 868 867 
3 2111 869 868 
3 2040 870 869 
3 1966 871 870 
3 1967 1946 872 
3 2041 2026 873 
3 2112 2105 874 
3 2158 2154 875 
3 2194 876 2159 
3 2220 877 2198 
3 2226 878 879 
3 2157 893 894 
3 2157 880 893 
3 2111 2103 882 
3 2040 2028 883 
3 1966 1949 884 
3 1967 885 886 
3 2041 886 887 
3 2112 887 888 
3 2158 888 889 
3 2159 889 890 
3 2198 890 891 
3 2199 891 892 
3 2160 892 893 
3 2058 907 2051 
3 2058 895 894 
3 1989 896 895 
3 1914 897 896 
3 1915 898 899 
3 1990 899 900 
3 2059 900 2050 
3 2116 901 902 
3 2097 902 903 
3 2161 903 904 
3 2162 904 905 
3 2098 905 906 
3 2113 906 907 
3 2042 921 922 
3 2042 908 921 
3 1942 910 1914 
3 1947 911 1917 
3 2027 912 1968 
3 2050 913 914 
3 2099 914 915 
3 2043 915 916 
3 2100 916 917 
3 2101 917 918 
3 1970 2044 918 
3 2102 919 920 
3 2051 920 921 
3 1917 924 925 
3 1968 925 1887 
3 1974 926 927 
3 2045 927 928 
3 1886 1969 928 
3 2046 929 930 
3 2047 930 931 
3 1970 931 932 
3 2048 932 933 
3 1975 933 934 
3 1971 934 935 
3 1888 950 951 
3 1889 951 952 
3 1894 952 953 
3 1972 953 954 
3 1890 954 955 
3 1891 956 1843 
3 1928 1747 1843 
3 1735 1710 596 
3 1441 1357 1398 
3 1512 1475 1449 
3 1925 1833 40 
3 1871 651 638 
3 1897 1827 43 
3 1019 194 195 
3 1203 1063 203 
3 960 18 19 
3 961 960 19 
3 993 21 965 
3 965 21 22 
3 966 965 22 
3 967 966 23 
3 968 25 963 
3 969 962 27 
3 970 969 28 
3 971 970 29 
3 1047 971 972 
3 972 971 30 
3 973 972 31 
3 974 973 32 
3 975 34 1 
3 1089 1087 1025 
3 1027 1025 36 
3 1839 1401 38 
3 1871 42 1827 
3 44 45 677 
3 47 48 703 
3 1881 50 51 
3 1834 53 54 
3 1877 57 58 
3 1831 60 61 
3 1832 63 64 
3 1878 67 1829 
3 1879 70 911 
3 72 73 937 
3 1807 91 949 
3 1854 87 1812 
3 82 83 943 
3 1855 80 1810 
3 1856 76 1808 
3 133 134 950 
3 1865 131 1821 
3 126 127 624 
3 122 123 676 
3 119 120 702 
3 1866 115 116 
3 1822 111 112 
3 1867 108 109 
3 1823 104 105 
3 1868 101 1815 
3 1859 1824 98 
3 1869 94 936 
3 1024 5 991 
3 1026 148 1024 
3 1092 145 146 
3 1882 141 1836 
3 136 137 951 
3 167 6 168 
3 1057 167 168 
3 1172 169 170 
3 977 165 976 
3 978 164 977 
3 979 163 978 
3 980 162 979 
3 981 161 980 
3 1042 980 1036 
3 983 158 964 
3 984 157 983 
3 985 156 984 
3 986 155 985 
3 987 154 986 
3 988 153 987 
3 989 152 988 
3 990 151 989 
3 1040 989 1039 
3 205 0 16 
3 1055 16 17 
3 1093 960 961 
3 1203 203 204 
3 997 200 201 
3 1018 200 997 
3 1005 198 199 
3 1017 198 1005 
3 999 196 197 
3 1006 196 999 
3 1006 195 196 
3 1008 193 1001 
3 1009 192 1008 
3 1058 191 1009 
3 1058 190 191 
3 996 188 189 
3 1004 188 996 
3 1012 187 1004 
3 1021 186 1012 
3 1021 185 186 
3 1056 184 185 
3 1016 183 1015 
3 995 181 182 
3 171 1086 170 
3 1057 168 169 
3 994 179 180 
3 1002 179 994 
3 1014 178 1002 
3 1007 176 177 
3 1020 176 1007 
3 1020 175 176 
3 1000 173 174 
3 1003 173 1000 
3 1003 172 173 
3 1023 1 35 
3 1054 1024 991 
3 991 5 149 
3 961 19 20 
3 993 20 21 
3 1067 1013 1063 
3 962 26 27 
3 1046 967 968 
3 963 25 26 
3 1032 983 964 
3 964 158 159 
3 966 22 23 
3 1041 993 965 
3 967 23 24 
3 1045 966 1031 
3 968 967 24 
3 1094 1046 1033 
3 968 24 25 
3 1033 968 963 
3 970 28 29 
3 971 29 30 
3 1095 970 1030 
3 972 30 31 
3 1109 1047 1034 
3 973 31 32 
3 1047 972 1034 
3 974 32 33 
3 1043 973 974 
3 975 974 33 
3 975 33 34 
3 1053 1035 975 
3 976 166 1057 
3 1057 166 167 
3 1113 1166 977 
3 976 165 166 
3 1104 1048 977 
3 977 164 165 
3 977 1048 978 
3 978 163 164 
3 1036 980 979 
3 979 162 163 
3 1037 982 981 
3 980 161 162 
3 982 160 981 
3 981 160 161 
3 1049 982 1037 
3 982 964 159 
3 1162 1050 1032 
3 983 157 158 
3 1051 1038 986 
3 984 156 157 
3 1051 985 1029 
3 985 155 156 
3 1038 987 986 
3 986 154 155 
3 1052 987 1038 
3 987 153 154 
3 1039 989 988 
3 988 152 153 
3 1054 991 1040 
3 989 151 152 
3 1040 991 990 
3 990 150 151 
3 991 150 990 
3 1204 960 1093 
3 992 17 18 
3 1055 205 16 
3 1093 993 1041 
3 993 961 20 
3 1069 994 1022 
3 1065 1002 994 
3 1016 182 183 
3 1082 995 1071 
3 1010 189 190 
3 1077 996 1060 
3 1013 201 202 
3 1018 1005 199 
3 998 171 172 
3 1017 197 198 
3 1019 195 1006 
3 1011 174 175 
3 1078 1000 1073 
3 1074 1008 1001 
3 1001 193 194 
3 1014 1007 177 
3 1002 178 179 
3 1078 1003 1000 
3 1003 998 172 
3 1066 1012 1004 
3 1004 187 188 
3 1018 199 200 
3 1070 1005 1062 
3 1072 999 1017 
3 1061 1019 1006 
3 1014 177 178 
3 1020 1011 175 
3 1064 1009 1008 
3 1008 192 193 
3 1058 1010 190 
3 1009 191 192 
3 1204 1093 1160 
3 1055 1203 204 
3 1203 992 1112 
3 1114 1010 1058 
3 1010 996 189 
3 1076 1011 1020 
3 1011 1000 174 
3 1056 185 1021 
3 1012 186 187 
3 203 1063 202 
3 1013 997 201 
3 1068 1002 1065 
3 1081 1014 1068 
3 1015 183 184 
3 1075 1071 1016 
3 1075 1016 1015 
3 1016 995 182 
3 1072 1017 1070 
3 1017 999 197 
3 1067 997 1013 
3 1084 1018 997 
3 1080 1019 1061 
3 1019 1001 194 
3 1081 1007 1014 
3 1076 1073 1011 
3 1083 1012 1066 
3 1116 1021 1083 
3 1069 1065 994 
3 1022 994 180 
3 170 1086 1172 
3 1086 998 1059 
3 1025 35 36 
3 1087 1053 1023 
3 1209 1148 1090 
3 1024 148 5 
3 1027 36 37 
3 1089 1025 1027 
3 1090 1026 1088 
3 1026 147 148 
3 1091 1027 37 
3 1260 1208 1147 
3 1148 1092 1028 
3 1028 146 147 
3 1050 984 983 
3 1170 1169 1107 
3 1030 970 971 
3 1093 961 993 
3 1099 1045 1031 
3 1031 966 967 
3 1049 964 982 
3 1044 963 962 
3 1097 1046 1094 
3 1098 1044 1095 
3 1095 962 969 
3 1108 1034 1043 
3 1034 972 973 
3 1108 1168 1109 
3 1035 974 975 
3 1113 977 976 
3 1048 1036 979 
3 1048 979 978 
3 1042 1037 981 
3 1042 981 980 
3 1101 1100 1049 
3 1051 986 985 
3 1052 1039 988 
3 1052 988 987 
3 1152 1150 1040 
3 1045 1041 965 
3 1093 1041 1096 
3 1103 1102 1042 
3 1102 1101 1037 
3 1040 990 989 
3 1040 1039 1105 
3 1043 1034 973 
3 1043 974 1035 
3 1044 1033 963 
3 1044 962 1095 
3 1045 965 966 
3 1153 1099 1097 
3 1046 1031 967 
3 1046 968 1033 
3 1095 969 970 
3 1111 1047 1109 
3 1047 1030 971 
3 1172 976 1057 
3 1048 1103 1036 
3 1100 1162 1032 
3 1049 1032 964 
3 1050 1029 984 
3 1050 983 1032 
3 1107 1106 1038 
3 1106 1105 1052 
3 1106 1052 1038 
3 1112 992 960 
3 1053 975 1023 
3 1143 1053 1087 
3 1144 1054 1040 
3 1055 204 205 
3 1203 1055 992 
3 1116 1056 1021 
3 1056 1015 184 
3 1057 169 1172 
3 1117 1009 1064 
3 1117 1058 1009 
3 1059 998 1003 
3 1077 1066 1004 
3 1060 996 1010 
3 1085 1006 999 
3 1181 1129 1180 
3 1121 1070 1062 
3 1062 1005 1018 
3 1204 1179 1112 
3 1063 1013 202 
3 1198 1135 1196 
3 1117 1114 1058 
3 1185 1131 1177 
3 1131 1130 1068 
3 1077 1004 996 
3 1138 1066 1134 
3 1120 1067 1118 
3 1084 997 1067 
3 1079 1076 1020 
3 1068 1014 1002 
3 1082 1022 995 
3 1137 1131 1065 
3 1122 1070 1121 
3 1070 1017 1005 
3 1141 1071 1075 
3 1142 1071 1141 
3 1129 1072 1122 
3 1085 999 1072 
3 1125 1124 1078 
3 1073 1000 1011 
3 1080 1074 1001 
3 1139 1074 1135 
3 1115 1015 1056 
3 1176 1075 1115 
3 1079 1020 1007 
3 1127 1076 1126 
3 1136 1134 1077 
3 1136 1077 1060 
3 1086 171 998 
3 1124 1119 1059 
3 1078 1059 1003 
3 1081 1079 1007 
3 1128 1079 1081 
3 1133 1061 1132 
3 1135 1080 1133 
3 1130 1128 1081 
3 1128 1126 1079 
3 1140 1137 1069 
3 1082 1069 1022 
3 1116 1115 1056 
3 1083 1021 1012 
3 1123 1084 1120 
3 1084 1062 1018 
3 1132 1085 1129 
3 1085 1061 1006 
3 1164 1163 1103 
3 1172 1113 976 
3 1143 1108 1053 
3 1087 1023 1025 
3 1088 1024 1054 
3 1146 1088 1144 
3 1147 1089 1027 
3 1145 1143 1087 
3 1357 1148 1209 
3 1090 1028 1026 
3 1210 1147 1091 
3 1091 37 38 
3 1092 146 1028 
3 1800 1092 958 
3 1150 1144 1040 
3 1108 1035 1053 
3 1274 1219 1270 
3 1157 1098 1095 
3 1098 1094 1033 
3 1155 1099 1153 
3 1100 1032 1049 
3 1029 1151 1110 
3 1159 1096 1155 
3 1096 1041 1045 
3 1097 1031 1046 
3 1217 1156 1154 
3 1098 1033 1044 
3 1157 1154 1098 
3 1099 1096 1045 
3 1099 1031 1097 
3 1160 1093 1159 
3 1101 1049 1037 
3 1102 1037 1042 
3 1161 1101 1158 
3 1103 1042 1036 
3 1163 1102 1103 
3 1104 1103 1048 
3 1163 1158 1102 
3 960 1204 1112 
3 977 1166 1104 
3 1105 1039 1052 
3 1107 1038 1051 
3 1169 1106 1107 
3 1108 1109 1034 
3 1211 1095 1149 
3 1110 1051 1029 
3 1108 1043 1035 
3 1205 1108 1143 
3 1149 1095 1111 
3 1171 1111 1109 
3 1162 1151 1050 
3 1111 1095 1030 
3 1110 1107 1051 
3 1050 1151 1029 
3 1111 1030 1047 
3 1113 1172 1086 
3 1173 1136 1060 
3 1114 1060 1010 
3 1201 1115 1116 
3 1115 1075 1015 
3 1174 1083 1138 
3 1201 1116 1174 
3 1175 1064 1139 
3 1175 1117 1064 
3 1118 1063 1112 
3 1112 1063 1203 
3 1119 1086 1059 
3 1119 1113 1086 
3 1225 1159 1224 
3 1118 1067 1063 
3 1124 1059 1078 
3 1223 1222 1164 
3 1123 1121 1062 
3 1120 1084 1067 
3 1123 1062 1084 
3 1186 1121 1184 
3 1180 1129 1122 
3 1122 1072 1070 
3 1193 1120 1118 
3 1195 1123 1120 
3 1125 1078 1073 
3 1222 1221 1163 
3 1127 1073 1076 
3 1188 1125 1127 
3 1190 1126 1182 
3 1126 1076 1079 
3 1188 1187 1125 
3 1127 1125 1073 
3 1130 1081 1068 
3 1183 1128 1130 
3 1239 1181 1180 
3 1129 1085 1072 
3 1131 1068 1065 
3 1185 1130 1131 
3 1137 1065 1069 
3 1183 1182 1128 
3 1192 1132 1181 
3 1132 1061 1085 
3 1196 1133 1192 
3 1133 1080 1061 
3 1189 1138 1134 
3 1134 1066 1077 
3 1254 1202 1175 
3 1135 1074 1080 
3 1173 1060 1114 
3 1191 1189 1134 
3 1140 1069 1082 
3 1178 1137 1140 
3 1230 1138 1189 
3 1138 1083 1066 
3 1202 1117 1175 
3 1139 1064 1074 
3 1142 1082 1071 
3 1178 1177 1137 
3 1233 1199 1141 
3 1199 1142 1141 
3 1200 1142 1199 
3 1142 1140 1082 
3 1145 1087 1089 
3 1205 1226 1108 
3 1207 1144 1150 
3 1144 1088 1054 
3 1208 1145 1089 
3 1308 1205 1206 
3 1259 1209 1146 
3 1146 1090 1088 
3 1147 1027 1091 
3 1261 1210 637 
3 1148 958 1092 
3 1148 1028 1090 
3 1194 1113 1119 
3 1218 1157 1211 
3 1228 1170 1215 
3 1214 1211 1149 
3 1152 1040 1105 
3 1213 1207 1150 
3 1167 1152 1105 
3 1170 1110 1151 
3 1167 1105 1106 
3 1216 1152 1167 
3 1108 1226 1168 
3 1156 1097 1094 
3 1219 1155 1153 
3 1220 1156 1217 
3 1154 1094 1098 
3 1224 1155 1219 
3 1155 1096 1099 
3 1156 1153 1097 
3 1156 1094 1154 
3 1158 1101 1102 
3 1195 1120 1193 
3 1159 1093 1096 
3 1257 1160 1225 
3 1267 1264 1162 
3 1161 1100 1101 
3 1162 1100 1161 
3 1164 1103 1104 
3 1221 1267 1158 
3 1165 1164 1104 
3 1251 1223 1165 
3 1166 1165 1104 
3 1197 1124 1187 
3 1194 1166 1113 
3 1197 1194 1119 
3 1169 1167 1106 
3 1227 1167 1169 
3 1276 1214 1229 
3 1171 1109 1168 
3 1265 1212 1264 
3 1228 1169 1170 
3 1170 1107 1110 
3 1215 1151 1212 
3 1229 1171 1168 
3 1171 1149 1111 
3 1231 1191 1136 
3 1202 1114 1117 
3 1201 1176 1115 
3 1174 1116 1083 
3 1232 1139 1198 
3 1232 1175 1139 
3 1285 1233 1283 
3 1176 1141 1075 
3 1236 1177 1178 
3 1177 1131 1137 
3 1200 1140 1142 
3 1236 1234 1177 
3 1193 1118 1179 
3 1179 1118 1112 
3 1186 1122 1121 
3 1239 1180 1238 
3 1237 1192 1181 
3 1181 1132 1129 
3 1190 1188 1127 
3 1182 1126 1128 
3 1185 1183 1130 
3 1242 1183 1240 
3 1246 1238 1186 
3 1184 1121 1123 
3 1234 1185 1177 
3 1240 1185 1234 
3 1246 1186 1184 
3 1186 1180 1122 
3 1269 1268 1221 
3 1187 1124 1125 
3 1190 1127 1126 
3 1244 1188 1243 
3 1191 1134 1136 
3 1241 1190 1182 
3 1243 1190 1241 
3 1231 1136 1173 
3 1280 1191 1231 
3 1245 1192 1237 
3 1192 1133 1132 
3 1301 1248 1299 
3 1248 1247 1195 
3 1197 1119 1124 
3 1248 1195 1193 
3 1195 1184 1123 
3 1252 1196 1245 
3 1196 1135 1133 
3 1273 1269 1222 
3 1250 1187 1244 
3 1333 1326 1280 
3 1198 1139 1135 
3 1233 1141 1176 
3 1256 1255 1200 
3 1255 1236 1178 
3 1200 1178 1140 
3 1253 1174 1230 
3 1253 1201 1174 
3 1254 1175 1232 
3 1202 1173 1114 
3 1206 1143 1145 
3 1206 1205 1143 
3 1258 1206 1145 
3 1307 1206 1258 
3 1309 1213 1266 
3 1207 1146 1144 
3 1310 1258 1208 
3 1208 1089 1147 
3 1209 1090 1146 
3 1311 1209 1259 
3 1401 1210 1091 
3 1261 1260 1210 
3 1214 1149 1171 
3 1212 1151 1162 
3 1267 1162 1161 
3 1162 1264 1212 
3 1309 1207 1213 
3 1213 1150 1152 
3 1229 1168 1226 
3 1279 1276 1229 
3 1272 1218 1262 
3 1211 1157 1095 
3 1227 1216 1167 
3 1215 1170 1151 
3 1266 1213 1216 
3 1216 1213 1152 
3 1267 1161 1158 
3 1218 1217 1154 
3 1271 1220 1217 
3 1218 1154 1157 
3 1220 1219 1153 
3 1298 1293 1246 
3 1220 1153 1156 
3 1271 1270 1220 
3 1221 1158 1163 
3 1222 1163 1164 
3 1223 1164 1165 
3 1295 1243 1292 
3 1251 1165 1166 
3 1350 1273 1302 
3 1257 1179 1204 
3 1224 1159 1155 
3 1225 1160 1159 
3 1251 1166 1194 
3 1251 1194 1197 
3 1317 1263 1276 
3 1228 1227 1169 
3 1278 1228 1275 
3 1265 1215 1212 
3 1275 1228 1215 
3 1263 1262 1211 
3 1229 1214 1171 
3 1235 1233 1176 
3 1230 1174 1138 
3 1280 1412 1191 
3 1249 1173 1202 
3 1281 1198 1252 
3 1254 1249 1202 
3 1235 1176 1201 
3 1283 1233 1235 
3 1284 1234 1236 
3 1282 1240 1234 
3 1253 1235 1201 
3 1290 1235 1253 
3 1255 1178 1200 
3 1284 1282 1234 
3 1339 1287 1329 
3 1297 1237 1287 
3 1286 1239 1238 
3 1238 1180 1186 
3 1287 1239 1286 
3 1239 1237 1181 
3 1242 1241 1182 
3 1240 1183 1185 
3 1242 1182 1183 
3 1292 1243 1241 
3 1289 1240 1282 
3 1294 1242 1289 
3 1319 1316 1268 
3 1243 1188 1190 
3 1412 1189 1191 
3 1244 1187 1188 
3 1305 1245 1297 
3 1245 1196 1192 
3 1247 1184 1195 
3 1293 1286 1238 
3 1248 1193 1257 
3 1257 1193 1179 
3 1321 1270 1320 
3 1247 1246 1184 
3 1409 1345 1321 
3 1288 1280 1231 
3 1249 1231 1173 
3 1300 1244 1295 
3 1250 1197 1187 
3 1251 1197 1250 
3 1328 1252 1305 
3 1252 1198 1196 
3 1291 1230 1412 
3 1291 1253 1230 
3 1296 1232 1281 
3 1296 1254 1232 
3 1256 1200 1199 
3 1304 1284 1236 
3 1285 1199 1233 
3 1306 1304 1255 
3 1257 1204 1160 
3 1299 1225 1274 
3 1258 1145 1208 
3 1308 1279 1226 
3 1356 1311 1259 
3 1259 1146 1207 
3 1358 1310 1260 
3 1260 1147 1210 
3 1312 1261 637 
3 1482 1312 636 
3 1263 1211 1214 
3 1276 1263 1214 
3 1317 1315 1263 
3 1316 1264 1267 
3 1278 1227 1228 
3 1275 1215 1265 
3 1354 1266 1322 
3 1277 1216 1227 
3 1320 1271 1318 
3 1262 1218 1211 
3 1268 1267 1221 
3 1316 1314 1264 
3 1269 1221 1222 
3 1273 1222 1223 
3 1341 1292 1337 
3 1343 1332 1293 
3 1270 1219 1220 
3 1272 1271 1217 
3 1318 1272 1315 
3 1272 1217 1218 
3 1302 1223 1251 
3 1302 1273 1223 
3 1274 1224 1219 
3 1299 1257 1225 
3 1274 1225 1224 
3 1314 1265 1264 
3 1278 1277 1227 
3 1279 1229 1226 
3 1324 1317 1276 
3 1322 1266 1277 
3 1277 1266 1216 
3 1314 1275 1265 
3 1323 1278 1275 
3 1327 1308 1307 
3 1367 1317 1324 
3 1302 1251 1250 
3 1350 1319 1269 
3 1290 1283 1235 
3 1412 1230 1189 
3 1326 1412 1280 
3 1288 1231 1249 
3 1303 1254 1296 
3 1281 1232 1198 
3 1330 1282 1284 
3 1331 1282 1330 
3 1338 1290 1291 
3 1351 1283 1336 
3 1304 1236 1255 
3 1348 1284 1304 
3 1340 1306 1256 
3 1285 1256 1199 
3 1293 1238 1246 
3 1329 1287 1286 
3 1372 1329 1370 
3 1287 1237 1239 
3 1303 1249 1254 
3 1371 1326 1333 
3 1294 1292 1241 
3 1289 1242 1240 
3 1291 1290 1253 
3 1338 1291 1335 
3 1335 1291 1412 
3 1294 1241 1242 
3 1363 1361 1316 
3 1298 1246 1247 
3 1332 1329 1286 
3 1334 1294 1289 
3 1337 1294 1334 
3 1344 1295 1341 
3 1295 1244 1243 
3 1347 1281 1328 
3 1349 1296 1347 
3 1352 1297 1339 
3 1297 1245 1237 
3 1301 1247 1248 
3 1365 1320 1364 
3 1299 1248 1257 
3 1345 1299 1274 
3 1300 1250 1244 
3 1345 1274 1321 
3 1301 1298 1247 
3 1302 1250 1300 
3 1342 1333 1288 
3 1303 1288 1249 
3 1306 1255 1256 
3 1348 1330 1284 
3 1376 1305 1352 
3 1305 1252 1245 
3 1340 1256 1285 
3 1353 1348 1304 
3 1355 1258 1310 
3 1327 1324 1279 
3 1308 1226 1205 
3 1308 1206 1307 
3 1356 1309 1354 
3 1309 1259 1207 
3 1310 1208 1260 
3 1396 1310 576 
3 1398 1357 1311 
3 1437 1398 1311 
3 1401 1360 637 
3 1482 1443 1359 
3 1399 1397 1313 
3 1397 1358 1313 
3 1315 1262 1263 
3 1361 1314 1316 
3 1439 1361 1402 
3 1316 1267 1268 
3 1315 1272 1262 
3 1325 1278 1323 
3 1323 1275 1314 
3 1319 1268 1269 
3 1410 1403 1362 
3 1324 1276 1279 
3 1364 1318 1362 
3 1318 1271 1272 
3 1350 1269 1273 
3 1386 1378 1343 
3 1320 1270 1271 
3 1350 1302 1300 
3 1448 1341 1381 
3 1409 1321 1365 
3 1321 1274 1270 
3 1438 1322 1368 
3 1325 1277 1278 
3 1366 1314 1361 
3 1369 1323 1366 
3 1327 1279 1308 
3 1394 1327 1385 
3 1368 1322 1325 
3 1325 1322 1277 
3 1412 1326 1411 
3 1333 1280 1288 
3 1385 1307 1355 
3 1394 1324 1327 
3 1390 1328 1376 
3 1328 1281 1252 
3 1332 1286 1293 
3 1423 1372 1413 
3 1382 1330 1348 
3 1373 1331 1330 
3 1374 1331 1373 
3 1331 1289 1282 
3 1343 1293 1298 
3 1378 1332 1343 
3 1342 1288 1303 
3 1380 1333 1342 
3 1334 1289 1331 
3 1375 1337 1334 
3 1338 1336 1290 
3 1351 1340 1285 
3 1336 1283 1290 
3 1381 1337 1375 
3 1337 1292 1294 
3 1377 1338 1335 
3 1379 1338 1377 
3 1389 1339 1372 
3 1339 1297 1287 
3 1351 1285 1283 
3 1383 1353 1306 
3 1341 1295 1292 
3 1349 1303 1296 
3 1380 1371 1333 
3 1346 1298 1301 
3 1378 1370 1332 
3 1408 1363 1319 
3 1344 1300 1295 
3 1345 1301 1299 
3 1405 1365 1403 
3 1346 1343 1298 
3 1346 1301 1345 
3 1388 1387 1349 
3 1347 1296 1281 
3 1353 1304 1306 
3 1382 1373 1330 
3 1387 1380 1342 
3 1349 1342 1303 
3 1350 1300 1344 
3 1384 1336 1379 
3 1392 1340 1351 
3 1424 1352 1389 
3 1352 1305 1297 
3 1383 1306 1340 
3 1391 1382 1348 
3 1395 1356 1354 
3 1354 1309 1266 
3 1355 1307 1258 
3 1427 1385 1355 
3 1437 1356 1395 
3 1356 1259 1309 
3 1357 958 1148 
3 1357 1209 1311 
3 1358 576 1310 
3 1358 1260 1313 
3 1443 1399 1359 
3 1359 1261 1312 
3 1445 1360 612 
3 1445 1400 1360 
3 1466 1406 1439 
3 1393 1315 1317 
3 1363 1316 1319 
3 1404 1402 1361 
3 1362 1318 1315 
3 1408 1319 1350 
3 1404 1363 1408 
3 1364 1320 1318 
3 1408 1350 1344 
3 1471 1381 1417 
3 1421 1414 1378 
3 1365 1321 1320 
3 1369 1368 1325 
3 1366 1323 1314 
3 1440 1394 1427 
3 1429 1393 1367 
3 1407 1368 1369 
3 1369 1325 1323 
3 1439 1406 1366 
3 1406 1369 1366 
3 1414 1413 1370 
3 1370 1329 1332 
3 1419 1371 1380 
3 1371 1411 1326 
3 1372 1339 1329 
3 1453 1413 1451 
3 1418 1373 1382 
3 1415 1374 1373 
3 1416 1375 1374 
3 1374 1334 1331 
3 1375 1334 1374 
3 1417 1381 1375 
3 1390 1388 1347 
3 1376 1328 1305 
3 1411 1377 1335 
3 1420 1379 1377 
3 1386 1343 1346 
3 1421 1378 1386 
3 1425 1379 1420 
3 1379 1336 1338 
3 1387 1342 1349 
3 1426 1380 1387 
3 1448 1447 1404 
3 1381 1341 1337 
3 1391 1348 1353 
3 1418 1415 1373 
3 1392 1351 1384 
3 1422 1391 1353 
3 1431 1384 1425 
3 1384 1351 1336 
3 1448 1344 1341 
3 1385 1327 1307 
3 1427 1355 1396 
3 1409 1386 1346 
3 1484 1403 1446 
3 1388 1349 1347 
3 1426 1419 1380 
3 1390 1347 1328 
3 1428 1426 1387 
3 1459 1389 1423 
3 1389 1352 1339 
3 1433 1376 1424 
3 1432 1428 1388 
3 1422 1353 1383 
3 1430 1418 1382 
3 1434 1383 1392 
3 1392 1383 1340 
3 1393 1362 1315 
3 1393 1317 1367 
3 1435 1396 576 
3 1394 1367 1324 
3 1514 1437 1395 
3 1438 1354 1322 
3 1396 1355 1310 
3 1435 576 1397 
3 1476 1474 1440 
3 1397 576 1358 
3 1481 1480 1398 
3 1480 1441 1398 
3 1399 1313 1359 
3 1478 1442 1399 
3 1445 1444 1400 
3 1400 636 1312 
3 1839 38 39 
3 1401 612 1360 
3 1523 1506 1488 
3 1410 1362 1393 
3 1473 1404 1447 
3 1404 1361 1363 
3 1403 1364 1362 
3 1484 1446 1522 
3 1403 1365 1364 
3 1405 1409 1365 
3 1449 1407 1406 
3 1407 1369 1406 
3 1475 1395 1438 
3 1475 1438 1407 
3 1408 1344 1448 
3 1409 1346 1345 
3 1440 1367 1394 
3 1450 1410 1429 
3 1436 1371 1419 
3 1486 1411 1436 
3 1412 1411 1335 
3 1413 1372 1370 
3 1487 1485 1451 
3 1456 1451 1414 
3 1414 1370 1378 
3 1457 1455 1415 
3 1455 1416 1415 
3 1416 1374 1415 
3 1417 1375 1416 
3 1430 1382 1391 
3 1523 1488 1500 
3 1461 1419 1426 
3 1472 1419 1461 
3 1494 1420 1454 
3 1460 1425 1420 
3 1405 1421 1386 
3 1434 1392 1431 
3 1458 1430 1391 
3 1459 1424 1389 
3 1423 1389 1372 
3 1433 1432 1390 
3 1424 1376 1352 
3 1447 1448 1381 
3 1381 1471 1447 
3 1464 1425 1460 
3 1425 1384 1379 
3 1428 1387 1388 
3 1463 1426 1428 
3 1440 1429 1367 
3 1427 1394 1385 
3 1432 1388 1390 
3 1463 1461 1426 
3 1450 1446 1410 
3 1429 1410 1393 
3 1458 1391 1422 
3 1462 1457 1418 
3 1468 1431 1464 
3 1431 1392 1384 
3 1433 1390 1376 
3 1465 1463 1428 
3 1469 1424 1459 
3 1467 1465 1432 
3 1470 1434 1468 
3 1434 1422 1383 
3 1479 1397 1442 
3 1516 1479 1511 
3 1569 1472 1530 
3 1437 959 1398 
3 1437 1311 1356 
3 1438 1395 1354 
3 1438 1368 1407 
3 1439 1366 1361 
3 1473 1452 1402 
3 1477 1427 1435 
3 1474 1450 1429 
3 1518 958 1441 
3 1441 958 1357 
3 1442 1397 1399 
3 1515 1511 1442 
3 1551 1482 636 
3 1582 1478 1443 
3 1444 636 1400 
3 1553 1519 1444 
3 1802 1445 612 
3 1445 613 1444 
3 1446 1403 1410 
3 1506 1471 1488 
3 1484 1456 1421 
3 1405 1484 1421 
3 1484 1405 1403 
3 1448 1404 1408 
3 1503 1500 1455 
3 1514 1513 959 
3 1405 1386 1409 
3 1474 1429 1440 
3 1451 1413 1414 
3 1485 1453 1451 
3 1452 1439 1402 
3 1506 1490 1452 
3 1492 1459 1423 
3 1453 1423 1413 
3 1494 1454 1486 
3 1454 1420 1377 
3 1455 1417 1416 
3 1457 1415 1418 
3 1484 1487 1456 
3 1456 1414 1421 
3 1462 1418 1430 
3 1526 1462 1491 
3 1470 1422 1434 
3 1491 1462 1430 
3 1492 1423 1453 
3 1469 1467 1433 
3 1527 1460 1494 
3 1497 1464 1460 
3 1496 1461 1463 
3 1508 1461 1496 
3 1491 1430 1458 
3 1556 1528 1495 
3 1465 1428 1432 
3 1498 1496 1463 
3 1499 1468 1464 
3 1464 1431 1425 
3 1467 1432 1433 
3 1501 1465 1467 
3 1466 1449 1406 
3 1466 1439 1452 
3 1469 1433 1424 
3 1501 1498 1465 
3 1507 1468 1499 
3 1468 1434 1431 
3 1504 1459 1492 
3 1509 1469 1504 
3 1507 1470 1468 
3 1470 1458 1422 
3 1488 1471 1417 
3 1530 1472 1508 
3 1472 1436 1419 
3 1473 1402 1404 
3 1473 1447 1471 
3 1476 1440 1427 
3 1510 1502 1450 
3 1514 1395 1475 
3 1475 1407 1449 
3 1477 1476 1427 
3 1529 1476 1489 
3 1479 1477 1435 
3 1539 1516 1511 
3 1478 1399 1443 
3 1579 1548 1578 
3 1479 1435 1397 
3 1511 1479 1442 
3 1481 1398 959 
3 1550 1518 1480 
3 1531 1514 1475 
3 1549 1481 1513 
3 1482 1359 1312 
3 1551 636 1520 
3 1552 1520 1483 
3 1483 636 1444 
3 1502 1446 1450 
3 1484 1522 1487 
3 1524 1492 1453 
3 1486 1454 1411 
3 1486 1436 1472 
3 1487 1451 1456 
3 1521 1487 1522 
3 1500 1417 1455 
3 1503 1457 1495 
3 1570 1521 1522 
3 1489 1476 1477 
3 1493 1466 1490 
3 1490 1466 1452 
3 1505 1491 1458 
3 1526 1495 1462 
3 1524 1453 1485 
3 1534 1492 1524 
3 1546 1493 1525 
3 1493 1449 1466 
3 1527 1497 1460 
3 1494 1460 1420 
3 1597 1541 1565 
3 1495 1457 1462 
3 1532 1496 1498 
3 1536 1496 1532 
3 1561 1497 1527 
3 1533 1499 1497 
3 1537 1532 1498 
3 1498 1463 1465 
3 1499 1464 1497 
3 1507 1505 1470 
3 1500 1488 1417 
3 1503 1455 1457 
3 1509 1467 1469 
3 1542 1501 1509 
3 1502 1522 1446 
3 1510 1450 1474 
3 1565 1541 1528 
3 1541 1503 1528 
3 1544 1504 1534 
3 1504 1469 1459 
3 1538 1526 1491 
3 1505 1458 1470 
3 1506 1452 1473 
3 1506 1473 1471 
3 1540 1507 1499 
3 1543 1507 1540 
3 1592 1530 1559 
3 1508 1472 1461 
3 1542 1537 1501 
3 1509 1501 1467 
3 1529 1510 1474 
3 1598 1594 1562 
3 1515 1442 1478 
3 1545 1516 1539 
3 1512 1449 1493 
3 1633 1610 1588 
3 1549 1517 1481 
3 1513 1481 959 
3 1514 959 1437 
3 1531 1475 1512 
3 1548 1478 600 
3 1547 1539 1511 
3 1516 1489 1477 
3 1516 1477 1479 
3 1608 1581 1550 
3 1517 1480 1481 
3 1730 1581 1723 
3 1518 1441 1480 
3 1553 1444 613 
3 1655 1631 1519 
3 1601 1582 1583 
3 1583 1551 1520 
3 1521 1485 1487 
3 1535 1502 1510 
3 1535 1522 1502 
3 1525 1490 1523 
3 1541 1500 1503 
3 1554 1485 1521 
3 1570 1535 1557 
3 1525 1493 1490 
3 1528 1503 1495 
3 1538 1491 1505 
3 1596 1590 1564 
3 1569 1494 1486 
3 1561 1533 1497 
3 1556 1495 1526 
3 1633 1588 1613 
3 1529 1474 1476 
3 1545 1489 1516 
3 1569 1555 1494 
3 1559 1508 1536 
3 1558 1512 1546 
3 1531 1513 1514 
3 1595 1566 1567 
3 1566 1536 1532 
3 1591 1533 1561 
3 1568 1540 1533 
3 1544 1542 1509 
3 1534 1504 1492 
3 1570 1522 1535 
3 1557 1510 1529 
3 1589 1536 1566 
3 1536 1508 1496 
3 1574 1567 1537 
3 1537 1498 1501 
3 1543 1538 1505 
3 1564 1556 1526 
3 1547 1511 1515 
3 1628 1621 1560 
3 1540 1499 1533 
3 1573 1543 1540 
3 1597 1523 1541 
3 1541 1523 1500 
3 1544 1509 1504 
3 1576 1542 1544 
3 1573 1572 1543 
3 1543 1505 1507 
3 1571 1534 1562 
3 1576 1544 1571 
3 1605 1598 1570 
3 1563 1489 1545 
3 1558 1531 1512 
3 1546 1512 1493 
3 1579 1515 1548 
3 1576 1574 1542 
3 1548 1515 1478 
3 1578 1548 600 
3 1575 1513 1558 
3 1577 1517 1549 
3 1580 1517 1577 
3 1608 1550 1580 
3 1582 1443 1551 
3 1551 1443 1482 
3 1609 1552 635 
3 1584 1583 1520 
3 1585 1553 613 
3 1734 1553 614 
3 1562 1524 1554 
3 1554 1524 1485 
3 1592 1587 1555 
3 1555 1527 1494 
3 1564 1526 1538 
3 1590 1588 1556 
3 1557 1535 1510 
3 1563 1557 1529 
3 1558 1513 1531 
3 1610 1546 1597 
3 1587 1561 1527 
3 1559 1530 1508 
3 1594 1571 1562 
3 1560 1539 1547 
3 1587 1527 1555 
3 1591 1568 1533 
3 1562 1534 1524 
3 1570 1562 1554 
3 1563 1529 1489 
3 1605 1545 1560 
3 1572 1564 1538 
3 1596 1572 1586 
3 1610 1597 1565 
3 1588 1528 1556 
3 1567 1566 1532 
3 1615 1566 1595 
3 1567 1532 1537 
3 1618 1567 1574 
3 1600 1568 1591 
3 1573 1568 599 
3 1569 1486 1472 
3 1569 1530 1555 
3 1570 1554 1521 
3 1605 1557 1563 
3 1599 1576 1571 
3 1571 1544 1534 
3 1572 1538 1543 
3 1586 1572 1573 
3 1573 1540 1568 
3 1586 1573 599 
3 1618 1574 577 
3 1574 1537 1542 
3 1616 1575 1593 
3 1575 1549 1513 
3 1599 1571 1594 
3 1617 1574 1576 
3 1606 1580 1577 
3 1603 1549 1575 
3 1667 1632 1651 
3 1607 1602 1579 
3 1638 1617 1599 
3 1579 1547 1515 
3 1630 1580 1606 
3 1580 1550 1517 
3 1723 1581 597 
3 1581 1518 1550 
3 1583 1582 1551 
3 1582 600 1478 
3 1584 1520 1552 
3 1604 1601 1583 
3 1609 1584 1552 
3 1629 1584 1609 
3 1795 1754 1585 
3 1748 1737 614 
3 1612 1586 599 
3 1626 1603 1616 
3 1611 1592 1559 
3 1636 1587 1592 
3 1588 1565 1528 
3 1590 1556 1564 
3 1635 1589 1615 
3 1589 1559 1536 
3 1596 1564 1572 
3 1620 1613 1590 
3 1614 1561 1587 
3 1623 1600 1591 
3 1592 1555 1530 
3 1611 1559 1589 
3 1593 1575 1558 
3 1593 1558 1546 
3 1598 1562 1570 
3 1621 1599 1594 
3 1618 1595 1567 
3 1641 1615 1595 
3 1622 1586 1612 
3 1622 1620 1596 
3 1597 1546 1525 
3 1597 1525 1523 
3 1605 1570 1557 
3 1621 1598 1605 
3 1602 1560 1547 
3 1617 1576 1599 
3 1682 1680 1656 
3 1600 599 1568 
3 1632 1601 1604 
3 1601 600 1582 
3 1602 1547 1579 
3 1607 1579 1578 
3 1644 1616 1633 
3 1603 1577 1549 
3 1604 1583 1584 
3 1632 1625 1578 
3 1605 1563 1545 
3 1621 1605 1560 
3 1630 1606 598 
3 1626 1577 1603 
3 1625 1607 1578 
3 1643 1617 1638 
3 1630 1608 1580 
3 1738 1581 1608 
3 1672 1668 635 
3 1653 1629 1609 
3 1610 1565 1588 
3 1610 1593 1546 
3 1662 1636 1611 
3 1636 1592 1611 
3 1619 599 1600 
3 1640 1612 1637 
3 1613 1588 1590 
3 1620 1590 1596 
3 1646 1614 1636 
3 1614 1591 1561 
3 1657 1615 1641 
3 1615 1589 1566 
3 1616 1603 1575 
3 1633 1616 1593 
3 1617 577 1574 
3 1638 1628 1627 
3 1664 1643 1627 
3 1642 1618 1634 
3 1639 1600 1623 
3 1648 598 1624 
3 1622 1596 1586 
3 1652 1626 1644 
3 1621 1594 1598 
3 1628 1560 1602 
3 1637 1612 1619 
3 1661 1640 1656 
3 1623 1591 1614 
3 1663 1639 1623 
3 1624 598 1606 
3 1626 1624 1606 
3 1632 1578 1601 
3 1677 1673 1659 
3 1644 1626 1616 
3 1626 1606 1577 
3 1627 1602 1607 
3 1647 1607 1625 
3 1628 1602 1627 
3 1628 1599 1621 
3 1651 1629 601 
3 1629 1604 1584 
3 1649 1630 598 
3 1650 1630 1649 
3 1631 635 1552 
3 1631 1483 1519 
3 1651 1632 1604 
3 1699 1667 1665 
3 1633 1593 1610 
3 1644 1633 1613 
3 1642 1641 1595 
3 1634 1618 577 
3 1679 1662 1657 
3 1635 1611 1589 
3 1636 1614 1587 
3 1662 1611 1635 
3 1660 1619 1639 
3 1680 1670 1648 
3 1643 1638 1627 
3 1638 1599 1628 
3 1674 1660 1639 
3 1639 1619 1600 
3 1661 1645 1640 
3 1640 1622 1612 
3 1675 1641 1658 
3 1642 1595 1618 
3 1659 1658 1642 
3 1658 1641 1642 
3 1643 577 1617 
3 1664 1627 1647 
3 1644 1613 1620 
3 1645 1644 1620 
3 1645 1620 1622 
3 1645 1622 1640 
3 1679 1646 1662 
3 1646 1623 1614 
3 1647 1627 1607 
3 1666 1625 1654 
3 1670 1649 1648 
3 1676 1661 1656 
3 1649 598 1648 
3 1689 1669 1683 
3 1684 1650 1669 
3 1650 1608 1630 
3 1651 1604 1629 
3 1665 1651 601 
3 1652 1624 1626 
3 1652 1644 1645 
3 1685 1653 1668 
3 1653 601 1629 
3 1678 1666 1654 
3 1654 1625 1632 
3 1700 1672 1686 
3 1655 635 1631 
3 1656 1640 1637 
3 1682 1637 1660 
3 1679 1663 1646 
3 1657 1635 1615 
3 1687 1658 1673 
3 1659 1642 1634 
3 1664 1659 1634 
3 1677 1664 1647 
3 1703 1682 1695 
3 1660 1637 1619 
3 1661 1624 1652 
3 1661 1652 1645 
3 1662 1646 1636 
3 1662 1635 1657 
3 1690 1674 1663 
3 1663 1623 1646 
3 1664 1634 1643 
3 1677 1647 1666 
3 1681 601 1671 
3 1692 1687 1673 
3 1666 1647 1625 
3 1678 1673 1677 
3 1667 1654 1632 
3 1667 1651 1665 
3 1668 1609 635 
3 1709 1697 1685 
3 1683 1649 1670 
3 1693 1669 1689 
3 1680 1648 1676 
3 1688 1683 1670 
3 1696 1681 1671 
3 1671 601 1653 
3 1712 1698 1672 
3 1672 635 1655 
3 1687 1675 1658 
3 1673 1658 1659 
3 1674 1639 1663 
3 1714 1708 578 
3 1691 1679 1675 
3 1675 1657 1641 
3 1680 1676 1656 
3 1676 1648 1624 
3 1677 1659 1664 
3 1678 1677 1666 
3 1699 1654 1667 
3 1694 1665 1681 
3 1679 1657 1675 
3 1691 1690 1679 
3 1682 1656 1637 
3 1717 1695 1713 
3 1699 1692 1678 
3 1681 1665 601 
3 1682 1660 1674 
3 1695 1682 1674 
3 1689 1683 1688 
3 1683 1669 1649 
3 1745 1684 1693 
3 1738 1684 597 
3 1698 1685 1668 
3 1709 1685 1698 
3 1734 1686 1655 
3 1711 1700 1686 
3 1692 1673 1678 
3 1691 1687 578 
3 1705 1670 1680 
3 1719 1688 579 
3 1719 1704 1689 
3 1704 1693 1689 
3 1690 1663 1679 
3 1702 1695 1674 
3 1691 1675 1687 
3 1708 1691 578 
3 1706 1699 1694 
3 1692 578 1687 
3 1745 1736 1701 
3 1693 1684 1669 
3 1707 1694 1681 
3 1716 1694 1707 
3 1702 1674 1690 
3 1715 1688 1705 
3 1721 1720 1696 
3 1720 1707 1696 
3 1721 1697 602 
3 1697 1671 1685 
3 1698 1668 1672 
3 1718 1698 1712 
3 1699 1678 1654 
3 1699 1665 1694 
3 1724 1700 1711 
3 1712 1700 634 
3 1722 596 1710 
3 1701 597 1684 
3 1708 1702 1690 
3 1713 1702 1708 
3 1717 1715 1705 
3 1703 1680 1682 
3 1726 1719 579 
3 1745 1704 580 
3 1705 1688 1670 
3 1705 1680 1703 
3 1706 578 1692 
3 1706 1692 1699 
3 1707 1681 1696 
3 1739 1728 1732 
3 1708 1690 1691 
3 1714 1713 1708 
3 1718 1709 1698 
3 1755 1697 1709 
3 1735 1723 1710 
3 1710 597 1701 
3 1734 1725 1686 
3 1724 1711 615 
3 1712 1672 1700 
3 1718 1712 634 
3 1732 1728 1729 
3 1713 1695 1702 
3 1733 1706 1716 
3 1732 1729 1715 
3 1715 579 1688 
3 1717 1705 1703 
3 1716 1706 1694 
3 1728 1716 1707 
3 1717 1703 1695 
3 1732 1713 1714 
3 1731 1718 634 
3 1774 1743 1751 
3 1719 1689 1688 
3 1740 579 1729 
3 1727 1720 1721 
3 1740 1729 1728 
3 1721 1696 1697 
3 1763 1740 1727 
3 1736 1722 1701 
3 1752 1722 1746 
3 1744 958 1730 
3 1744 1730 1723 
3 1786 1742 1750 
3 1724 634 1700 
3 1748 614 1585 
3 1725 615 1711 
3 1763 1741 1762 
3 1757 1719 1726 
3 1727 1721 602 
3 1741 1727 602 
3 1728 1707 1720 
3 1740 1728 1720 
3 1729 579 1715 
3 1732 1715 1717 
3 1730 958 1518 
3 1730 1518 1581 
3 1742 634 1724 
3 1751 1743 1731 
3 1732 1717 1713 
3 1739 1714 1733 
3 1733 1714 578 
3 1733 578 1706 
3 1734 1519 1553 
3 1734 614 1725 
3 1747 1735 596 
3 1747 1744 1735 
3 1745 1701 1684 
3 1773 1758 1760 
3 1806 1737 640 
3 1806 1796 1798 
3 1738 597 1581 
3 1738 1608 1650 
3 1739 1716 1728 
3 1739 1732 1714 
3 1740 1720 1727 
3 1740 1726 579 
3 1755 1749 602 
3 1771 1756 603 
3 1750 1742 1724 
3 1789 1742 1786 
3 1789 1751 1731 
3 1756 1749 1743 
3 1744 1723 1735 
3 1800 1744 957 
3 1745 1693 1704 
3 1745 580 1736 
3 1752 1746 581 
3 1746 1722 1736 
3 1843 1747 1794 
3 1747 957 1744 
3 1754 1748 1585 
3 1748 640 1737 
3 1749 1741 602 
3 1755 602 1697 
3 1759 1724 615 
3 1803 1786 616 
3 1778 1777 1776 
3 1774 1756 1743 
3 1766 1761 581 
3 1752 596 1722 
3 1771 1753 1762 
3 1753 580 1704 
3 1795 1585 613 
3 1804 1754 639 
3 1755 1709 1718 
3 1755 1743 1749 
3 1771 1762 1756 
3 1756 1741 1749 
3 1763 1762 1757 
3 1763 1757 1726 
3 1770 1768 1760 
3 1758 580 1753 
3 1764 1759 615 
3 1759 616 1750 
3 1768 1765 1760 
3 1773 1760 1746 
3 1805 1761 582 
3 1805 1794 1801 
3 1762 1753 1757 
3 1762 1741 1756 
3 1763 1726 1740 
3 1763 1727 1741 
3 1796 1764 615 
3 1847 1764 1796 
3 1797 1766 1767 
3 1765 581 1760 
3 1766 582 1761 
3 1766 581 1765 
3 1767 1765 604 
3 1797 1767 605 
3 1770 1769 1768 
3 1768 604 1765 
3 1778 1776 1769 
3 1776 1772 1769 
3 1771 1770 1758 
3 1770 603 1769 
3 1771 603 1770 
3 1771 1758 1753 
3 1779 1775 1772 
3 1772 604 1769 
3 1773 1746 1736 
3 1773 580 1758 
3 1774 603 1756 
3 1777 1751 633 
3 1930 1783 1785 
3 1930 1767 1775 
3 1778 1769 603 
3 1781 1776 1777 
3 1777 1774 1751 
3 1781 1777 633 
3 1778 603 1774 
3 1778 1774 1777 
3 1780 1779 632 
3 1783 1779 1780 
3 1784 1780 632 
3 1791 631 1780 
3 1786 1782 633 
3 1781 632 1776 
3 1803 1790 1788 
3 1788 1784 1787 
3 1785 1783 631 
3 1783 1775 1779 
3 1787 1784 632 
3 1937 617 1845 
3 1848 1793 630 
3 1930 1785 605 
3 1789 1786 633 
3 1786 1750 616 
3 1787 632 1781 
3 1788 1787 1782 
3 1803 1788 1782 
3 1788 617 1784 
3 1789 633 1751 
3 1789 1731 1742 
3 1799 1790 616 
3 1846 1790 1799 
3 1849 1791 618 
3 1791 1780 1784 
3 1939 1845 643 
3 1792 617 1790 
3 1849 631 1791 
3 1934 1848 630 
3 1801 1794 596 
3 1843 1794 595 
3 1850 1802 1833 
3 1795 639 1754 
3 1798 615 1725 
3 1847 1796 641 
3 1924 1841 1797 
3 1797 582 1766 
3 1798 1725 1737 
3 1806 1798 1737 
3 1846 1799 642 
3 1799 616 1764 
3 1800 958 1744 
3 1852 1800 957 
3 1801 596 1752 
3 1805 1801 1761 
3 1802 613 1445 
3 1833 1802 612 
3 1803 1782 1786 
3 1803 616 1790 
3 1851 1804 639 
3 1927 1804 1851 
3 1940 582 1841 
3 1805 595 1794 
3 1842 1806 640 
3 1806 641 1796 
3 1807 949 948 
3 1807 948 90 
3 1856 1808 938 
3 1809 1808 77 
3 1809 939 1808 
3 1809 78 940 
3 1855 1810 941 
3 1920 1810 81 
3 1811 944 84 
3 1811 85 945 
3 1854 1812 946 
3 1813 1812 88 
3 1813 947 1812 
3 1813 89 948 
3 1858 1814 95 
3 1916 1814 923 
3 1860 1815 102 
3 1912 1815 858 
3 1816 107 108 
3 1918 1816 806 
3 1817 114 115 
3 1908 1817 741 
3 1818 121 122 
3 1905 1818 676 
3 1819 124 125 
3 1919 1819 650 
3 1820 128 129 
3 1903 1820 611 
3 1821 131 132 
3 1902 1821 589 
3 1900 1822 767 
3 1898 1822 780 
3 1823 105 832 
3 1910 1823 832 
3 1914 1824 897 
3 1824 910 97 
3 1907 1825 729 
3 1880 1825 716 
3 1826 47 703 
3 1906 1826 703 
3 1904 1827 664 
3 1871 1827 651 
3 1828 56 57 
3 1909 1828 794 
3 1829 68 898 
3 1915 1829 898 
3 1830 71 924 
3 1917 1830 924 
3 1831 61 833 
3 1911 1831 833 
3 1832 64 859 
3 1913 1832 859 
3 1850 1833 638 
3 1839 1833 612 
3 1901 1834 768 
3 1896 1834 755 
3 1836 1835 955 
3 1921 1835 143 
3 1882 1836 954 
3 1836 142 1835 
3 1838 1837 952 
3 1837 139 953 
3 1838 951 137 
3 1838 138 1837 
3 1839 39 1833 
3 1839 612 1401 
3 1840 951 950 
3 1840 950 135 
3 2010 1841 1924 
3 1940 1844 582 
3 1853 1842 640 
3 1935 1922 1842 
3 1891 595 1844 
3 1928 1843 956 
3 1998 1844 1940 
3 1891 1844 594 
3 2017 1845 1939 
3 2017 1937 1845 
3 1929 1846 642 
3 1846 1792 1790 
3 1926 641 1922 
3 1847 642 1799 
3 1924 1848 606 
3 1848 1785 1793 
3 1936 1849 618 
3 1938 1849 1936 
3 1923 1850 638 
3 1850 639 1795 
3 1923 1851 639 
3 1927 1851 652 
3 1928 1921 957 
3 1852 144 145 
3 1935 1853 653 
3 1853 640 1804 
3 1854 946 945 
3 1854 945 85 
3 1855 941 940 
3 1855 940 79 
3 1856 938 937 
3 1856 937 75 
3 1857 113 754 
3 1857 754 767 
3 1858 96 910 
3 1858 910 923 
3 1859 99 884 
3 1949 1859 884 
3 1860 103 845 
3 1860 845 858 
3 1861 106 819 
3 1951 1861 819 
3 1862 120 121 
3 1862 689 702 
3 1863 123 124 
3 1863 663 676 
3 1864 127 128 
3 1959 1864 625 
3 1865 130 131 
3 1865 588 611 
3 1866 116 728 
3 1953 1866 728 
3 1867 109 793 
3 1952 1867 793 
3 1966 1868 871 
3 1868 884 100 
3 1869 936 949 
3 1869 949 93 
3 1980 1870 690 
3 1870 677 45 
3 1925 1871 638 
3 1871 41 42 
3 1872 55 781 
3 1872 781 768 
3 1873 59 60 
3 1965 1873 820 
3 1874 62 63 
3 1874 846 833 
3 1875 65 872 
3 1946 1875 872 
3 1948 1876 937 
3 1876 924 71 
3 1877 58 807 
3 1944 1877 807 
3 1967 1878 885 
3 1878 872 66 
3 1879 911 898 
3 1879 898 69 
3 1880 716 703 
3 1880 703 48 
3 1881 729 50 
3 1881 51 742 
3 1882 954 953 
3 1882 953 140 
3 1883 935 948 
3 1883 949 936 
3 1884 934 947 
3 1884 948 935 
3 1885 931 944 
3 1991 1885 945 
3 1886 928 941 
3 1886 942 929 
3 1887 925 938 
3 1887 939 926 
3 1888 589 950 
3 1888 951 590 
3 1889 590 951 
3 1889 952 591 
3 1972 1890 593 
3 1890 955 594 
3 1891 594 955 
3 1891 955 1835 
3 1892 933 946 
3 1892 947 934 
3 1893 926 939 
3 1994 1893 940 
3 1894 591 952 
3 1894 953 1972 
3 1895 126 624 
3 1955 1895 624 
3 1977 1896 755 
3 1896 742 52 
3 1897 44 677 
3 1960 1897 677 
3 1941 1898 780 
3 1898 793 110 
3 1899 133 950 
3 1899 950 589 
3 1900 780 1822 
3 1976 1900 766 
3 1978 1901 769 
3 1901 756 755 
3 1902 588 1821 
3 1957 1902 590 
3 1903 625 1820 
3 1979 1903 610 
3 1904 651 1827 
3 1933 1904 665 
3 1905 689 1818 
3 1932 1905 675 
3 1906 690 1826 
3 1981 1906 704 
3 1907 716 1825 
3 1982 1907 730 
3 1908 754 1817 
3 1983 1908 740 
3 1909 781 1828 
3 1984 1909 795 
3 1910 845 1823 
3 1985 1910 831 
3 1911 820 1831 
3 1986 1911 834 
3 1912 871 1815 
3 1987 1912 857 
3 1913 846 1832 
3 1988 1913 860 
3 1914 910 1824 
3 1989 1914 896 
3 1915 885 1829 
3 1990 1915 899 
3 1971 1916 922 
3 1916 935 1883 
3 1917 911 1830 
3 1968 1917 925 
3 1918 819 1816 
3 1995 1918 805 
3 1919 663 1819 
3 1931 1919 649 
3 1920 943 942 
3 1920 942 1810 
3 1921 956 1835 
3 1921 144 1852 
3 2001 1926 1999 
3 1922 641 1842 
3 1923 638 651 
3 2002 1923 651 
3 1924 605 1848 
3 2010 1924 606 
3 1925 638 1833 
3 1925 40 41 
3 1926 642 1847 
3 1926 1847 641 
3 1933 1927 652 
3 1927 653 1853 
3 1928 956 1921 
3 1928 957 1747 
3 2001 1929 642 
3 2003 1929 2001 
3 1930 605 1767 
3 1930 1775 1783 
3 2018 1931 648 
3 1931 662 1919 
3 2019 1932 674 
3 1932 688 1905 
3 2136 2069 1933 
3 1933 652 1904 
3 2150 1934 629 
3 1934 606 1848 
3 2000 1935 653 
3 1935 654 1922 
3 2017 1996 618 
3 1938 1936 619 
3 1937 618 1791 
3 1937 1791 617 
3 2066 1997 619 
3 1938 630 1849 
3 2004 1939 643 
3 2017 1939 644 
3 1940 1841 583 
3 1998 1940 583 
3 1941 793 1898 
3 2038 1941 779 
3 1942 909 922 
3 1942 923 910 
3 1943 743 730 
3 1943 729 1881 
3 1944 808 795 
3 1944 794 1877 
3 1945 847 834 
3 1945 833 846 
3 1946 873 860 
3 1946 859 1875 
3 1947 912 899 
3 1947 898 911 
3 1948 924 1876 
3 1948 937 938 
3 1949 883 896 
3 1949 897 1859 
3 1950 844 857 
3 1950 858 845 
3 1951 818 831 
3 1951 832 1861 
3 1952 792 805 
3 1952 806 1867 
3 1953 727 740 
3 1953 741 1866 
3 2013 1954 662 
3 1954 676 663 
3 2012 1955 623 
3 1955 650 1895 
3 1956 587 610 
3 1956 611 588 
3 1957 587 1902 
3 1973 1957 591 
3 2034 1958 584 
3 1998 1958 594 
3 1959 624 1864 
3 2035 1959 626 
3 1980 1960 677 
3 2014 1960 678 
3 1961 702 689 
3 2015 1961 688 
3 1962 716 1907 
3 1962 717 704 
3 1963 767 754 
3 1963 754 1908 
3 2022 1964 782 
3 1964 769 768 
3 1965 807 1873 
3 2039 1965 821 
3 1966 884 1868 
3 2040 1966 870 
3 1967 872 1878 
3 2041 1967 886 
3 1968 912 1917 
3 1974 1968 926 
3 2045 1969 915 
3 1969 929 916 
3 1970 918 931 
3 1970 932 919 
3 1971 921 934 
3 1971 935 1916 
3 1894 1972 592 
3 1972 954 1890 
3 1973 586 1957 
3 1973 592 585 
3 1974 913 1968 
3 1974 927 914 
3 2048 1975 920 
3 1975 934 921 
3 1976 779 1900 
3 2008 1976 765 
3 2053 1977 756 
3 1977 743 1943 
3 2005 1978 770 
3 1978 757 756 
3 1979 626 1903 
3 2006 1979 609 
3 1980 677 1870 
3 2016 1980 691 
3 1981 691 1906 
3 2011 1981 705 
3 1982 717 1907 
3 2007 1982 731 
3 1983 753 1908 
3 2009 1983 739 
3 2052 1984 796 
3 1984 783 782 
3 1985 844 1910 
3 2054 1985 830 
3 1986 821 1911 
3 2055 1986 835 
3 1987 870 1912 
3 2056 1987 856 
3 1988 847 1913 
3 2057 1988 861 
3 1989 909 1914 
3 2058 1989 895 
3 1990 886 1915 
3 2059 1990 900 
3 1991 932 1885 
3 1991 945 946 
3 1993 1992 930 
3 1992 943 944 
3 1993 929 942 
3 1993 943 1992 
3 1994 927 1893 
3 1994 940 941 
3 1995 818 1918 
3 2060 1995 804 
3 2067 1996 2017 
3 2066 1996 645 
3 2121 1997 620 
3 2121 2071 1997 
3 1998 583 1958 
3 1998 594 1844 
3 1999 1922 654 
3 2001 1999 655 
3 2189 2134 2000 
3 2069 2000 653 
3 2001 642 1926 
3 2068 2003 2001 
3 2002 651 1904 
3 2002 652 1851 
3 2087 2004 656 
3 2003 643 1929 
3 2004 643 2003 
3 2087 2082 2004 
3 2090 2005 771 
3 2005 757 1978 
3 2092 2006 608 
3 2006 627 1979 
3 2007 718 1982 
3 2007 731 732 
3 2008 778 1976 
3 2008 765 764 
3 2094 2009 738 
3 2009 752 1983 
3 2061 606 1934 
3 2010 583 1841 
3 2219 2011 706 
3 2011 692 1981 
3 2012 622 648 
3 2012 649 1955 
3 2013 661 674 
3 2013 675 1954 
3 2170 2136 2014 
3 2014 665 1960 
3 2096 2015 687 
3 2015 701 1961 
3 2095 2016 692 
3 2016 678 1980 
3 2067 2017 644 
3 2017 618 1937 
3 2064 2063 2018 
3 2018 661 1931 
3 2062 2019 674 
3 2019 687 1932 
3 2020 766 753 
3 2084 2020 752 
3 2080 2021 726 
3 2021 740 727 
3 2022 769 1964 
3 2106 2022 783 
3 2023 809 796 
3 2023 795 808 
3 2079 2024 744 
3 2024 730 743 
3 2025 848 835 
3 2025 834 847 
3 2026 874 861 
3 2026 860 873 
3 2050 2027 913 
3 2027 899 912 
3 2028 882 895 
3 2028 896 883 
3 2029 843 856 
3 2029 857 844 
3 2030 817 830 
3 2030 831 818 
3 2078 2031 791 
3 2031 805 792 
3 2077 2032 714 
3 2032 728 715 
3 2049 2033 586 
3 2033 610 587 
3 2034 585 592 
3 2034 593 1958 
3 2035 623 1959 
3 2083 2035 627 
3 2081 2036 718 
3 2036 704 717 
3 2037 715 702 
3 2089 2037 701 
3 2038 792 1941 
3 2085 2038 778 
3 2039 808 1965 
3 2110 2039 822 
3 2040 883 1966 
3 2111 2040 869 
3 2041 873 1967 
3 2112 2041 887 
3 2042 922 909 
3 2042 909 1989 
3 2099 2043 902 
3 2043 916 903 
3 2044 905 918 
3 2044 919 906 
3 2045 914 927 
3 2045 928 1969 
3 2046 916 929 
3 2047 2046 930 
3 2047 917 2046 
3 2047 931 918 
3 2048 919 932 
3 2048 933 1975 
3 2049 609 2033 
3 2088 2049 585 
3 2050 900 2027 
3 2050 914 901 
3 2102 2051 907 
3 2051 921 908 
3 2052 783 1984 
3 2075 2052 797 
3 2053 744 2024 
3 2053 743 1977 
3 2054 843 1985 
3 2074 2054 829 
3 2055 822 1986 
3 2073 2055 836 
3 2056 869 1987 
3 2114 2056 855 
3 2057 848 1988 
3 2115 2057 862 
3 2058 908 1989 
3 2113 2058 894 
3 2059 887 1990 
3 2116 2059 901 
3 2060 817 1995 
3 2076 2060 803 
3 2145 2070 2061 
3 2145 2061 607 
3 2151 2062 673 
3 2151 2065 2062 
3 2152 2063 2064 
3 2137 2063 660 
3 2064 2018 648 
3 2152 2064 647 
3 2131 2065 686 
3 2065 2019 2062 
3 2177 2066 2135 
3 2066 619 1996 
3 2119 644 2082 
3 2067 645 1996 
3 2122 2068 655 
3 2068 656 2003 
3 2069 666 2000 
3 2069 653 1927 
3 2070 584 1958 
3 2070 583 2010 
3 2071 629 1934 
3 2071 630 1938 
3 2134 2072 654 
3 2166 2133 2072 
3 2146 2073 837 
3 2073 823 2055 
3 2147 2074 828 
3 2074 842 2054 
3 2148 2075 798 
3 2075 784 2052 
3 2149 2076 802 
3 2076 816 2060 
3 2077 713 726 
3 2077 727 2032 
3 2078 790 803 
3 2078 804 2031 
3 2079 745 732 
3 2079 731 2024 
3 2080 739 2021 
3 2080 726 725 
3 2081 719 706 
3 2081 705 2036 
3 2207 657 2176 
3 2082 644 2004 
3 2083 628 621 
3 2083 622 2035 
3 2084 751 764 
3 2084 765 2020 
3 2085 777 790 
3 2085 791 2038 
3 2086 757 758 
3 2086 758 745 
3 2188 2118 656 
3 2087 657 2082 
3 2145 2088 584 
3 2088 608 2049 
3 2089 700 713 
3 2089 714 2037 
3 2175 2090 771 
3 2090 758 2005 
3 2091 777 2008 
3 2192 2127 764 
3 2132 608 2088 
3 2092 628 2006 
3 2093 719 2007 
3 2193 2130 732 
3 2197 2126 738 
3 2094 751 2009 
3 2179 2095 692 
3 2095 679 2016 
3 2131 687 2065 
3 2096 700 2015 
3 2116 2097 889 
3 2097 903 890 
3 2098 892 905 
3 2113 2098 906 
3 2099 901 914 
3 2099 915 2043 
3 2100 903 916 
3 2101 2100 917 
3 2101 904 2100 
3 2101 918 905 
3 2102 906 919 
3 2102 920 2051 
3 2103 881 894 
3 2103 895 882 
3 2104 849 836 
3 2104 835 848 
3 2105 875 862 
3 2105 861 874 
3 2106 770 2022 
3 2143 2106 784 
3 2140 2107 842 
3 2107 856 843 
3 2141 2108 816 
3 2108 830 817 
3 2142 2109 810 
3 2109 796 809 
3 2110 809 2039 
3 2144 2110 823 
3 2111 882 2040 
3 2156 2111 868 
3 2112 874 2041 
3 2158 2112 888 
3 2113 907 2058 
3 2113 893 2098 
3 2114 868 2056 
3 2139 2114 854 
3 2115 849 2057 
3 2164 2115 863 
3 2116 888 2059 
3 2116 902 2097 
3 2117 117 118 
3 2117 715 728 
3 2215 2118 2188 
3 2176 2118 670 
3 2165 2119 2120 
3 2119 645 2067 
3 2120 2082 657 
3 2165 2120 658 
3 2169 620 621 
3 2121 629 2071 
3 2133 2122 655 
3 2208 2188 2122 
3 2150 2123 2132 
3 2169 2123 629 
3 2216 2124 693 
3 2180 2124 680 
3 2191 2125 2130 
3 2181 2125 720 
3 2168 2126 737 
3 2168 2129 2126 
3 2167 2127 763 
3 2167 2128 2127 
3 2196 2128 776 
3 2128 2091 2127 
3 2192 2129 750 
3 2129 2094 2126 
3 2130 2093 732 
3 2191 2130 733 
3 2277 2131 686 
3 2182 2131 699 
3 2132 2092 608 
3 2150 2132 607 
3 2208 2133 668 
3 2133 655 2072 
3 2134 654 2000 
3 2166 2134 667 
3 2201 645 2165 
3 2177 2135 646 
3 2136 666 2069 
3 2136 665 2014 
3 2178 2137 660 
3 2137 674 661 
3 2138 648 622 
3 2138 621 647 
3 2190 2139 853 
3 2139 867 2114 
3 2140 841 854 
3 2140 855 2107 
3 2141 815 828 
3 2141 829 2108 
3 2142 811 798 
3 2142 797 2109 
3 2143 785 772 
3 2143 771 2106 
3 2144 824 811 
3 2144 810 2110 
3 2145 584 2070 
3 2145 607 2088 
3 2204 2146 837 
3 2146 824 2073 
3 2221 2147 828 
3 2147 841 2074 
3 2223 2174 798 
3 2148 785 2075 
3 2185 2172 802 
3 2149 815 2076 
3 2150 629 2123 
3 2150 607 1934 
3 2264 672 2256 
3 2151 686 2065 
3 2201 2152 646 
3 2152 660 2063 
3 2184 2153 850 
3 2153 836 849 
3 2154 876 863 
3 2154 862 875 
3 2185 2155 789 
3 2155 803 790 
3 2156 881 2111 
3 2187 2156 867 
3 2157 894 881 
3 2157 881 2156 
3 2158 875 2112 
3 2159 2158 889 
3 2159 876 2158 
3 2159 890 877 
3 2160 879 892 
3 2160 893 880 
3 2161 890 903 
3 2162 2161 904 
3 2162 891 2161 
3 2162 905 892 
3 2186 2163 712 
3 2163 726 713 
3 2164 850 2115 
3 2183 2164 864 
3 2239 2201 2165 
3 2165 645 2119 
3 2231 667 2205 
3 2166 668 2133 
3 2167 776 2128 
3 2167 763 762 
3 2305 2168 737 
3 2305 2304 2168 
3 2169 621 628 
3 2169 628 2123 
3 2180 679 2124 
3 2170 666 2136 
3 2218 2171 2174 
3 2222 2171 786 
3 2203 2172 801 
3 2203 2173 2172 
3 2224 2173 814 
3 2173 2149 2172 
3 2174 2148 798 
3 2218 2174 799 
3 2209 2175 772 
3 2175 759 758 
3 2244 2207 2176 
3 2176 657 2118 
3 2202 646 647 
3 2177 620 1997 
3 2262 2178 660 
3 2178 673 2137 
3 2179 692 2011 
3 2179 693 2124 
3 2205 2180 680 
3 2180 666 2170 
3 2251 2181 720 
3 2181 706 719 
3 2206 2182 699 
3 2182 713 700 
3 2217 2183 865 
3 2183 851 2164 
3 2184 851 838 
3 2184 837 2153 
3 2185 788 801 
3 2185 802 2155 
3 2186 725 2163 
3 2315 2186 712 
3 2187 880 2156 
3 2187 867 866 
3 2215 2188 669 
3 2188 656 2122 
3 2189 667 2134 
3 2189 666 2180 
3 2190 866 2139 
3 2190 853 852 
3 2191 720 2125 
3 2300 2191 733 
3 2213 2192 750 
3 2192 764 751 
3 2214 2193 746 
3 2193 732 745 
3 2194 877 864 
3 2194 863 876 
3 2211 2195 840 
3 2195 854 841 
3 2212 2196 776 
3 2196 790 777 
3 2307 2197 724 
3 2197 738 725 
3 2198 877 890 
3 2199 2198 891 
3 2199 878 2198 
3 2199 892 879 
3 2200 746 745 
3 2200 745 758 
3 2201 659 2152 
3 2201 2135 645 
3 2202 620 2177 
3 2202 647 621 
3 2203 800 813 
3 2203 814 2173 
3 2234 2204 838 
3 2204 825 824 
3 2248 2231 2205 
3 2205 667 2180 
3 2316 2315 2206 
3 2206 712 2182 
3 2244 2228 2207 
3 2207 658 2120 
3 2231 2230 668 
3 2208 669 2188 
3 2209 773 760 
3 2209 759 2175 
3 2210 759 760 
3 2241 2210 760 
3 2211 839 852 
3 2211 853 2195 
3 2212 775 788 
3 2212 789 2196 
3 2213 750 749 
3 2306 2213 749 
3 2214 747 734 
3 2214 733 2193 
3 2250 669 2208 
3 2215 670 2118 
3 2246 2216 693 
3 2216 680 2124 
3 2217 852 2183 
3 2217 865 2190 
3 2218 800 787 
3 2218 786 2171 
3 2233 706 2181 
3 2219 693 2011 
3 2226 2220 878 
3 2220 864 877 
3 2240 2221 827 
3 2221 840 2195 
3 2222 772 785 
3 2238 2222 786 
3 2236 2223 812 
3 2223 798 811 
3 2224 828 815 
3 2237 2224 814 
3 2225 852 839 
3 2225 839 2234 
3 2226 865 2220 
3 2226 879 866 
3 2227 811 824 
3 2235 2227 825 
3 2253 2249 672 
3 2228 658 2207 
3 2269 2229 682 
3 2269 2266 2229 
3 2259 2250 2230 
3 2259 2230 681 
3 2231 681 2230 
3 2231 668 2166 
3 2245 2232 2233 
3 2246 2232 694 
3 2233 2219 706 
3 2245 2233 707 
3 2234 839 826 
3 2234 825 2204 
3 2254 2235 826 
3 2235 812 2227 
3 2236 813 800 
3 2236 799 2223 
3 2254 2237 813 
3 2237 827 2224 
3 2238 787 774 
3 2238 773 2222 
3 2239 658 2228 
3 2239 659 2201 
3 2240 826 839 
3 2240 840 2221 
3 2258 2241 760 
3 2241 747 2210 
3 2242 787 800 
3 2242 801 788 
3 2243 775 762 
3 2252 2243 761 
3 2260 2244 670 
3 2244 671 2228 
3 2285 2282 2245 
3 2245 694 2232 
3 2257 2246 694 
3 2248 2246 681 
3 2267 2247 2258 
3 2261 2247 748 
3 2248 680 2216 
3 2248 681 2231 
3 2265 2256 671 
3 2262 2253 672 
3 2250 682 2229 
3 2250 2229 669 
3 2292 2291 2251 
3 2251 707 2181 
3 2252 774 2243 
3 2258 2252 761 
3 2253 659 2239 
3 2253 2228 2249 
3 2254 826 2237 
3 2254 813 2235 
3 2255 774 787 
3 2255 788 775 
3 2271 2256 2265 
3 2264 2256 685 
3 2278 2273 682 
3 2257 681 2246 
3 2258 760 2252 
3 2267 2258 761 
3 2259 681 2257 
3 2259 682 2250 
3 2266 2260 670 
3 2270 2265 2260 
3 2301 2261 748 
3 2261 734 747 
3 2262 659 2253 
3 2262 672 673 
3 2263 761 2243 
3 2306 2263 762 
3 2268 2264 685 
3 2264 2151 672 
3 2265 671 2260 
3 2271 2265 684 
3 2270 2266 683 
3 2266 670 2215 
3 2267 748 2247 
3 2267 761 2263 
3 2272 2268 685 
3 2280 2268 2272 
3 2278 682 2259 
3 2269 683 2266 
3 2279 683 2269 
3 2270 684 2265 
3 2276 684 2275 
3 2276 2271 684 
3 2280 2277 2268 
3 2272 685 2271 
3 2281 2279 2273 
3 2279 2274 683 
3 2283 2274 696 
3 2283 2275 2274 
3 2276 2275 697 
3 2275 2270 2274 
3 2276 697 2272 
3 2276 2272 2271 
3 2277 699 2131 
3 2277 686 2268 
3 2282 2278 2257 
3 2278 695 2273 
3 2281 2273 695 
3 2279 696 2274 
3 2280 2272 698 
3 2280 698 2206 
3 2287 695 2285 
3 2281 696 2279 
3 2282 695 2278 
3 2282 694 2245 
3 2289 696 2284 
3 2289 2283 696 
3 2288 2284 2287 
3 2289 2286 2283 
3 2288 2287 708 
3 2285 695 2282 
3 2314 2290 710 
3 2286 697 2283 
3 2287 2284 2281 
3 2287 2281 695 
3 2292 2288 708 
3 2294 2288 2292 
3 2289 2284 709 
3 2293 2289 709 
3 2316 2290 2314 
3 2290 697 2286 
3 2291 708 2285 
3 2291 707 2251 
3 2294 2292 721 
3 2292 708 2291 
3 2294 2293 709 
3 2312 2293 723 
3 2294 722 2293 
3 2294 709 2288 
3 2297 2295 721 
3 2297 2296 2295 
3 2302 735 2301 
3 2296 722 2295 
3 2297 721 2191 
3 2299 2297 734 
3 2308 2298 736 
3 2310 2298 723 
3 2299 735 2296 
3 2299 734 2261 
3 2300 733 2214 
3 2300 734 2191 
3 2303 2302 2301 
3 2301 735 2261 
3 2304 2302 749 
3 2302 736 2298 
3 2303 749 2302 
3 2303 748 2267 
3 2304 736 2302 
3 2304 749 2168 
3 2308 2305 2307 
3 2305 736 2304 
3 2306 762 2213 
3 2306 749 2303 
3 2307 737 2197 
3 2311 2308 2307 
3 2308 723 2298 
3 2308 736 2305 
3 2309 724 2197 
3 2309 725 2186 
3 2310 723 2293 
3 2310 722 2298 
3 2313 2311 724 
3 2313 2312 2311 
3 2312 710 2293 
3 2312 723 2311 
3 2313 724 2309 
3 2314 2313 711 
3 2314 710 2312 
3 2316 2314 711 
3 2315 711 2186 
3 2315 712 2206 
3 2316 698 2290 
3 2316 711 2315 
3 2749 167 166 
3 3223 3054 3006 
3 3281 3055 2336 
3 3341 2335 3232 
3 3408 2323 3395 
3 3489 2322 2321 
3 3409 2321 2320 
3 3421 2320 2319 
3 3410 2319 2318 
3 3411 2318 2317 
3 3382 207 208 
3 3343 208 209 
3 3373 3343 209 
3 3373 209 210 
3 3373 2340 3343 
3 3460 2354 2353 
3 3498 2368 2367 
3 3549 2382 2381 
3 3580 2396 2395 
3 3678 2410 3658 
3 3704 2424 3706 
3 2438 2437 2451 
3 3650 3624 2452 
3 3572 2466 2465 
3 3563 2480 2479 
3 3490 2494 2493 
3 3428 2508 2507 
3 276 2521 275 
3 3386 276 277 
3 3386 277 3360 
3 3386 3360 2508 
3 3461 2494 2495 
3 3507 2480 2481 
3 3551 2466 2467 
3 3661 3583 3606 
3 3666 2438 2439 
3 2424 2425 2411 
3 2410 2411 2397 
3 3653 3625 2396 
3 3574 2382 2383 
3 3564 2368 2369 
3 3491 2354 2355 
3 3429 2340 2341 
3 3430 2340 2353 
3 3430 2353 2354 
3 4 206 135 
3 135 206 2317 
3 136 2318 137 
3 3397 138 137 
3 3396 139 138 
3 140 2321 141 
3 141 2322 142 
3 3395 143 142 
3 3402 2324 3394 
3 3231 2324 3096 
3 2715 2675 5 
3 2660 157 156 
3 2705 339 2694 
3 2717 2715 148 
3 3231 3096 2325 
3 3402 143 2323 
3 3395 142 2322 
3 2322 141 2321 
3 3404 2321 140 
3 3397 3396 138 
3 3397 137 2318 
3 3398 2318 136 
3 206 207 2317 
3 210 211 2353 
3 3356 211 212 
3 3437 2367 2366 
3 3499 2381 2380 
3 3550 2395 2394 
3 3663 3584 3607 
3 3642 2423 2422 
3 3704 3707 2437 
3 2451 2450 2464 
3 3648 3620 2465 
3 3570 2479 2478 
3 3542 2493 2492 
3 3492 2507 2506 
3 3431 2521 2520 
3 3423 274 3363 
3 3363 275 2521 
3 3374 212 213 
3 3374 2366 3356 
3 3438 2380 2379 
3 3500 2394 2393 
3 3523 2408 2407 
3 3642 3610 3609 
3 3692 2436 2435 
3 2450 2449 2463 
3 3691 2464 2463 
3 3647 3619 2478 
3 3568 2492 2491 
3 3543 2506 2505 
3 3493 2520 2519 
3 3470 2534 2533 
3 273 2547 272 
3 3423 273 274 
3 213 214 2379 
3 3375 2379 214 
3 3439 2393 2392 
3 3501 2407 2406 
3 3524 2421 2420 
3 3608 2434 3585 
3 3657 2448 3629 
3 3708 2463 2462 
3 3681 2477 2476 
3 3646 3616 2491 
3 3567 2505 2504 
3 3544 2519 2518 
3 3526 2533 2532 
3 3432 2547 2546 
3 3357 271 3391 
3 3391 272 2547 
3 3375 215 3355 
3 3375 3355 2392 
3 3441 2406 2405 
3 3502 2420 2419 
3 3522 2434 2433 
3 3662 3581 3629 
3 3655 2461 3627 
3 3705 2476 3708 
3 3680 2490 2489 
3 3644 3615 2504 
3 3598 2518 2517 
3 3593 2532 2531 
3 3494 2546 2545 
3 3433 2560 2559 
3 3427 270 3357 
3 3357 270 271 
3 3376 216 217 
3 3376 2405 3355 
3 3443 2419 2418 
3 3504 2433 2432 
3 3552 2447 2446 
3 3579 2461 2460 
3 3652 2474 3626 
3 3702 2489 3705 
3 3695 2503 2502 
3 3688 3614 2517 
3 3630 2531 2530 
3 3545 2545 2544 
3 3495 2559 2558 
3 3471 2573 2572 
3 3358 268 2586 
3 3427 269 270 
3 217 218 2418 
3 3354 218 219 
3 3445 2432 2431 
3 3506 2446 2445 
3 3554 2460 2459 
3 3578 2474 2473 
3 3651 2487 3623 
3 3690 2502 2501 
3 3685 3672 2516 
3 3668 2530 2529 
3 3599 2544 2543 
3 3546 2558 2557 
3 3527 2572 2571 
3 3434 2586 2585 
3 3422 267 3358 
3 3358 267 268 
3 3377 219 220 
3 3377 2431 3354 
3 3447 2445 2444 
3 3508 2459 2458 
3 3565 2473 2472 
3 3576 2487 2486 
3 3645 2500 3621 
3 3700 2515 2514 
3 3703 2529 3696 
3 3611 2543 2542 
3 3600 2557 2556 
3 3594 2571 2570 
3 3496 2585 2584 
3 3472 2599 2598 
3 3425 265 2612 
3 3422 266 267 
3 220 221 2444 
3 3378 2444 221 
3 3449 2458 2457 
3 3519 2472 2471 
3 3555 2486 2485 
3 3573 2500 2499 
3 3643 2513 3618 
3 3684 2527 3671 
3 3683 3669 2542 
3 3639 2556 2555 
3 3631 2570 2569 
3 3547 2584 2583 
3 3528 2598 2597 
3 3478 2612 3472 
3 3359 264 2625 
3 3425 264 265 
3 3378 222 3353 
3 3378 3353 2457 
3 3462 2471 2470 
3 3509 2485 2484 
3 3556 2499 2498 
3 3571 2513 2512 
3 3687 3613 3671 
3 3682 2540 3670 
3 3698 3665 2555 
3 3673 2569 2568 
3 3601 2583 2582 
3 3595 2597 2596 
3 3536 2611 3528 
3 3435 2625 2624 
3 3390 262 263 
3 3359 263 264 
3 3370 223 224 
3 3370 2470 3353 
3 3451 2484 2483 
3 3510 2498 2497 
3 3557 2512 2511 
3 3602 2526 2525 
3 3612 2540 2539 
3 3697 3664 3693 
3 3675 2568 2567 
3 3673 3637 2582 
3 3632 2596 2595 
3 3597 2610 3595 
3 3484 2624 2623 
3 3436 2638 2637 
3 260 261 2651 
3 262 2651 261 
3 224 225 2483 
3 3344 2483 225 
3 3452 2497 2496 
3 3511 2511 2510 
3 3558 2525 2524 
3 3603 2539 2538 
3 3641 2553 2552 
3 3694 2567 2566 
3 3636 2581 2580 
3 3590 2595 2594 
3 3632 3592 2609 
3 3541 2623 2622 
3 3420 2637 2636 
3 3467 259 2651 
3 8 261 260 
3 3381 3344 226 
3 3381 2496 3344 
3 3453 2510 2509 
3 3512 2524 2523 
3 3559 2538 2537 
3 3604 2552 2551 
3 3674 2566 2565 
3 3694 3676 2580 
3 3589 2594 2593 
3 3535 2608 2607 
3 3538 2622 2621 
3 3497 2636 2635 
3 3345 2650 2649 
3 3467 258 259 
3 227 228 2509 
3 3371 2509 228 
3 3454 2523 2522 
3 3513 2537 2536 
3 3560 2551 2550 
3 3633 2565 2564 
3 3674 3635 2579 
3 3638 2593 2592 
3 3534 2607 2606 
3 3483 2621 3535 
3 3486 2635 2634 
3 2649 2648 257 
3 3345 257 258 
3 3371 229 3346 
3 3371 3346 2522 
3 3455 2536 2535 
3 3514 2550 2549 
3 3596 2564 2563 
3 3633 3605 2578 
3 3635 3588 2592 
3 3591 2606 2605 
3 3482 2620 2619 
3 3419 2634 3483 
3 3466 255 2648 
3 257 2648 256 
3 3346 230 2535 
3 3372 2535 231 
3 3456 2549 2548 
3 3529 2563 2562 
3 3596 3561 2577 
3 3587 2591 2590 
3 3533 2605 2604 
3 3537 2619 2618 
3 3418 2633 2632 
3 3347 2647 2646 
3 3466 254 255 
3 3372 232 3348 
3 3372 3348 2548 
3 3473 2562 2561 
3 3529 3515 2576 
3 3566 2590 2589 
3 3587 3532 2604 
3 3481 2618 3533 
3 3485 2632 2631 
3 3383 252 253 
3 3347 253 254 
3 3424 3348 233 
3 3424 233 234 
3 3473 3457 2575 
3 3520 2589 2588 
3 3562 2603 2602 
3 3480 2617 2616 
3 3417 2631 3481 
3 3465 2645 2644 
3 252 2645 251 
3 3424 2561 3348 
3 3379 2574 235 
3 3463 2588 2587 
3 3516 2602 2601 
3 3540 2616 2615 
3 3416 2630 2629 
3 3350 2644 2643 
3 3465 250 251 
3 3379 236 3349 
3 3349 236 237 
3 3458 2601 2600 
3 3479 2615 2614 
3 3488 2629 2628 
3 3384 248 249 
3 3350 249 250 
3 3379 3349 2587 
3 3380 2600 238 
3 3459 2614 2613 
3 3479 3415 2628 
3 3464 2642 2641 
3 248 2642 247 
3 3380 239 3351 
3 3380 3351 2613 
3 3459 3414 2627 
3 3352 2641 2640 
3 3464 246 247 
3 3351 240 2626 
3 3426 240 241 
3 3385 244 245 
3 3352 245 246 
3 3426 2626 240 
3 2639 242 243 
3 244 2639 243 
3 242 7 243 
3 3392 3360 278 
3 3392 2495 3360 
3 3448 2481 2482 
3 3505 2467 2468 
3 3521 2453 2454 
3 3640 2439 3606 
3 2425 2426 2412 
3 2411 2412 2398 
3 2397 2398 2384 
3 3649 3622 2383 
3 3569 2369 2370 
3 3564 3539 2355 
3 3491 3474 2341 
3 3429 3411 2328 
3 3429 2328 3343 
3 279 280 2482 
3 3387 2482 280 
3 3446 2468 2469 
3 3503 2454 2455 
3 3525 2440 2441 
3 3689 2426 3640 
3 2412 2413 2399 
3 2398 2399 2385 
3 3699 2384 2385 
3 3634 3617 2370 
3 3531 2356 2357 
3 3487 2342 2343 
3 3410 2329 2330 
3 3474 2330 2329 
3 3387 281 3364 
3 3387 3364 2469 
3 3444 2455 2456 
3 3477 2441 2442 
3 3469 2427 2428 
3 2413 2414 2400 
3 2399 2400 2386 
3 2385 2386 3709 
3 3667 2371 2372 
3 3582 2357 2358 
3 3475 2343 2344 
3 3421 2330 3487 
3 3421 3487 2331 
3 3388 282 283 
3 3388 2456 3364 
3 3442 2442 2443 
3 3413 2428 2429 
3 3407 2414 2415 
3 2400 2401 2387 
3 3406 2386 2387 
3 2372 2373 2359 
3 3677 2358 2359 
3 3530 2344 2345 
3 3409 2331 2332 
3 3475 2332 2331 
3 283 284 2443 
3 3365 2443 284 
3 3440 2429 2430 
3 3405 3401 2402 
3 3400 2401 2402 
3 3399 2387 2388 
3 3403 2373 2374 
3 2359 2360 2346 
3 3476 2345 2346 
3 3489 2332 2333 
3 3530 2333 2332 
3 3389 285 286 
3 3389 2430 3365 
3 3412 2416 2417 
3 3401 3330 3369 
3 3328 2388 2389 
3 3368 3342 3367 
3 3335 2360 2361 
3 3366 2347 3339 
3 3408 2333 2334 
3 3476 2334 2333 
3 286 287 2417 
3 3393 287 288 
3 3308 2403 2404 
3 3340 3260 3315 
3 3323 2376 3304 
3 3338 3333 3334 
3 3329 3316 3325 
3 3366 3341 2334 
3 3366 3339 2335 
3 3361 288 289 
3 3361 2404 288 
3 3259 3135 3230 
3 3282 2377 3228 
3 3326 3313 3314 
3 3312 3305 3291 
3 3232 2336 3055 
3 3339 3325 2335 
3 3362 290 3229 
3 3229 290 2785 
3 3134 3052 3098 
3 3279 3227 3254 
3 3301 3300 3292 
3 3193 3184 2326 
3 3303 3296 2336 
3 2718 292 2716 
3 2783 2716 2781 
3 3168 3133 3132 
3 3112 3077 2339 
3 3247 3225 3245 
3 3287 3272 3270 
3 2653 9 294 
3 2677 297 298 
3 2779 2756 2686 
3 2709 2704 336 
3 2838 2775 2836 
3 2652 303 304 
3 2701 316 2700 
3 2710 326 2693 
3 2660 2659 157 
3 3112 3101 3077 
3 2710 325 326 
3 3491 2342 3474 
3 3539 2343 2342 
3 3531 2344 2343 
3 3582 2345 2344 
3 3677 2346 2345 
3 2347 2346 2360 
3 3335 2348 3329 
3 3334 3321 2348 
3 3322 3314 3306 
3 3293 3280 3256 
3 3130 3093 3090 
3 3517 2367 2368 
3 3517 2354 3460 
3 3564 2356 3539 
3 3569 2357 2356 
3 3634 2357 3617 
3 3667 2359 2358 
3 2360 2359 2373 
3 3403 2361 2360 
3 3367 3342 3338 
3 3313 3304 2363 
3 3257 2364 3256 
3 3053 3052 2954 
3 3460 2366 2367 
3 3548 2381 2382 
3 3548 2368 3498 
3 3574 2370 2369 
3 3686 3622 3649 
3 3699 2372 2371 
3 2373 2372 3709 
3 3406 2374 2373 
3 3399 2375 3368 
3 3336 3328 2376 
3 3307 3260 2377 
3 3230 3097 2377 
3 3437 2379 2380 
3 3498 2380 2381 
3 3577 2395 2396 
3 3577 2383 2382 
3 3625 2384 2383 
3 2385 2384 2398 
3 2386 2385 2399 
3 2387 2386 2400 
3 2388 2387 2401 
3 3400 2389 2388 
3 3340 3330 2390 
3 3308 2391 3259 
3 3438 2392 2393 
3 3499 2393 2394 
3 3549 2394 2395 
3 3658 3628 2409 
3 3628 2397 3653 
3 2398 2397 2411 
3 2399 2398 2412 
3 2400 2399 2413 
3 2401 2400 2414 
3 3407 2402 2401 
3 3468 3401 3405 
3 3412 2404 2403 
3 3439 2405 2406 
3 3500 2406 2407 
3 3550 2407 2408 
3 3663 3580 2408 
3 3704 3706 2423 
3 3706 2410 2423 
3 2412 2411 2425 
3 2413 2412 2426 
3 3689 2414 2413 
3 3469 2415 2414 
3 3413 2416 2415 
3 3440 2417 2416 
3 3441 2418 2419 
3 3501 2419 2420 
3 3523 2420 2421 
3 3607 3584 2421 
3 3678 2422 2423 
3 2437 2438 2424 
3 2424 2438 2425 
3 3666 2426 2425 
3 3689 3640 2427 
3 3525 2428 2427 
3 3477 2429 2428 
3 3442 2430 2429 
3 3443 2431 2432 
3 3502 2432 2433 
3 3524 2433 2434 
3 3609 3586 2434 
3 3642 2435 2436 
3 3704 2436 3707 
3 3679 2451 3650 
3 3679 2438 2451 
3 3606 3583 2440 
3 3521 2441 2440 
3 3503 2442 2441 
3 3444 2443 2442 
3 3445 2444 2445 
3 3504 2445 2446 
3 3522 2446 2447 
3 3662 3608 3585 
3 3692 2448 3657 
3 3707 2449 2450 
3 2450 2451 2437 
3 3575 2465 2466 
3 3624 3575 2452 
3 3551 2454 2453 
3 3505 2455 2454 
3 3446 2456 2455 
3 3447 2457 2458 
3 3506 2458 2459 
3 3552 2459 2460 
3 3581 2460 2461 
3 3657 3629 2462 
3 2462 2463 2449 
3 2463 2464 2450 
3 3650 3648 2465 
3 3553 2479 2480 
3 3553 2467 2466 
3 3507 2468 2467 
3 3448 2469 2468 
3 3449 2470 2471 
3 3508 2471 2472 
3 3554 2472 2473 
3 3579 2473 2474 
3 3655 3627 2475 
3 3705 3708 2475 
3 3691 2476 2477 
3 3691 3659 3648 
3 3572 2478 2479 
3 3518 2493 2494 
3 3518 2481 2480 
3 3461 2482 2481 
3 3462 2483 2484 
3 3519 2484 2485 
3 3565 2485 2486 
3 3578 2486 2487 
3 3652 3626 2488 
3 3702 3705 2488 
3 3681 2489 2490 
3 3681 3656 3647 
3 3570 2491 2492 
3 3563 2492 2493 
3 3450 2507 2508 
3 3450 2495 2494 
3 3451 2496 2497 
3 3509 2497 2498 
3 3555 2498 2499 
3 3576 2499 2500 
3 3651 3623 2500 
3 3702 2501 2502 
3 3680 2502 2503 
3 3680 3654 3646 
3 3568 2504 2505 
3 3542 2505 2506 
3 3490 2506 2507 
3 3452 2509 2510 
3 3510 2510 2511 
3 3556 2511 2512 
3 3573 2512 2513 
3 3660 3621 2513 
3 3690 2514 2515 
3 3695 2515 3685 
3 3688 3615 3644 
3 3567 2517 2518 
3 3543 2518 2519 
3 3492 2519 2520 
3 3428 2520 2521 
3 3453 2522 2523 
3 3511 2523 2524 
3 3557 2524 2525 
3 3571 2525 2526 
3 3687 3643 3618 
3 3700 2527 3684 
3 3696 3672 3685 
3 3614 2529 2530 
3 3598 2530 2531 
3 3544 2531 2532 
3 3493 2532 2533 
3 3431 2533 2534 
3 3454 2535 2536 
3 3512 2536 2537 
3 3558 2537 2538 
3 3602 2538 2539 
3 3613 2539 2540 
3 3684 3671 2540 
3 3703 3696 2528 
3 3668 2542 2543 
3 3630 2543 2544 
3 3593 2544 2545 
3 3526 2545 2546 
3 3470 2546 2547 
3 3455 2548 2549 
3 3513 2549 2550 
3 3559 2550 2551 
3 3603 2551 2552 
3 3612 2552 2553 
3 3697 3682 3670 
3 3698 3669 3683 
3 3611 2555 2556 
3 3599 2556 2557 
3 3545 2557 2558 
3 3494 2558 2559 
3 3432 2559 2560 
3 3456 2561 2562 
3 3514 2562 2563 
3 3560 2563 2564 
3 3604 2564 2565 
3 3641 2565 2566 
3 3664 2566 2567 
3 3665 2567 2568 
3 3639 2568 2569 
3 3600 2569 2570 
3 3546 2570 2571 
3 3495 2571 2572 
3 3433 2572 2573 
3 3473 2574 3457 
3 3529 2575 3515 
3 3596 2576 3561 
3 3633 2577 3605 
3 3674 2578 3635 
3 3694 2579 3676 
3 3675 2580 2581 
3 3673 2581 3637 
3 3631 2582 2583 
3 3594 2583 2584 
3 3527 2584 2585 
3 3471 2585 2586 
3 3457 2587 2588 
3 3515 2588 2589 
3 3561 2589 2590 
3 3605 2590 2591 
3 3635 2591 3588 
3 3676 2592 2593 
3 3636 2593 2594 
3 3637 2594 2595 
3 3601 2595 2596 
3 3547 2596 2597 
3 3496 2597 2598 
3 3434 2598 2599 
3 3463 2600 2601 
3 3520 2601 2602 
3 3566 2602 2603 
3 3587 2603 3532 
3 3588 2604 2605 
3 3638 2605 2606 
3 3589 2606 2607 
3 3590 2607 2608 
3 3632 2608 3592 
3 3597 3595 2609 
3 3536 3528 2610 
3 3478 3472 2611 
3 3458 2613 2614 
3 3516 2614 2615 
3 3562 2615 2616 
3 3532 2616 2617 
3 3481 3533 2617 
3 3591 2618 2619 
3 3534 2619 2620 
3 3483 3535 2620 
3 3592 2621 2622 
3 3597 2622 2623 
3 3536 2623 2624 
3 3478 2624 2625 
3 3459 2626 3414 
3 3479 2627 3415 
3 3540 2628 2629 
3 3480 2629 2630 
3 3417 3481 2630 
3 3537 2631 2632 
3 3482 2632 2633 
3 3419 3483 2633 
3 3538 2634 2635 
3 3541 2635 2636 
3 3484 2636 2637 
3 3435 2637 2638 
3 3414 2639 2640 
3 3415 2640 2641 
3 3488 2641 2642 
3 3416 2642 2643 
3 3417 2643 2644 
3 3485 2644 2645 
3 3418 2645 2646 
3 3419 2646 2647 
3 3486 2647 2648 
3 3497 2648 2649 
3 3420 2649 2650 
3 3436 2650 2651 
3 2896 2662 2795 
3 2662 2661 165 
3 2663 2662 164 
3 2664 2663 163 
3 2665 2664 162 
3 2666 2665 161 
3 2667 2666 160 
3 2668 158 2659 
3 2669 2660 156 
3 2738 2669 2670 
3 2670 2669 155 
3 2671 2670 154 
3 2672 2671 153 
3 2673 2672 152 
3 2674 2673 151 
3 2675 149 5 
3 2784 2717 2719 
3 2719 2717 147 
3 3394 145 144 
3 3404 139 3396 
3 3398 135 2317 
3 241 242 2639 
3 237 238 2600 
3 234 235 2574 
3 230 231 2535 
3 3381 226 227 
3 3353 222 223 
3 3377 3354 219 
3 3355 215 216 
3 3374 3356 212 
3 3382 208 2328 
3 259 260 2651 
3 255 256 2648 
3 3383 253 3347 
3 3384 249 3350 
3 3385 245 3352 
3 3359 3390 263 
3 265 266 2612 
3 268 269 2586 
3 3391 271 272 
3 3363 274 275 
3 3392 278 279 
3 3364 281 282 
3 3365 284 285 
3 3393 288 2404 
3 2785 290 291 
3 2716 293 2714 
3 2714 9 2653 
3 2677 298 2654 
3 2655 299 300 
3 2722 2654 2655 
3 2655 2654 299 
3 2679 301 302 
3 2679 302 2656 
3 2656 303 2652 
3 2681 305 306 
3 2681 306 2657 
3 2657 306 307 
3 2658 2657 307 
3 2683 309 310 
3 311 2683 310 
3 2780 311 312 
3 2780 312 313 
3 312 10 313 
3 350 6 167 
3 2749 350 167 
3 2895 2778 348 
3 2895 348 349 
3 2713 346 347 
3 2685 344 345 
3 2697 344 2685 
3 2697 343 344 
3 2691 341 342 
3 2702 341 2691 
3 2694 339 340 
3 2684 337 338 
3 2709 337 2684 
3 2704 335 336 
3 2751 335 2704 
3 2751 334 335 
3 2687 332 333 
3 2699 332 2687 
3 2688 330 331 
3 2706 330 2688 
3 2750 329 2706 
3 2750 328 329 
3 2711 327 328 
3 2772 2768 2700 
3 2780 2733 311 
3 2686 324 325 
3 2695 324 2686 
3 2690 322 323 
3 2708 322 2690 
3 2696 320 321 
3 2698 320 2696 
3 2692 318 319 
3 2703 318 2692 
3 2700 316 317 
3 2715 5 148 
3 2653 294 295 
3 2747 2714 2653 
3 2680 304 305 
3 2721 2656 2652 
3 2653 295 296 
3 2676 296 297 
3 2740 2653 2676 
3 2677 2676 297 
3 2654 298 299 
3 2678 300 301 
3 2742 2655 2678 
3 2679 2678 301 
3 2656 302 303 
3 2658 307 308 
3 2681 2680 305 
3 2682 308 309 
3 2746 2658 2682 
3 2683 2682 309 
3 2733 2683 311 
3 2780 313 314 
3 314 2701 2780 
3 2661 166 165 
3 2661 2749 166 
3 2737 2667 2668 
3 2659 158 157 
3 2669 156 155 
3 2735 2660 2720 
3 2662 165 164 
3 2663 164 163 
3 2664 163 162 
3 2795 2663 2664 
3 2665 162 161 
3 2795 2664 2725 
3 2666 161 160 
3 2736 2665 2666 
3 2667 160 159 
3 2736 2666 2724 
3 2668 2667 159 
3 2791 2726 2856 
3 2668 159 158 
3 2726 2668 2659 
3 2670 155 154 
3 2808 2738 2804 
3 2671 154 153 
3 2738 2670 2727 
3 2672 153 152 
3 2739 2671 2672 
3 2673 152 151 
3 2739 2672 2728 
3 2674 151 150 
3 2734 2673 2674 
3 2675 2674 150 
3 2675 150 149 
3 2748 2729 2675 
3 2798 2740 2730 
3 2676 2653 296 
3 2741 2654 2722 
3 2741 2677 2654 
3 2857 2742 2731 
3 2678 2655 300 
3 2743 2656 2721 
3 2743 2731 2679 
3 2744 2680 2732 
3 2680 2652 304 
3 2745 2657 2723 
3 2745 2681 2657 
3 2683 2746 2682 
3 2682 2658 308 
3 2705 338 339 
3 2837 2776 2753 
3 2689 345 346 
3 2712 343 2697 
3 2752 2710 2693 
3 2695 2690 323 
3 2707 333 334 
3 2699 2688 331 
3 2699 331 332 
3 2761 2688 2754 
3 2713 2689 346 
3 2774 2689 2713 
3 2689 2685 345 
3 2695 323 324 
3 2708 2696 321 
3 2712 342 343 
3 2702 2694 340 
3 2698 319 320 
3 2703 2700 317 
3 2693 326 327 
3 2890 2889 2830 
3 2702 340 341 
3 2763 2694 2759 
3 2756 2695 2686 
3 2769 2695 2756 
3 2708 321 322 
3 2767 2696 2708 
3 2749 2895 349 
3 2895 2661 2809 
3 2762 2685 2757 
3 2764 2697 2762 
3 2766 2758 2692 
3 2698 2692 319 
3 2773 2687 2760 
3 2773 2699 2687 
3 2703 317 318 
3 2796 2788 2723 
3 2897 2701 2768 
3 2701 315 316 
3 2765 2691 2712 
3 2771 2702 2691 
3 2758 2703 2692 
3 2772 2703 2758 
3 2751 2707 334 
3 2709 336 337 
3 2763 2705 2694 
3 2705 2684 338 
3 2750 2711 328 
3 2706 329 330 
3 2760 2687 2707 
3 2707 2687 333 
3 2755 2708 2690 
3 2767 2708 2755 
3 2753 2709 2684 
3 2776 2709 2753 
3 2779 2710 2752 
3 2710 2686 325 
3 2777 2752 2693 
3 2711 2693 327 
3 2765 2712 2764 
3 2712 2691 342 
3 2778 2713 347 
3 2781 2716 2714 
3 2714 293 9 
3 2717 148 147 
3 2782 2748 2715 
3 2901 2843 2783 
3 2716 292 293 
3 2719 147 146 
3 2784 2782 2717 
3 2843 2785 2718 
3 2718 291 292 
3 2786 2719 146 
3 2955 2844 2325 
3 2846 2735 2720 
3 2720 2660 2669 
3 2744 2652 2680 
3 2857 2743 2802 
3 2801 2747 2653 
3 2865 2799 2806 
3 2741 2730 2677 
3 2745 2732 2681 
3 2723 2657 2658 
3 2736 2725 2665 
3 2724 2666 2667 
3 2774 2757 2689 
3 2795 2662 2663 
3 2795 2725 2794 
3 2725 2664 2665 
3 2735 2726 2659 
3 2792 2737 2791 
3 2804 2727 2803 
3 2727 2670 2671 
3 2800 2739 2728 
3 2728 2672 2673 
3 2734 2800 2728 
3 2729 2674 2675 
3 2858 2898 2798 
3 2730 2676 2677 
3 2807 2742 2857 
3 2731 2678 2679 
3 2790 2732 2745 
3 2732 2680 2681 
3 2733 2746 2683 
3 2809 2661 2662 
3 2897 2733 2780 
3 2768 2701 2700 
3 2734 2728 2673 
3 2734 2674 2729 
3 2735 2659 2660 
3 2864 2808 2804 
3 2793 2724 2792 
3 2794 2736 2793 
3 2737 2724 2667 
3 2737 2668 2726 
3 2863 2803 2861 
3 2738 2720 2669 
3 2803 2739 2800 
3 2739 2727 2671 
3 2740 2676 2730 
3 2799 2798 2730 
3 2806 2741 2722 
3 2742 2722 2655 
3 2742 2678 2731 
3 2743 2679 2656 
3 2802 2721 2787 
3 2789 2744 2732 
3 2744 2721 2652 
3 2788 2745 2723 
3 2790 2745 2788 
3 2797 2796 2746 
3 2746 2723 2658 
3 2839 2747 2801 
3 2748 2675 2715 
3 2840 2748 2782 
3 2749 349 350 
3 2895 2749 2661 
3 2813 2706 2761 
3 2813 2750 2706 
3 2812 2704 2776 
3 2812 2751 2704 
3 2701 314 315 
3 2777 2693 2711 
3 2880 2828 2873 
3 2775 2684 2705 
3 2891 2811 2812 
3 348 2778 347 
3 2832 2761 2754 
3 2754 2688 2699 
3 2769 2690 2695 
3 2770 2696 2767 
3 2828 2827 2769 
3 2779 2686 2710 
3 2816 2757 2815 
3 2757 2685 2689 
3 2766 2692 2698 
3 2860 2796 2797 
3 2834 2759 2819 
3 2759 2694 2702 
3 2835 2833 2773 
3 2811 2707 2751 
3 2810 2777 2711 
3 2761 2706 2688 
3 2821 2762 2816 
3 2762 2697 2685 
3 2836 2763 2834 
3 2775 2705 2763 
3 2820 2818 2765 
3 2764 2712 2697 
3 2818 2771 2765 
3 2771 2691 2765 
3 2770 2698 2696 
3 2824 2766 2822 
3 2825 2823 2767 
3 2823 2822 2770 
3 2772 2700 2703 
3 2827 2825 2755 
3 2769 2755 2690 
3 2823 2770 2767 
3 2770 2766 2698 
3 2819 2771 2818 
3 2771 2759 2702 
3 2824 2758 2766 
3 2852 2797 2733 
3 2833 2832 2754 
3 2773 2754 2699 
3 2778 2774 2713 
3 2815 2774 2814 
3 2872 2834 2871 
3 2775 2753 2684 
3 2812 2811 2751 
3 2776 2704 2709 
3 2810 2711 2750 
3 2831 2830 2752 
3 2915 2854 2914 
3 2830 2829 2779 
3 2829 2828 2756 
3 2781 2714 2747 
3 2841 2781 2839 
3 2840 2805 2748 
3 2782 2715 2717 
3 2954 2843 2901 
3 2783 2718 2716 
3 2844 2784 2719 
3 2842 2840 2782 
3 2785 291 2718 
3 3229 2785 2378 
3 2844 2786 2325 
3 2786 146 145 
3 2805 2729 2748 
3 2801 2653 2740 
3 2798 2898 2801 
3 2848 2802 2787 
3 2787 2721 2744 
3 2796 2723 2746 
3 2790 2789 2732 
3 2911 2908 2850 
3 2789 2787 2744 
3 2851 2849 2790 
3 2851 2790 2788 
3 2856 2726 2735 
3 2856 2913 2791 
3 2791 2737 2726 
3 2791 2853 2792 
3 2792 2724 2737 
3 2854 2793 2853 
3 2793 2736 2724 
3 2855 2794 2854 
3 2794 2725 2736 
3 2963 2914 2962 
3 2662 2896 2809 
3 2797 2746 2733 
3 2860 2859 2796 
3 2817 2768 2772 
3 2799 2730 2741 
3 2862 2806 2807 
3 2805 2800 2734 
3 2861 2800 2847 
3 2801 2740 2798 
3 2906 2857 2848 
3 2802 2743 2721 
3 2904 2856 2846 
3 2803 2727 2739 
3 2800 2805 2847 
3 2847 2805 2845 
3 2857 2731 2743 
3 2857 2802 2848 
3 2735 2846 2856 
3 2804 2738 2727 
3 2808 2846 2720 
3 2805 2734 2729 
3 2806 2799 2741 
3 2807 2806 2722 
3 2807 2722 2742 
3 2808 2720 2738 
3 2866 2897 2768 
3 2897 2780 2701 
3 2813 2810 2750 
3 2894 2810 2813 
3 2867 2835 2760 
3 2811 2760 2707 
3 2869 2776 2837 
3 2869 2812 2776 
3 2868 2761 2832 
3 2894 2813 2868 
3 2814 2778 2809 
3 2809 2778 2895 
3 2916 2855 2915 
3 2814 2774 2778 
3 2944 2815 2935 
3 2815 2757 2774 
3 2821 2820 2764 
3 2816 2762 2757 
3 2826 2772 2758 
3 2946 2879 2943 
3 2820 2765 2764 
3 2878 2818 2877 
3 2878 2819 2818 
3 2819 2759 2771 
3 2821 2764 2762 
3 2884 2820 2821 
3 2885 2816 2815 
3 2884 2877 2820 
3 2881 2879 2824 
3 2822 2766 2770 
3 2825 2767 2755 
3 2882 2881 2822 
3 2879 2826 2824 
3 2826 2758 2824 
3 2827 2755 2769 
3 2883 2825 2876 
3 2965 2859 2860 
3 2826 2817 2772 
3 2828 2769 2756 
3 2880 2827 2828 
3 2829 2756 2779 
3 2880 2876 2827 
3 2830 2779 2752 
3 2889 2829 2830 
3 2831 2752 2777 
3 2889 2873 2829 
3 2870 2777 2810 
3 2998 2931 2978 
3 2833 2754 2773 
3 2923 2832 2887 
3 2835 2773 2760 
3 2887 2833 2874 
3 2834 2763 2759 
3 2871 2834 2819 
3 2867 2760 2811 
3 2924 2835 2867 
3 2838 2837 2753 
3 2836 2775 2763 
3 2838 2753 2775 
3 2981 2924 2936 
3 2892 2836 2872 
3 2893 2838 2892 
3 2997 2898 2918 
3 2839 2781 2747 
3 2842 2782 2784 
3 2900 2840 2842 
3 2952 2901 2841 
3 2841 2783 2781 
3 2902 2842 2784 
3 2900 2845 2840 
3 3005 2785 2843 
3 2843 2718 2783 
3 2844 2719 2786 
3 2955 2902 2844 
3 2852 2733 2866 
3 2866 2733 2897 
3 2845 2805 2840 
3 2905 2845 2900 
3 2862 2807 2857 
3 2863 2804 2803 
3 2920 2861 2910 
3 2910 2847 2905 
3 2850 2787 2789 
3 2858 2798 2799 
3 2918 2898 2858 
3 2908 2906 2848 
3 2849 2789 2790 
3 2850 2848 2787 
3 2850 2789 2849 
3 2859 2788 2796 
3 2912 2911 2849 
3 2860 2797 2852 
3 2903 2866 2817 
3 2914 2853 2913 
3 2853 2793 2792 
3 3012 2962 3010 
3 2854 2794 2793 
3 2896 2875 2809 
3 2855 2795 2794 
3 2951 2795 2916 
3 2865 2806 2862 
3 2965 2852 2903 
3 2859 2851 2788 
3 2992 2937 2990 
3 2888 2826 2879 
3 2910 2861 2847 
3 2861 2803 2800 
3 2907 2862 2857 
3 2968 2909 2922 
3 2864 2804 2863 
3 2909 2904 2846 
3 2864 2846 2808 
3 2919 2865 2862 
3 2865 2858 2799 
3 2866 2768 2817 
3 2903 2817 2888 
3 2924 2874 2835 
3 2891 2812 2869 
3 2894 2870 2810 
3 2868 2813 2761 
3 2925 2837 2893 
3 2928 2891 2869 
3 2931 2890 2831 
3 2870 2831 2777 
3 2926 2872 2871 
3 2927 2871 2878 
3 2947 2872 2926 
3 2872 2836 2834 
3 2930 2873 2889 
3 2873 2828 2829 
3 2939 2887 2874 
3 2874 2833 2835 
3 2935 2814 2875 
3 2875 2814 2809 
3 2886 2816 2885 
3 2935 2815 2814 
3 2883 2882 2823 
3 2876 2825 2827 
3 2938 2927 2878 
3 2877 2818 2820 
3 2927 2926 2871 
3 2878 2871 2819 
3 2881 2824 2822 
3 2917 2912 2851 
3 2929 2880 2873 
3 2934 2880 2929 
3 2882 2822 2823 
3 2943 2881 2937 
3 2883 2823 2825 
3 2941 2882 2883 
3 2933 2883 2876 
3 2941 2883 2933 
3 2886 2821 2816 
3 2940 2938 2877 
3 3013 2915 2963 
3 2815 2944 2885 
3 2942 2940 2884 
3 2886 2884 2821 
3 2973 2887 2939 
3 2887 2832 2833 
3 2965 2903 2888 
3 2888 2817 2826 
3 2890 2830 2831 
3 2930 2929 2873 
3 2931 2831 2870 
3 2949 2930 2889 
3 2928 2869 2925 
3 2891 2867 2811 
3 2950 2892 2947 
3 2892 2838 2836 
3 2984 2893 2950 
3 2893 2837 2838 
3 2948 2868 2923 
3 2948 2894 2868 
3 2899 2839 2898 
3 2898 2839 2801 
3 2997 2918 2971 
3 2899 2841 2839 
3 2953 2900 2842 
3 3002 2900 2953 
3 2901 2783 2841 
3 3003 2954 2901 
3 3004 2953 2902 
3 2902 2784 2844 
3 2903 2852 2866 
3 2909 2846 2864 
3 2905 2847 2845 
3 2920 2863 2861 
3 2908 2848 2850 
3 2921 2865 2919 
3 2919 2862 2907 
3 2911 2850 2849 
3 2959 2956 2906 
3 2922 2864 2863 
3 2958 2957 2904 
3 3002 2905 2900 
3 2970 2910 2960 
3 2965 2860 2852 
3 2912 2849 2851 
3 2961 2959 2908 
3 2917 2851 2859 
3 2964 2961 2911 
3 2962 2913 2957 
3 2791 2913 2853 
3 2945 2885 2944 
3 2914 2854 2853 
3 2951 2875 2896 
3 2915 2855 2854 
3 2951 2935 2875 
3 2916 2795 2855 
3 2965 2917 2859 
3 2994 2943 2992 
3 3001 2997 2971 
3 2921 2858 2865 
3 2966 2907 2956 
3 2969 2919 2966 
3 2970 2920 2910 
3 2922 2863 2920 
3 2971 2921 2969 
3 2921 2918 2858 
3 3007 2958 2968 
3 2922 2909 2864 
3 2932 2931 2870 
3 2923 2868 2832 
3 2974 2939 2874 
3 2936 2867 2891 
3 2979 2928 2925 
3 2925 2869 2837 
3 3023 2975 3022 
3 2983 2926 2975 
3 2938 2878 2877 
3 2976 2927 2938 
3 2985 2928 2979 
3 2936 2891 2928 
3 2982 2929 2930 
3 2980 2934 2977 
3 2949 2889 2890 
3 2982 2977 2929 
3 2932 2870 2894 
3 2978 2931 2932 
3 2948 2932 2894 
3 2996 2932 2948 
3 2934 2933 2876 
3 2941 2937 2882 
3 2934 2876 2880 
3 2977 2934 2929 
3 2985 2936 2928 
3 2936 2924 2867 
3 3038 2992 3036 
3 2937 2881 2882 
3 2940 2877 2884 
3 2976 2975 2927 
3 2974 2874 2924 
3 2973 2939 2339 
3 2942 2884 2886 
3 2988 2976 2938 
3 2986 2933 2980 
3 2990 2941 2986 
3 2945 2886 2885 
3 2989 2988 2940 
3 2943 2879 2881 
3 3013 2963 3012 
3 3060 3108 3012 
3 2993 2989 2942 
3 2945 2942 2886 
3 2946 2888 2879 
3 3000 2947 2983 
3 2947 2892 2872 
3 2987 2923 2973 
3 2987 2948 2923 
3 2998 2890 2931 
3 2999 2982 2930 
3 2984 2979 2925 
3 2950 2893 2892 
3 2951 2896 2795 
3 2991 2916 3013 
3 3051 2952 3001 
3 2952 2841 2899 
3 2953 2842 2902 
3 3002 2960 2905 
3 3098 3053 3094 
3 3052 3005 2954 
3 3006 2955 2325 
3 3054 3004 2955 
3 2958 2904 2909 
3 2956 2907 2857 
3 3061 3009 3008 
3 2956 2857 2906 
3 3010 2957 3007 
3 2957 2856 2904 
3 2972 2922 2920 
3 2959 2906 2908 
3 3008 3009 2956 
3 2961 2908 2911 
3 2960 2910 2905 
3 2972 2920 2970 
3 2964 2911 2912 
3 3059 3057 2959 
3 2957 2913 2856 
3 2995 2993 2945 
3 2962 2914 2913 
3 3039 2991 3013 
3 2963 2915 2914 
3 2967 2912 2917 
3 3011 3059 2961 
3 2965 2967 2917 
3 2991 2951 2916 
3 3013 2916 2915 
3 3009 2966 2956 
3 2966 2919 2907 
3 3014 3011 2964 
3 2967 2964 2912 
3 3015 2965 3018 
3 2968 2958 2909 
3 3016 2969 2966 
3 2969 2921 2919 
3 3048 2960 3002 
3 3021 2970 3017 
3 3050 2971 3020 
3 2971 2918 2921 
3 3065 3007 3019 
3 2972 2968 2922 
3 2965 2888 2946 
3 2996 2948 2987 
3 2973 2923 2887 
3 3026 2974 2981 
3 3047 2939 2974 
3 2991 2935 2951 
3 2975 2926 2927 
3 3072 3022 3027 
3 2988 2938 2940 
3 3027 2976 2988 
3 3029 3024 2977 
3 3024 2980 2977 
3 3033 3032 2996 
3 3041 2978 3032 
3 2984 2925 2893 
3 2985 2981 2936 
3 3025 2980 3024 
3 2980 2933 2934 
3 3030 2981 2985 
3 2981 2974 2924 
3 2999 2930 2949 
3 3074 3071 3024 
3 3045 2983 3023 
3 2983 2947 2926 
3 3042 2950 3000 
3 3046 2984 3042 
3 3031 3030 2985 
3 3030 3026 2981 
3 3035 2986 3025 
3 2986 2941 2933 
3 3028 2973 2339 
3 3028 2987 2973 
3 2989 2940 2942 
3 3027 3022 2976 
3 2993 2942 2945 
3 3034 3027 2988 
3 3036 2990 3035 
3 2990 2937 2941 
3 2995 2944 2991 
3 2991 2944 2935 
3 3104 3038 3084 
3 2992 2943 2937 
3 2995 2945 2944 
3 3037 3034 2989 
3 2994 2946 2943 
3 3033 2987 3028 
3 2996 2978 2932 
3 3001 2899 2997 
3 2997 2899 2898 
3 3043 2998 3041 
3 2998 2949 2890 
3 3043 2949 2998 
3 3044 3029 2982 
3 3085 3000 3045 
3 3000 2950 2947 
3 3051 3003 2952 
3 3001 2952 2899 
3 3049 3002 2953 
3 3048 3017 2960 
3 3053 3003 2365 
3 3003 2901 2952 
3 3128 3049 3004 
3 3004 2902 2955 
3 3005 2378 2785 
3 3005 2843 2954 
3 3055 3006 2325 
3 3283 3255 3258 
3 3007 2957 2958 
3 3019 2968 2972 
3 3008 2956 2959 
3 3057 3061 3008 
3 3016 2966 3009 
3 3059 2959 2961 
3 2959 3057 3008 
3 3011 2961 2964 
3 3021 2972 2970 
3 3056 3058 3007 
3 3060 3010 3058 
3 3010 2962 2957 
3 3014 2964 2967 
3 3140 3080 3037 
3 3012 2963 2962 
3 3015 2967 2965 
3 3062 3059 3011 
3 3063 2994 3038 
3 3084 3036 3081 
3 3015 3014 2967 
3 3061 3016 3009 
3 3020 2969 3016 
3 3017 2970 2960 
3 3021 3019 2972 
3 3018 2965 2946 
3 3018 2946 2994 
3 3102 3056 3065 
3 3019 3007 2968 
3 3066 3020 3016 
3 3020 2971 2969 
3 3067 3017 3048 
3 3065 3056 3007 
3 3022 2975 2976 
3 3069 3023 3022 
3 3082 3023 3069 
3 3023 2983 2975 
3 3071 3025 3024 
3 3029 2977 2982 
3 3073 3025 3071 
3 3025 2986 2980 
3 3075 3026 3030 
3 3070 3047 3026 
3 3034 2988 2989 
3 3072 3069 3022 
3 3077 3028 2339 
3 3079 3033 3077 
3 3044 2982 2999 
3 3117 3074 3088 
3 3031 2985 2979 
3 3075 3070 3026 
3 3046 2979 2984 
3 3078 3075 3030 
3 3083 3032 3079 
3 3032 2978 2996 
3 3033 2996 2987 
3 3037 2989 2993 
3 3080 3076 3034 
3 3081 3035 3073 
3 3035 2990 2986 
3 3103 3100 3062 
3 3036 2992 2990 
3 3040 2993 2995 
3 3140 3037 3040 
3 3063 3018 2994 
3 3038 2994 2992 
3 3039 2995 2991 
3 3108 3039 3013 
3 3040 3037 2993 
3 3040 2995 3039 
3 3089 3041 3083 
3 3041 2998 2978 
3 3091 3042 3085 
3 3042 2984 2950 
3 3087 3044 2999 
3 3043 2999 2949 
3 3087 2999 3043 
3 3088 3074 3029 
3 3118 3045 3082 
3 3045 3000 2983 
3 3086 3078 3031 
3 3046 3031 2979 
3 3047 2339 2939 
3 3047 2974 3026 
3 3049 3048 3002 
3 3092 3067 3048 
3 3049 2953 3004 
3 3128 3092 3049 
3 3093 3050 3090 
3 3050 3001 2971 
3 3051 3001 3050 
3 3095 3003 3051 
3 3169 3098 3133 
3 3052 2378 3005 
3 3053 2954 3003 
3 3094 3053 2365 
3 3154 2326 3128 
3 3054 2955 3006 
3 3096 3055 2325 
3 3232 3096 2324 
3 3127 3061 3057 
3 3058 3010 3007 
3 3068 3019 3021 
3 3102 3099 3056 
3 3146 3100 3136 
3 3100 3057 3059 
3 3062 3011 3014 
3 3108 3013 3012 
3 3142 3115 3080 
3 3060 3012 3010 
3 3142 3060 3058 
3 3066 3016 3061 
3 3064 3014 3015 
3 3063 3015 3018 
3 3104 3063 3038 
3 3064 3062 3014 
3 3064 3015 3063 
3 3106 3102 3065 
3 3131 3068 3067 
3 3105 3066 3061 
3 3090 3020 3066 
3 3067 3021 3017 
3 3139 3102 3106 
3 3068 3065 3019 
3 3068 3021 3067 
3 3113 3069 3107 
3 3107 3069 3072 
3 3166 3112 3124 
3 3070 2339 3047 
3 3109 3073 3071 
3 3074 3024 3029 
3 3076 3072 3027 
3 3138 3107 3072 
3 3148 3081 3073 
3 3073 3035 3025 
3 3088 3029 3044 
3 3111 3109 3071 
3 3078 3030 3031 
3 3114 3075 3078 
3 3115 3138 3076 
3 3076 3027 3034 
3 3112 2339 3070 
3 3152 3077 3101 
3 3077 3033 3028 
3 3086 3031 3046 
3 3120 3078 3086 
3 3116 3083 3079 
3 3079 3032 3033 
3 3142 3080 3140 
3 3080 3034 3037 
3 3201 3081 3148 
3 3081 3036 3035 
3 3118 3085 3045 
3 3082 3045 3023 
3 3089 3087 3043 
3 3083 3041 3032 
3 3108 3140 3040 
3 3140 3060 3142 
3 3084 3038 3036 
3 3091 3086 3046 
3 3085 3042 3000 
3 3091 3046 3042 
3 3120 3114 3078 
3 3089 3043 3041 
3 3119 3088 3044 
3 3119 3044 3087 
3 3141 3109 3111 
3 3121 3083 3116 
3 3125 3087 3089 
3 3110 3066 3105 
3 3090 3050 3020 
3 3126 3085 3118 
3 3123 3120 3086 
3 3092 3048 3049 
3 3157 3092 3128 
3 3129 3095 3093 
3 3093 3051 3050 
3 3132 2365 3129 
3 3133 3098 3094 
3 3095 2365 3003 
3 3095 3051 3093 
3 3231 2325 2786 
3 3341 3232 2324 
3 3230 3135 3097 
3 3097 2378 3052 
3 3228 3134 3169 
3 3098 3052 3053 
3 3265 3176 3161 
3 3099 3058 3056 
3 3202 3236 3172 
3 3145 3137 3105 
3 3100 3059 3062 
3 3195 3155 3116 
3 3152 3116 3079 
3 3142 3058 3099 
3 3103 3062 3064 
3 3161 3102 3139 
3 3106 3065 3068 
3 3104 3103 3064 
3 3104 3064 3063 
3 3137 3110 3105 
3 3110 3090 3066 
3 3173 3143 3170 
3 3159 3131 3122 
3 3170 3143 3138 
3 3205 3179 3178 
3 3108 3040 3039 
3 3140 3108 3060 
3 3148 3109 3141 
3 3111 3071 3074 
3 3130 3129 3093 
3 3130 3090 3110 
3 3117 3111 3074 
3 3147 3111 3117 
3 3124 3070 3075 
3 3192 3124 3151 
3 3138 3072 3076 
3 3149 3118 3082 
3 3113 3082 3069 
3 3148 3073 3109 
3 3153 3114 3120 
3 3124 3075 3114 
3 3138 3115 2327 
3 3115 3076 3080 
3 3142 2327 3115 
3 3201 3084 3081 
3 3155 3121 3116 
3 3152 3079 3077 
3 3150 3088 3119 
3 3147 3141 3111 
3 3149 3082 3113 
3 3126 3123 3091 
3 3125 3089 3121 
3 3164 3119 3125 
3 3123 3086 3091 
3 3153 3151 3114 
3 3162 3121 3155 
3 3121 3089 3083 
3 3122 3067 3092 
3 3157 3122 3092 
3 3126 3091 3085 
3 3165 3123 3126 
3 3151 3124 3114 
3 3124 3112 3070 
3 3164 3125 3162 
3 3125 3119 3087 
3 3163 3126 3118 
3 3165 3126 3163 
3 3127 3105 3061 
3 3127 3057 3100 
3 3154 3128 3004 
3 3157 3128 2326 
3 3167 3129 3130 
3 3129 2365 3095 
3 3156 3110 3137 
3 3167 3130 3156 
3 3131 3106 3068 
3 3131 3067 3122 
3 3226 3168 3216 
3 3132 3094 2365 
3 3133 3094 3132 
3 3169 3134 3098 
3 3134 2377 3097 
3 3134 3097 3052 
3 3229 3135 2391 
3 3135 2378 3097 
3 3237 3145 3146 
3 3136 3100 3103 
3 3145 3105 3127 
3 3194 3137 3171 
3 3201 3136 3103 
3 3201 3148 2352 
3 3201 3103 3104 
3 3201 3104 3084 
3 3177 2327 3176 
3 3158 3106 3131 
3 3174 3172 3141 
3 3172 3148 3141 
3 3176 3142 3099 
3 3144 3107 3143 
3 3143 3107 3138 
3 3180 3149 3113 
3 3144 3113 3107 
3 3146 3145 3127 
3 3237 2352 3236 
3 3146 3127 3100 
3 3237 3136 2352 
3 3181 3117 3150 
3 3202 3172 3174 
3 3180 3113 3144 
3 3186 3149 3180 
3 3189 3181 3150 
3 3150 3117 3088 
3 3182 3151 3153 
3 3252 3242 3222 
3 3175 3152 3101 
3 3195 3152 3175 
3 3160 3153 3120 
3 3185 3153 3160 
3 3154 3004 3054 
3 3193 3154 3054 
3 3187 3162 3155 
3 3195 3116 3152 
3 3196 3156 3194 
3 3156 3130 3110 
3 3176 2327 3142 
3 3184 3157 2326 
3 3197 3157 3184 
3 3158 3139 3106 
3 3159 3158 3131 
3 3197 3122 3157 
3 3183 3178 3158 
3 3185 3182 3153 
3 3160 3120 3123 
3 3161 3099 3102 
3 3265 3205 3200 
3 3190 3164 3162 
3 3162 3125 3121 
3 3176 3099 3161 
3 3191 3188 3165 
3 3163 3118 3149 
3 3190 3189 3164 
3 3164 3150 3119 
3 3191 3165 3163 
3 3165 3160 3123 
3 3207 3175 3166 
3 3166 3101 3112 
3 3219 3194 3209 
3 3167 3132 3129 
3 3198 3132 3167 
3 3227 3199 3226 
3 3199 3169 3133 
3 3228 3169 2364 
3 3170 3138 2327 
3 3178 3139 3158 
3 3201 2352 3136 
3 3236 3202 3209 
3 3171 3137 3145 
3 3172 2352 3148 
3 3174 3141 3147 
3 3211 3180 3204 
3 3173 3144 3143 
3 3206 3147 3181 
3 3236 3209 3171 
3 3175 3101 3166 
3 3213 3155 3195 
3 3265 3161 3179 
3 3179 3139 3178 
3 3177 3170 2327 
3 3183 3158 3159 
3 3208 3205 3178 
3 3265 3200 3177 
3 3179 3161 3139 
3 3204 3144 3173 
3 3204 3180 3144 
3 3214 3181 3189 
3 3181 3147 3117 
3 3212 3182 3185 
3 3207 3203 3175 
3 3197 3159 3122 
3 3244 3211 3235 
3 3265 3177 3176 
3 3193 2326 3154 
3 3210 3197 3184 
3 3188 3185 3160 
3 3215 3212 3185 
3 3218 3186 3211 
3 3186 3163 3149 
3 3243 3217 3187 
3 3217 3190 3187 
3 3220 3215 3188 
3 3188 3160 3165 
3 3189 3150 3164 
3 3214 3206 3181 
3 3190 3162 3187 
3 3221 3190 3217 
3 3220 3191 3218 
3 3191 3163 3186 
3 3192 3166 3124 
3 3222 3151 3182 
3 3223 3193 3054 
3 3224 3193 3223 
3 3263 3214 3253 
3 3194 3156 3137 
3 3203 3195 3175 
3 3213 3195 3203 
3 3216 3198 3196 
3 3196 3167 3156 
3 3225 3197 3210 
3 3197 3183 3159 
3 3198 3168 3132 
3 3198 3167 3196 
3 3199 2364 3169 
3 3199 3133 3168 
3 3238 3170 3200 
3 3200 3170 3177 
3 3237 3236 3171 
3 3236 2352 3172 
3 3271 3174 3206 
3 3271 3206 3241 
3 3207 3166 3192 
3 3250 3203 3242 
3 3233 3205 3208 
3 3238 3233 3234 
3 3233 3200 3205 
3 3208 3178 3183 
3 3262 3251 3216 
3 3206 3174 3147 
3 3222 3192 3151 
3 3222 3182 3212 
3 3225 3183 3197 
3 3261 3234 3233 
3 3219 3216 3196 
3 3209 3194 3171 
3 3224 3184 3193 
3 3267 3235 3261 
3 3249 3218 3244 
3 3211 3186 3180 
3 3248 3212 3215 
3 3252 3222 3212 
3 3250 3213 3203 
3 3213 3187 3155 
3 3221 3214 3189 
3 3262 3216 3219 
3 3215 3185 3188 
3 3248 3215 2338 
3 3216 3168 3198 
3 3219 3196 3194 
3 3243 3187 3213 
3 3221 3217 2351 
3 3249 3220 3218 
3 3218 3191 3186 
3 3239 3209 3202 
3 3239 3219 3209 
3 3220 2338 3215 
3 3220 3188 3191 
3 3221 3189 3190 
3 3275 3263 3253 
3 3242 3207 3222 
3 3222 3207 3192 
3 3281 3258 3006 
3 3255 3224 3223 
3 3255 3240 3224 
3 3224 3210 3184 
3 3225 3208 3183 
3 3245 3210 3240 
3 3254 3226 3251 
3 3226 3199 3168 
3 3269 2351 3246 
3 3227 2364 3199 
3 3297 3282 3257 
3 3228 2377 3134 
3 3229 2378 3135 
3 3362 3229 2391 
3 3260 3230 2377 
3 3259 3230 2390 
3 3231 2786 145 
3 3394 3231 145 
3 3325 3232 2335 
3 3232 3055 3096 
3 3238 3234 3173 
3 3247 3208 3225 
3 3235 3204 3234 
3 3234 3204 3173 
3 3278 3264 3240 
3 3235 3211 3204 
3 3237 3171 3145 
3 3237 3146 3136 
3 3238 3173 3170 
3 3238 3200 3233 
3 3241 3206 3214 
3 3284 3271 3241 
3 3240 3210 3224 
3 3264 3245 3240 
3 3253 3214 3221 
3 3284 3241 3263 
3 3274 3250 3242 
3 3242 3203 3207 
3 3266 3243 3250 
3 3246 3217 3243 
3 3276 3244 3267 
3 3244 3218 3211 
3 3273 3245 3264 
3 3245 3225 3210 
3 3279 3254 3277 
3 3246 2351 3217 
3 3273 3267 3261 
3 3247 3233 3208 
3 3272 2338 3270 
3 3268 3252 3212 
3 3285 3273 3264 
3 3249 2338 3220 
3 3250 3243 3213 
3 3286 3250 3274 
3 3277 3275 3253 
3 3251 3226 3216 
3 3268 3212 3248 
3 3290 3252 3268 
3 3253 3221 2351 
3 3295 3277 3269 
3 3254 3227 3226 
3 3284 3275 3251 
3 3258 3255 3223 
3 3283 3278 3255 
3 3280 3257 3256 
3 3256 2364 3227 
3 3327 3297 3304 
3 3257 3228 2364 
3 3258 3223 3006 
3 3296 3258 3281 
3 3308 3259 2390 
3 3259 2391 3135 
3 3315 3260 3307 
3 3260 2390 3230 
3 3261 3235 3234 
3 3261 3233 3247 
3 3262 3219 3239 
3 3284 3239 3271 
3 3284 3263 3275 
3 3263 3241 3214 
3 3302 3288 3289 
3 3285 3267 3273 
3 3265 3179 3205 
3 3294 3269 3246 
3 3266 3246 3243 
3 3267 3244 3235 
3 3273 3261 3247 
3 3292 3248 3272 
3 3290 3274 3252 
3 3294 3246 3266 
3 3295 3293 3279 
3 3302 3287 3288 
3 3270 2338 3249 
3 3271 3239 3202 
3 3271 3202 3174 
3 3292 3290 3268 
3 3272 3248 2338 
3 3273 3247 3245 
3 3285 3276 3267 
3 3298 3274 3290 
3 3274 3242 3252 
3 3277 3253 2351 
3 3275 3254 3251 
3 3276 3270 3249 
3 3276 3249 3244 
3 3277 3254 3275 
3 3277 2351 3269 
3 3289 3278 2337 
3 3278 3240 3255 
3 3299 3295 3269 
3 3279 3256 3227 
3 3306 3280 3293 
3 3297 3280 2363 
3 3296 3281 2336 
3 3281 3006 3055 
3 3327 3307 3282 
3 3282 3228 3257 
3 3296 3291 3283 
3 3283 2337 3278 
3 3284 3251 3262 
3 3284 3262 3239 
3 3289 3264 3278 
3 3288 3276 3285 
3 3298 3294 3286 
3 3286 3266 3250 
3 3288 3287 3270 
3 3311 2350 3300 
3 3288 3270 3276 
3 3289 3288 3285 
3 3289 3285 3264 
3 3302 3289 2337 
3 3292 3268 3248 
3 3300 3298 3290 
3 3312 3291 3303 
3 3291 2337 3283 
3 3301 3272 3287 
3 3301 3292 3272 
3 3318 3293 3299 
3 3293 3256 3279 
3 3294 3266 3286 
3 3322 3310 2350 
3 3295 3279 3277 
3 3299 3269 3294 
3 3296 3283 3258 
3 3316 3303 2336 
3 3297 3257 3280 
3 3304 3297 2363 
3 3317 3310 3294 
3 3298 3286 3274 
3 3310 3299 3294 
3 3299 3293 3295 
3 3317 3300 2350 
3 3300 3290 3292 
3 3309 3301 3287 
3 3311 3301 3309 
3 3305 3302 2337 
3 3319 3302 3305 
3 3321 3312 3303 
3 3303 3291 3296 
3 3323 3313 2362 
3 3327 3304 2376 
3 3305 2337 3291 
3 3319 3309 3302 
3 3332 3322 3324 
3 3306 2363 3280 
3 3307 2377 3282 
3 3315 3307 2376 
3 3330 3308 2390 
3 3361 3308 2404 
3 3309 3287 3302 
3 3320 3309 3319 
3 3317 3294 3298 
3 3322 3318 3310 
3 3324 3311 3320 
3 3311 3300 3301 
3 3321 3303 3316 
3 3331 3312 2349 
3 3314 3313 2363 
3 3342 3323 2362 
3 3332 3326 3314 
3 3314 2363 3306 
3 3328 3315 2376 
3 3340 3315 2389 
3 3321 3316 2348 
3 3325 3316 2336 
3 3317 3298 3300 
3 3317 2350 3310 
3 3318 3306 3293 
3 3318 3299 3310 
3 3331 3319 3305 
3 3331 3320 3319 
3 3337 3320 3331 
3 3320 3311 3309 
3 3334 3333 2349 
3 3321 2349 3312 
3 3322 3306 3318 
3 3324 3322 2350 
3 3336 3323 2375 
3 3323 3304 3313 
3 3332 2349 3326 
3 3324 2350 3311 
3 3325 2336 3232 
3 3339 3329 3325 
3 3333 3326 2349 
3 3326 2362 3313 
3 3327 2376 3307 
3 3327 3282 3297 
3 3328 2375 2388 
3 3328 2389 3315 
3 3335 3329 2347 
3 3329 2348 3316 
3 3369 3330 3340 
3 3330 2403 3308 
3 3331 3305 3312 
3 3337 3331 2349 
3 3332 3314 3322 
3 3337 3332 3324 
3 3333 2362 3326 
3 3334 2349 3321 
3 3335 3334 2348 
3 3338 3334 2361 
3 3335 2347 2360 
3 3335 2361 3334 
3 3336 2375 3328 
3 3336 2376 3323 
3 3337 3324 3320 
3 3337 2349 3332 
3 3403 3367 2361 
3 3338 2362 3333 
3 3366 2335 3341 
3 3339 2347 3329 
3 3369 3340 2389 
3 3340 2390 3260 
3 3402 3341 2324 
3 3341 2323 2334 
3 3342 2375 3323 
3 3342 2362 3338 
3 3429 3343 2340 
3 3343 2328 208 
3 3344 225 226 
3 3451 3344 2496 
3 3345 2649 257 
3 3467 3345 258 
3 3346 229 230 
3 3454 3346 2535 
3 3383 3347 2646 
3 3466 3347 254 
3 3348 232 233 
3 3456 3348 2561 
3 3349 237 2600 
3 3463 3349 2600 
3 3384 3350 2643 
3 3465 3350 250 
3 3351 239 240 
3 3459 3351 2626 
3 3385 3352 2640 
3 3464 3352 246 
3 3370 3353 223 
3 3449 3353 2470 
3 3443 3354 2431 
3 3354 2418 218 
3 3376 3355 216 
3 3439 3355 2405 
3 3460 3356 2366 
3 3356 2353 211 
3 3433 3357 2560 
3 3427 3357 2573 
3 3434 3358 2586 
3 3422 3358 2599 
3 3435 3359 2625 
3 3359 2638 3390 
3 3360 277 278 
3 3450 3360 2495 
3 3362 3361 289 
3 3361 2391 3308 
3 3362 2391 3361 
3 3362 289 290 
3 3431 3363 2521 
3 3423 3363 2534 
3 3388 3364 282 
3 3446 3364 2456 
3 3389 3365 285 
3 3442 3365 2430 
3 3366 2334 2346 
3 3366 2346 2347 
3 3367 3338 2361 
3 3368 3367 2374 
3 3399 3368 2374 
3 3368 2375 3342 
3 3400 3369 2389 
3 3401 3369 2402 
3 3370 224 2483 
3 3370 2483 2470 
3 3371 228 229 
3 3371 2522 2509 
3 3372 231 232 
3 3372 2548 2535 
3 3373 210 2353 
3 3373 2353 2340 
3 3374 213 2379 
3 3374 2379 2366 
3 3375 214 215 
3 3375 2392 2379 
3 3376 217 2418 
3 3376 2418 2405 
3 3377 220 2444 
3 3377 2444 2431 
3 3378 221 222 
3 3378 2457 2444 
3 3379 235 236 
3 3379 2587 2574 
3 3380 238 239 
3 3380 2613 2600 
3 3381 227 2509 
3 3381 2509 2496 
3 3382 2328 2317 
3 3382 2317 207 
3 3383 2646 2645 
3 3383 2645 252 
3 3384 2643 2642 
3 3384 2642 248 
3 3385 2640 2639 
3 3385 2639 244 
3 3386 2508 2521 
3 3386 2521 276 
3 3387 280 281 
3 3387 2469 2482 
3 3388 283 2443 
3 3388 2443 2456 
3 3389 286 2417 
3 3389 2417 2430 
3 3390 2638 2651 
3 3390 2651 262 
3 3391 2547 2560 
3 3357 3391 2560 
3 3392 279 2482 
3 3392 2482 2495 
3 3393 2404 2417 
3 3393 2417 287 
3 3402 3394 144 
3 3394 2324 3231 
3 3408 3395 2322 
3 3395 2323 143 
3 3396 2319 2320 
3 3404 3396 2320 
3 3397 2318 2319 
3 3397 2319 3396 
3 3398 136 135 
3 3398 2317 2318 
3 3399 2388 2375 
3 3406 3399 2374 
3 3400 2388 2401 
3 3400 2402 3369 
3 3407 3405 2402 
3 3401 2403 3330 
3 3402 144 143 
3 3402 2323 3341 
3 3403 2360 2373 
3 3403 2374 3367 
3 3404 140 139 
3 3404 2320 2321 
3 3405 2415 2416 
3 3468 3405 2416 
3 3406 2373 2386 
3 3406 2387 3399 
3 3407 2401 2414 
3 3407 2415 3405 
3 3408 2334 2323 
3 3408 2322 2333 
3 3489 3409 2332 
3 3409 2320 2331 
3 3410 2330 2319 
3 3410 2318 2329 
3 3411 2329 2318 
3 3411 2317 2328 
3 3412 2417 2404 
3 3468 3412 2403 
3 3440 3413 2429 
3 3469 3413 2415 
3 3414 2626 2639 
3 3414 2640 2627 
3 3415 2627 2640 
3 3415 2641 2628 
3 3488 3416 2629 
3 3416 2643 2630 
3 3417 2630 2643 
3 3417 2644 2631 
3 3485 3418 2632 
3 3418 2646 2633 
3 3419 2633 2646 
3 3419 2647 2634 
3 3420 2636 2649 
3 3436 3420 2650 
3 3421 2331 2320 
3 3421 2319 2330 
3 3472 3422 2599 
3 3422 2612 266 
3 3470 3423 2534 
3 3423 2547 273 
3 3424 234 2574 
3 3473 3424 2574 
3 3478 3425 2612 
3 3425 2625 264 
3 3426 241 2639 
3 3426 2639 2626 
3 3427 2573 2586 
3 3427 2586 269 
3 3428 2521 2508 
3 3492 3428 2507 
3 3474 3429 2341 
3 3429 2329 3411 
3 3491 3430 2354 
3 3430 2341 2340 
3 3431 2534 3363 
3 3493 3431 2520 
3 3432 2560 2547 
3 3494 3432 2546 
3 3433 2573 3357 
3 3495 3433 2559 
3 3434 2599 3358 
3 3496 3434 2585 
3 3435 2638 3359 
3 3484 3435 2624 
3 3436 2651 2638 
3 3436 2637 3420 
3 3437 2366 2379 
3 3498 3437 2380 
3 3438 2379 2392 
3 3499 3438 2393 
3 3439 2392 3355 
3 3500 3439 2406 
3 3440 2430 2417 
3 3440 2416 3413 
3 3441 2405 2418 
3 3501 3441 2419 
3 3442 2443 3365 
3 3477 3442 2429 
3 3443 2418 3354 
3 3502 3443 2432 
3 3444 2456 2443 
3 3503 3444 2442 
3 3445 2431 2444 
3 3504 3445 2445 
3 3446 2469 3364 
3 3505 3446 2455 
3 3447 2444 2457 
3 3506 3447 2458 
3 3448 2482 2469 
3 3507 3448 2468 
3 3449 2457 3353 
3 3508 3449 2471 
3 3450 2508 3360 
3 3490 3450 2494 
3 3451 2483 3344 
3 3509 3451 2497 
3 3452 2496 2509 
3 3510 3452 2510 
3 3453 2509 2522 
3 3511 3453 2523 
3 3454 2522 3346 
3 3512 3454 2536 
3 3455 2535 2548 
3 3513 3455 2549 
3 3456 2548 3348 
3 3514 3456 2562 
3 3457 2574 2587 
3 3515 3457 2588 
3 3458 2600 2613 
3 3516 3458 2614 
3 3459 2613 3351 
3 3479 3459 2627 
3 3460 2353 3356 
3 3517 3460 2367 
3 3461 2495 2482 
3 3518 3461 2481 
3 3462 2470 2483 
3 3519 3462 2484 
3 3463 2587 3349 
3 3520 3463 2601 
3 3464 2641 3352 
3 3464 247 2642 
3 3465 2644 3350 
3 3465 251 2645 
3 3466 2648 2647 
3 3466 2647 3347 
3 3467 2651 2650 
3 3467 2650 3345 
3 3468 2416 3412 
3 3468 2403 3401 
3 3469 2414 2427 
3 3469 2428 3413 
3 3470 2547 3423 
3 3526 3470 2533 
3 3471 2586 2573 
3 3527 3471 2572 
3 3472 2612 3422 
3 3528 3472 2598 
3 3473 2575 2562 
3 3473 2561 3424 
3 3474 2342 2330 
3 3474 2329 3429 
3 3475 2344 2332 
3 3475 2331 2343 
3 3476 2346 2334 
3 3476 2333 3530 
3 3477 2442 3442 
3 3525 3477 2428 
3 3478 2611 2624 
3 3478 2625 3425 
3 3479 2614 3459 
3 3540 3479 2628 
3 3540 3480 2616 
3 3480 2630 2617 
3 3481 2617 2630 
3 3481 2631 2618 
3 3537 3482 2619 
3 3482 2633 2620 
3 3483 2620 2633 
3 3483 2634 2621 
3 3484 2623 2636 
3 3484 2637 3435 
3 3485 2631 2644 
3 3485 2645 3418 
3 3486 2634 2647 
3 3497 3486 2648 
3 3487 2343 2331 
3 3487 2330 2342 
3 3488 2628 2641 
3 3488 2642 3416 
3 3489 2333 2322 
3 3489 2321 3409 
3 3490 2507 3450 
3 3542 3490 2493 
3 3491 2341 3430 
3 3539 3491 2355 
3 3492 2520 3428 
3 3543 3492 2506 
3 3493 2533 3431 
3 3544 3493 2519 
3 3494 2559 3432 
3 3545 3494 2545 
3 3495 2572 3433 
3 3546 3495 2558 
3 3496 2598 3434 
3 3547 3496 2584 
3 3497 2649 2636 
3 3497 2635 3486 
3 3498 2367 3437 
3 3548 3498 2381 
3 3499 2380 3438 
3 3549 3499 2394 
3 3500 2393 3439 
3 3550 3500 2407 
3 3501 2406 3441 
3 3523 3501 2420 
3 3502 2419 3443 
3 3524 3502 2433 
3 3503 2455 3444 
3 3521 3503 2441 
3 3504 2432 3445 
3 3522 3504 2446 
3 3505 2468 3446 
3 3551 3505 2454 
3 3506 2445 3447 
3 3552 3506 2459 
3 3507 2481 3448 
3 3553 3507 2467 
3 3508 2458 3449 
3 3554 3508 2472 
3 3509 2484 3451 
3 3555 3509 2498 
3 3510 2497 3452 
3 3556 3510 2511 
3 3511 2510 3453 
3 3557 3511 2524 
3 3512 2523 3454 
3 3558 3512 2537 
3 3513 2536 3455 
3 3559 3513 2550 
3 3514 2549 3456 
3 3560 3514 2563 
3 3515 2575 3457 
3 3561 3515 2589 
3 3516 2601 3458 
3 3562 3516 2615 
3 3564 3517 2368 
3 3517 2355 2354 
3 3518 2494 3461 
3 3563 3518 2480 
3 3519 2471 3462 
3 3565 3519 2485 
3 3520 2588 3463 
3 3566 3520 2602 
3 3583 3521 2440 
3 3521 2454 3503 
3 3585 3522 2447 
3 3522 2433 3504 
3 3584 3523 2421 
3 3523 2407 3501 
3 3586 3524 2434 
3 3524 2420 3502 
3 3525 2427 2440 
3 3525 2441 3477 
3 3526 2546 3470 
3 3593 3526 2532 
3 3527 2585 3471 
3 3594 3527 2571 
3 3528 2611 3472 
3 3595 3528 2597 
3 3529 2576 2563 
3 3529 2562 2575 
3 3476 3530 2345 
3 3530 2332 2344 
3 3582 3531 2357 
3 3531 2343 2356 
3 3562 3532 2603 
3 3532 2617 2604 
3 3533 2604 2617 
3 3533 2618 2605 
3 3591 3534 2606 
3 3534 2620 2607 
3 3535 2607 2620 
3 3535 2621 2608 
3 3536 2610 2623 
3 3536 2624 2611 
3 3537 2618 2631 
3 3537 2632 3482 
3 3538 2621 2634 
3 3541 3538 2635 
3 3539 2356 2343 
3 3539 2342 3491 
3 3540 2615 3479 
3 3540 2629 3480 
3 3541 2622 3538 
3 3541 2636 2623 
3 3542 2506 3490 
3 3568 3542 2492 
3 3543 2519 3492 
3 3567 3543 2505 
3 3544 2532 3493 
3 3598 3544 2518 
3 3545 2558 3494 
3 3599 3545 2544 
3 3546 2571 3495 
3 3600 3546 2557 
3 3547 2597 3496 
3 3601 3547 2583 
3 3574 3548 2382 
3 3548 2369 2368 
3 3549 2381 3499 
3 3577 3549 2395 
3 3550 2394 3500 
3 3580 3550 2408 
3 3551 2467 3505 
3 3575 3551 2453 
3 3552 2446 3506 
3 3581 3552 2460 
3 3553 2480 3507 
3 3572 3553 2466 
3 3554 2459 3508 
3 3579 3554 2473 
3 3555 2485 3509 
3 3576 3555 2499 
3 3556 2498 3510 
3 3573 3556 2512 
3 3557 2511 3511 
3 3571 3557 2525 
3 3558 2524 3512 
3 3602 3558 2538 
3 3559 2537 3513 
3 3603 3559 2551 
3 3560 2550 3514 
3 3604 3560 2564 
3 3561 2576 3515 
3 3605 3561 2590 
3 3562 2602 3516 
3 3562 2616 3532 
3 3563 2493 3518 
3 3570 3563 2479 
3 3564 2355 3517 
3 3569 3564 2369 
3 3565 2472 3519 
3 3578 3565 2486 
3 3566 2589 3520 
3 3587 3566 2603 
3 3615 3567 2504 
3 3567 2518 3543 
3 3616 3568 2491 
3 3568 2505 3542 
3 3617 3569 2370 
3 3569 2356 3564 
3 3619 3570 2478 
3 3570 2492 3563 
3 3618 3571 2526 
3 3571 2512 3557 
3 3620 3572 2465 
3 3572 2479 3553 
3 3621 3573 2513 
3 3573 2499 3556 
3 3622 3574 2383 
3 3574 2369 3548 
3 3575 2466 3551 
3 3661 3575 2453 
3 3623 3576 2500 
3 3576 2486 3555 
3 3625 3577 2396 
3 3577 2382 3549 
3 3626 3578 2487 
3 3578 2473 3565 
3 3627 3579 2474 
3 3579 2460 3554 
3 3663 3628 3580 
3 3580 2395 3550 
3 3629 3581 2461 
3 3581 2447 3552 
3 3582 2358 2345 
3 3582 2344 3531 
3 3640 3606 2440 
3 3583 2453 3521 
3 3610 3586 3609 
3 3584 2408 3523 
3 3662 3585 2447 
3 3585 2434 3522 
3 3609 2434 3608 
3 3586 2421 3524 
3 3587 2590 3566 
3 3588 3587 2604 
3 3588 2591 3587 
3 3588 2605 2592 
3 3638 3589 2593 
3 3589 2607 2594 
3 3590 2594 2607 
3 3632 3590 2608 
3 3591 2605 2618 
3 3591 2619 3534 
3 3592 2608 2621 
3 3597 3592 2622 
3 3593 2545 3526 
3 3630 3593 2531 
3 3594 2584 3527 
3 3631 3594 2570 
3 3595 2610 3528 
3 3632 2609 2596 
3 3596 2577 2564 
3 3596 2563 2576 
3 3597 2609 3592 
3 3597 2623 2610 
3 3598 2531 3544 
3 3614 3598 2517 
3 3599 2557 3545 
3 3611 3599 2543 
3 3600 2570 3546 
3 3639 3600 2556 
3 3601 2596 3547 
3 3637 3601 2582 
3 3602 2525 3558 
3 3613 3602 2539 
3 3603 2538 3559 
3 3612 3603 2552 
3 3604 2551 3560 
3 3641 3604 2565 
3 3605 2577 3561 
3 3635 3605 2591 
3 3679 3606 2439 
3 3661 3606 2452 
3 3678 3607 2422 
3 3663 3607 2409 
3 3692 3608 2448 
3 3609 3608 2435 
3 3642 3609 2435 
3 3610 2422 3607 
3 3610 3607 2421 
3 3610 2421 3586 
3 3669 3611 2542 
3 3611 2556 3599 
3 3670 3612 2553 
3 3612 2539 3603 
3 3671 3613 2540 
3 3613 2526 3602 
3 3688 3672 3614 
3 3614 2530 3598 
3 3654 3616 3646 
3 3615 2517 3567 
3 3656 3619 3647 
3 3616 2504 3568 
3 3686 3634 2370 
3 3617 2357 3569 
3 3687 3618 2526 
3 3618 2513 3571 
3 3659 3620 3648 
3 3619 2491 3570 
3 3650 2465 3624 
3 3620 2478 3572 
3 3660 3645 3621 
3 3621 2500 3573 
3 3649 2383 2384 
3 3622 2370 3574 
3 3651 2500 3645 
3 3623 2487 3576 
3 3679 3650 2452 
3 3624 2465 3575 
3 3628 3653 2396 
3 3625 2383 3577 
3 3626 2487 2488 
3 3626 2474 3578 
3 3627 2474 2475 
3 3627 2461 3579 
3 3678 3658 2409 
3 3628 2396 3580 
3 3629 2461 2462 
3 3662 3629 2448 
3 3630 2544 3593 
3 3668 3630 2530 
3 3631 2583 3594 
3 3673 3631 2569 
3 2596 2609 3595 
3 3632 2595 3590 
3 3633 2578 2565 
3 3633 2564 2577 
3 3667 3634 2371 
3 3634 2358 2357 
3 3635 2578 3605 
3 3676 3635 2592 
3 3676 3636 2580 
3 3636 2594 2581 
3 3637 2581 2594 
3 3637 2595 3601 
3 3638 2592 2605 
3 3638 2606 3589 
3 3639 2569 3600 
3 3665 3639 2555 
3 3640 2440 2427 
3 3666 3640 2426 
3 3641 2552 3604 
3 3664 3641 2566 
3 3642 2436 2423 
3 3642 2422 3610 
3 3700 3643 2527 
3 3690 3660 2514 
3 3695 3644 2503 
3 3688 3644 2516 
3 3690 3645 3660 
3 3651 3645 2501 
3 3680 3646 2490 
3 3654 2503 3644 
3 3681 3647 2477 
3 3656 2490 3646 
3 3691 3648 2464 
3 3659 2477 3647 
3 3699 3649 2384 
3 3686 3649 2371 
3 3650 2451 2464 
3 3650 2464 3648 
3 3651 2501 2488 
3 3651 2488 2487 
3 3652 2488 3705 
3 3652 2475 2474 
3 3653 2397 2384 
3 3653 2384 3625 
3 3654 3644 2504 
3 3654 2504 3616 
3 3655 2475 3708 
3 3655 2462 2461 
3 3656 3646 2491 
3 3656 2491 3619 
3 3657 2462 2449 
3 3692 3657 2449 
3 3658 2410 2397 
3 3658 2397 3628 
3 3659 3647 2478 
3 3659 2478 3620 
3 3660 2513 3643 
3 3660 3643 2514 
3 3661 2452 3575 
3 3661 2453 3583 
3 3662 2447 3581 
3 3662 2448 3608 
3 3663 2409 3628 
3 3663 2408 3584 
3 3693 3664 2567 
3 3664 2553 3641 
3 3693 3665 2554 
3 3665 2568 3639 
3 3666 2425 2438 
3 3666 2439 3640 
3 3667 2372 2359 
3 3667 2358 3634 
3 3668 2529 2542 
3 3668 2543 3630 
3 3703 3683 2542 
3 3669 2555 3611 
3 3697 3670 2553 
3 3670 2540 3612 
3 3684 2540 3682 
3 3687 3671 2527 
3 3695 3685 2516 
3 3672 2529 3614 
3 3673 2582 3631 
3 3675 3673 2568 
3 3694 3674 2579 
3 3674 2565 2578 
3 3675 2567 2580 
3 3675 2581 3673 
3 3676 2579 3635 
3 3676 2593 3636 
3 3677 2345 2358 
3 3677 2359 2346 
3 3678 2423 2410 
3 3678 2409 3607 
3 3679 2452 3606 
3 3679 2439 2438 
3 3680 2489 2502 
3 3680 2503 3654 
3 3681 2476 2489 
3 3681 2490 3656 
3 3682 2554 2541 
3 3684 3682 2541 
3 3683 2541 2554 
3 3698 3683 2554 
3 3684 2541 2528 
3 3700 3684 2528 
3 3685 2515 2528 
3 3696 3685 2528 
3 3686 2371 3634 
3 3686 2370 3622 
3 3687 2526 3613 
3 3687 2527 3643 
3 3688 2516 3672 
3 3688 2517 3615 
3 3689 2427 2414 
3 3689 2413 2426 
3 3701 3690 2515 
3 3690 2501 3645 
3 3691 2463 2476 
3 3691 2477 3659 
3 3692 2449 2436 
3 3692 2435 3608 
3 3693 2567 3665 
3 3697 3693 2554 
3 3694 2580 2567 
3 3694 2566 3674 
3 3701 3695 2502 
3 3695 2516 3644 
3 3703 2528 2541 
3 3696 2529 3672 
3 3697 2553 3664 
3 3697 2554 3682 
3 3698 2554 3665 
3 3698 2555 3669 
3 3699 2385 2372 
3 3699 2371 3649 
3 3700 2528 2515 
3 3700 2514 3643 
3 3701 2515 3695 
3 3701 2502 3690 
3 3702 2488 2501 
3 3702 2502 2489 
3 3703 2541 3683 
3 3703 2542 2529 
3 3704 2423 2436 
3 3704 2437 2424 
3 3652 3705 2475 
3 3705 2489 2476 
3 3706 2424 2411 
3 3706 2411 2410 
3 3707 2436 2449 
3 3707 2450 2437 
3 3655 3708 2462 
3 3708 2476 2463 
3 2372 2385 3709 
3 2386 2373 3709 
3 4157 351 352 
3 4689 4674 4640 
3 4539 4491 4444 
3 4538 4493 3730 
3 4774 3729 4713 
3 4858 3717 4806 
3 4848 3716 3715 
3 4938 3715 3714 
3 4852 3714 3713 
3 4853 3713 3712 
3 4854 3712 3711 
3 4836 385 386 
3 4788 386 387 
3 4828 4788 387 
3 4828 387 388 
3 4828 3733 4788 
3 4903 4873 3746 
3 4985 3759 3758 
3 5038 3773 3772 
3 5081 3786 5041 
3 5163 3801 3800 
3 5198 3815 3814 
3 5203 5196 3829 
3 5171 3843 3842 
3 5143 5109 3857 
3 5006 3871 3870 
3 4968 3885 3884 
3 4949 4934 3899 
3 4845 4803 53 
3 4845 52 3899 
3 52 51 3899 
3 4842 3899 51 
3 4878 3885 3886 
3 4969 3871 3872 
3 4959 3857 3858 
3 5155 3843 3844 
3 5167 3829 3830 
3 3815 3816 3802 
3 5202 3801 5215 
3 5141 3787 3788 
3 5150 5114 3773 
3 5007 3759 3760 
3 4986 3746 3747 
3 4867 3733 3734 
3 4903 3734 3733 
3 4903 3733 3745 
3 13 384 383 
3 383 384 3711 
3 382 3712 381 
3 4808 380 381 
3 4807 379 380 
3 4846 378 3714 
3 4805 376 377 
3 4806 375 376 
3 4815 3718 4810 
3 4714 3718 4537 
3 4162 4191 12 
3 4103 4098 361 
3 4136 471 472 
3 4226 4164 4166 
3 4714 4537 3719 
3 4815 375 3717 
3 4806 376 4805 
3 4806 4805 3716 
3 378 379 3714 
3 4808 4807 380 
3 4808 381 3712 
3 4809 3712 382 
3 384 385 3711 
3 388 389 3745 
3 4793 389 390 
3 4904 3758 3757 
3 4997 3772 4985 
3 4960 3786 3785 
3 5145 3800 5074 
3 5119 3814 3813 
3 5209 3828 3827 
3 5216 5205 3842 
3 5134 3856 3855 
3 5025 3870 3869 
3 5046 3884 3883 
3 4978 3898 4968 
3 4868 3912 3911 
3 54 3925 55 
3 4803 54 53 
3 4829 390 391 
3 4829 3757 4793 
3 4915 3771 4904 
3 4955 3785 3784 
3 5031 3799 3798 
3 5079 3812 5043 
3 5164 3827 3826 
3 5199 3841 3840 
3 5197 3855 3854 
3 5124 5104 3869 
3 5093 3883 3882 
3 5052 3897 5046 
3 4939 3911 3910 
3 4924 3925 3924 
3 4866 56 55 
3 4866 55 3925 
3 391 392 3770 
3 4835 392 393 
3 4886 3784 3783 
3 4987 3798 3797 
3 4962 3812 3811 
3 5146 3826 5076 
3 5120 3840 3839 
3 5207 3854 3853 
3 5158 3868 3867 
3 5179 3882 5126 
3 5091 3896 3895 
3 5008 3910 3909 
3 4970 3924 3923 
3 4869 3938 3937 
3 4862 57 3951 
3 4866 4802 56 
3 4789 393 394 
3 4835 4789 3783 
3 4905 3797 3796 
3 4945 3811 3810 
3 5033 3825 3824 
3 5078 3838 5045 
3 5165 3853 3852 
3 5212 3867 3866 
3 5191 3881 3880 
3 5182 3895 5179 
3 5023 3909 3908 
3 5047 3923 3922 
3 4940 3937 3936 
3 4925 3951 3950 
3 58 3964 59 
3 4862 58 57 
3 4830 394 395 
3 4830 3796 4789 
3 4905 4875 3810 
3 4988 3824 3823 
3 4964 3838 3837 
3 5147 3852 5077 
3 5168 3866 3865 
3 5200 3880 5212 
3 5190 3894 3893 
3 5123 5103 3908 
3 5094 3922 3921 
3 5009 3936 3935 
3 4971 3950 3949 
3 4935 3964 4925 
3 4839 4798 60 
3 4839 59 3964 
3 395 396 3809 
3 4792 3809 396 
3 4906 3823 3822 
3 4947 3837 3836 
3 5034 3851 3850 
3 5151 3865 5147 
3 5139 3879 3878 
3 5200 5210 3893 
3 5157 3907 3906 
3 5180 3921 5125 
3 5021 3935 3934 
3 5048 3949 3948 
3 4979 3963 4971 
3 4870 3977 3976 
3 61 3990 62 
3 4798 61 60 
3 4831 397 398 
3 4831 3822 397 
3 4906 4877 3836 
3 4989 3850 3849 
3 5037 3864 3863 
3 5075 3877 5044 
3 5162 3892 3891 
3 5201 3906 5210 
3 5192 3920 3919 
3 5122 5102 3934 
3 5095 3948 3947 
3 5053 3962 5048 
3 4941 3976 3975 
3 4926 3990 3989 
3 4799 63 4840 
3 4840 62 3990 
3 398 399 3835 
3 4790 3835 399 
3 4907 3849 3848 
3 4998 3863 4989 
3 4963 3877 3876 
3 5148 3891 5080 
3 5140 3905 3904 
3 5201 5211 3919 
3 5156 3933 3932 
3 5181 3947 5127 
3 5089 3961 3960 
3 5010 3975 3974 
3 4972 3989 3988 
3 4871 4003 4002 
3 4864 64 4016 
3 4799 64 63 
3 4834 4790 400 
3 4834 3848 4790 
3 4916 3862 4907 
3 4950 3876 3875 
3 5032 3890 3889 
3 5073 3903 5042 
3 5161 3918 3917 
3 5211 5214 3932 
3 5193 3946 3945 
3 5184 3960 3959 
3 5020 3974 3973 
3 5049 3988 3987 
3 4942 4002 4001 
3 4927 4016 4015 
3 4860 66 4029 
3 4864 65 64 
3 401 402 3861 
3 4832 3861 402 
3 4879 3875 3874 
3 4990 3889 3888 
3 4961 3903 3902 
3 5149 3917 5082 
3 5189 3931 3930 
3 5213 3945 5214 
3 5188 3959 3958 
3 5183 3973 3972 
3 5096 3987 3986 
3 5011 4001 4000 
3 4973 4015 4014 
3 4936 4029 4927 
3 4860 4800 67 
3 4860 67 66 
3 4832 403 4791 
3 4832 4791 3874 
3 4908 3888 3887 
3 4951 3902 3901 
3 5030 3916 3915 
3 5177 3930 3929 
3 5169 3944 3943 
3 5194 3958 3957 
3 5195 3972 3971 
3 5183 5154 3986 
3 5067 4000 3999 
3 5050 4014 4013 
3 4980 4028 4973 
3 4872 4042 4041 
3 4865 69 4055 
3 4800 68 67 
3 4833 404 405 
3 4833 3887 4791 
3 4908 4880 3901 
3 4991 3915 3914 
3 5088 3929 3928 
3 5177 5152 3943 
3 5175 3957 3956 
3 5174 3971 3970 
3 5160 3985 3984 
3 5087 3999 3998 
3 5107 4013 4012 
3 5054 4027 5050 
3 4943 4041 4040 
3 4928 4055 4054 
3 4801 70 4865 
3 4865 70 69 
3 405 406 3900 
3 4783 3900 406 
3 4909 3914 3913 
3 5058 3928 3927 
3 5098 3942 3941 
3 5097 3956 3955 
3 5121 3969 5101 
3 5170 3984 3983 
3 5185 3998 3997 
3 5136 4012 4011 
3 5111 4026 5107 
3 5012 4040 4039 
3 4974 4054 4053 
3 4884 4068 4067 
3 4841 72 71 
3 4801 71 70 
3 4826 4783 407 
3 4826 3913 4783 
3 4992 3927 3926 
3 5061 3941 5058 
3 5062 3955 3954 
3 5022 3969 3968 
3 5144 3983 5128 
3 5186 3996 5137 
3 5176 4011 4010 
3 5117 4025 4024 
3 5068 4039 4038 
3 5012 4982 4053 
3 4974 4900 4067 
3 4929 4081 4080 
3 444 73 4094 
3 72 4094 73 
3 408 409 3926 
3 5071 3926 409 
3 4999 3940 4992 
3 5000 3954 3953 
3 5013 3968 3967 
3 5090 3982 3981 
3 5086 3996 3995 
3 5186 5178 4010 
3 5132 4024 4023 
3 5066 4038 4037 
3 5057 4052 4051 
3 4899 4066 4065 
3 4851 4080 4079 
3 4888 443 4094 
3 2 73 444 
3 5071 410 3939 
3 3939 410 411 
3 4917 3953 3952 
3 4952 3967 3966 
3 5059 3981 3980 
3 5069 3995 3994 
3 5133 4009 4008 
3 5153 4023 4022 
3 5112 4037 4036 
3 5005 4051 4050 
3 4984 4065 4064 
3 4850 4079 4078 
3 4777 4093 4092 
3 4888 442 443 
3 3939 411 3952 
3 4823 3952 412 
3 4881 3966 3965 
3 4993 3980 3979 
3 5014 3994 3993 
3 5113 4008 4007 
3 5110 4022 4021 
3 5116 4036 5153 
3 5056 4050 4049 
3 4937 4064 5005 
3 4902 4078 4077 
3 4778 4092 4091 
3 4777 441 442 
3 4784 4823 413 
3 4784 3965 4823 
3 4910 3979 3978 
3 4953 3993 3992 
3 5060 4007 4006 
3 5115 4021 5113 
3 5055 4035 4034 
3 5065 4049 4048 
3 4983 4063 4062 
3 4859 4077 4937 
3 4820 439 440 
3 4778 440 441 
3 4784 414 3978 
3 4824 3978 415 
3 4910 4882 3992 
3 4994 4006 4005 
3 5063 4020 5060 
3 5070 4034 4033 
3 4981 4048 4047 
3 5004 4062 4061 
3 4901 4076 4075 
3 4779 4090 4089 
3 4820 438 439 
3 4824 416 4785 
3 4824 4785 3991 
3 4911 4005 4004 
3 5001 4019 4994 
3 5015 4033 4032 
3 5064 4047 4046 
3 4898 4061 4060 
3 4923 4075 4074 
3 4821 436 437 
3 4779 437 438 
3 4861 4785 417 
3 4861 417 418 
3 4918 4018 4911 
3 4954 4032 4031 
3 5015 5002 4046 
3 5003 4060 4059 
3 4849 4074 4073 
3 4887 4088 4087 
3 436 4088 435 
3 4861 4004 4785 
3 4825 4017 419 
3 4883 4031 4030 
3 4995 4045 4044 
3 4920 4059 4058 
3 4922 4073 4072 
3 4780 4087 4086 
3 4887 434 435 
3 4825 420 4786 
3 4825 4786 4030 
3 4912 4044 4043 
3 4995 4919 4058 
3 4857 4072 4071 
3 4822 432 433 
3 4780 433 434 
3 4786 421 4043 
3 422 4043 421 
3 4912 4885 4057 
3 4919 4856 4071 
3 4781 4085 4084 
3 432 4085 431 
3 4827 4043 422 
3 4827 4787 4056 
3 4885 4855 4070 
3 4782 4084 4083 
3 4781 430 431 
3 4787 424 4069 
3 4863 424 425 
3 4811 428 4083 
3 4782 429 430 
3 4863 4069 424 
3 4082 426 427 
3 4811 427 428 
3 426 14 427 
3 4842 50 3886 
3 4797 3886 50 
3 4930 3872 3873 
3 4946 3858 3859 
3 5029 3844 3845 
3 5142 3830 3831 
3 3816 3817 3803 
3 3802 3803 3789 
3 5166 3788 3789 
3 5108 3774 3775 
3 5024 3760 3761 
3 4996 3747 3748 
3 4986 4913 3734 
3 4867 4854 3722 
3 4867 3722 4788 
3 4843 49 48 
3 4843 3873 4797 
3 4930 4876 3859 
3 4975 3845 3846 
3 5036 3831 3832 
3 5105 3817 3818 
3 3803 3804 3790 
3 3789 3790 5218 
3 5135 3775 3776 
3 5051 3761 3762 
3 5028 3748 3749 
3 4914 3735 3736 
3 4853 3723 3724 
3 4913 3724 3723 
3 48 47 3860 
3 4796 47 46 
3 4931 3846 3847 
3 4977 3832 4975 
3 5019 3819 4967 
3 5172 3804 3805 
3 3790 3791 3777 
3 3776 3777 3763 
3 5217 5204 5092 
3 4976 3749 3750 
3 4966 3736 3737 
3 4852 3724 4914 
3 4852 4914 3725 
3 4837 46 45 
3 4837 3847 46 
3 4933 3833 4931 
3 4895 3819 3820 
3 5085 3805 5018 
3 5084 3791 3792 
3 3777 3778 3764 
3 5130 3763 3764 
3 5187 5035 3750 
3 4897 3737 3738 
3 4938 3725 3726 
3 4966 3725 3736 
3 45 44 3834 
3 4844 44 43 
3 4874 3820 3821 
3 4965 3806 3807 
3 5131 4889 5017 
3 4957 3778 3779 
3 4818 3764 3765 
3 5083 3752 5016 
3 4921 3738 3739 
3 4848 3726 3727 
3 4897 3727 3726 
3 4794 43 42 
3 4844 4794 3821 
3 4932 3807 3808 
3 5106 4894 4847 
3 4956 4814 4890 
3 4891 4818 3765 
3 4958 4893 3753 
3 4892 3740 4817 
3 4858 3727 3728 
3 4921 3728 3727 
3 4838 42 41 
3 4838 41 3795 
3 4813 3794 3795 
3 4773 3781 4712 
3 4812 4735 4769 
3 4771 4767 4766 
3 4817 4656 4768 
3 4774 3728 3729 
3 4892 4817 3729 
3 4804 40 39 
3 4804 4795 3782 
3 4716 4443 3768 
3 4684 4653 4618 
3 4762 4759 4754 
3 4686 4619 3741 
3 4713 3730 4493 
3 4656 4619 3730 
3 4795 38 4715 
3 4715 38 4227 
3 4492 4443 4392 
3 4684 4654 3755 
3 4751 4747 4743 
3 4444 4393 3719 
3 4619 4583 3730 
3 4165 36 4163 
3 4706 4536 4581 
3 4574 4511 4528 
3 4640 4596 4614 
3 4751 4743 4742 
3 4225 4163 4223 
3 4190 4161 4123 
3 4167 4115 4099 
3 4138 4131 457 
3 4159 4127 469 
3 4156 4150 467 
3 4528 4467 4503 
3 4270 4269 4201 
3 4138 457 458 
3 4986 3735 4913 
3 4996 3736 3735 
3 5028 3737 3736 
3 4976 3738 3737 
3 5035 3739 3738 
3 5072 5016 3740 
3 4816 3741 4775 
3 4819 4816 3753 
3 4762 3755 4759 
3 4734 4683 4733 
3 4168 4119 4118 
3 4613 4579 4578 
3 4944 3758 3759 
3 4944 3746 4873 
3 5007 3748 3747 
3 5024 3749 3748 
3 5051 3750 3749 
3 5217 5092 3762 
3 5130 3752 5083 
3 4893 4818 3753 
3 4772 3754 4767 
3 4769 3755 4765 
3 4618 4582 3756 
3 4490 4445 4391 
3 4873 3757 3758 
3 5027 3772 3773 
3 5027 3760 3759 
3 5114 3761 3760 
3 5108 3762 3761 
3 5217 5135 3776 
3 3764 3763 3777 
3 3765 3764 3778 
3 4957 3766 4891 
3 4890 4814 4770 
3 4685 3768 4653 
3 4494 3769 4443 
3 4915 4904 3770 
3 4997 4985 3771 
3 5150 3786 5081 
3 5150 3773 3786 
3 5141 3775 3774 
3 5166 3776 3775 
3 3777 3776 5218 
3 3778 3777 3791 
3 5084 3779 3778 
3 4956 4889 3780 
3 4847 3781 4773 
3 4813 3782 4776 
3 4915 3783 3784 
3 4997 3784 3785 
3 5038 3785 3786 
3 5118 3800 3801 
3 5118 3788 3787 
3 5202 3789 3788 
3 3790 3789 3803 
3 3791 3790 3804 
3 5172 3792 3791 
3 5131 5085 3793 
3 5106 4965 3794 
3 4932 3795 3794 
3 4886 3796 3797 
3 4955 3797 3798 
3 4960 3798 3799 
3 5145 5074 3799 
3 5215 3814 3815 
3 5215 3801 3814 
3 3803 3802 3816 
3 3804 3803 3817 
3 5105 3805 3804 
3 5085 5018 3806 
3 4895 3807 3806 
3 4874 3808 3807 
3 4905 3809 4875 
3 4987 3810 3811 
3 5031 3811 3812 
3 5145 3812 5079 
3 5163 3813 3814 
3 5206 3828 5203 
3 5206 3816 3815 
3 5167 3817 3816 
3 5142 3818 3817 
3 5036 3819 5019 
3 4977 3820 3819 
3 4933 3821 3820 
3 4875 3822 3823 
3 4945 3823 3824 
3 4962 3824 3825 
3 5146 5076 3825 
3 5119 3826 3827 
3 5198 3827 3828 
3 5159 3842 3843 
3 5196 5159 3829 
3 5155 3831 3830 
3 5029 3832 3831 
3 4977 4975 3833 
3 4933 4931 3834 
3 4906 3835 4877 
3 4988 3836 3837 
3 5033 3837 3838 
3 5146 3838 5078 
3 5164 3839 3840 
3 5209 3840 3841 
3 5216 5196 5203 
3 5143 3857 5040 
3 5143 5040 3844 
3 4959 3845 3844 
3 4946 3846 3845 
3 4876 3847 3846 
3 4877 3848 3849 
3 4947 3849 3850 
3 4964 3850 3851 
3 5147 5077 3851 
3 5120 3852 3853 
3 5199 3853 3854 
3 5205 3854 3855 
3 5171 3855 3856 
3 5026 3870 3871 
3 5026 3857 3870 
3 4969 3859 3858 
3 4930 3860 4876 
3 4916 4907 3861 
3 4998 4989 3862 
3 5034 3863 3864 
3 5151 5147 3864 
3 5165 3865 3866 
3 5207 3866 3867 
3 5197 3867 3868 
3 5134 3868 5124 
3 5109 3869 3870 
3 4948 3884 3885 
3 4948 3872 3871 
3 4878 3873 3872 
3 4916 3874 3875 
3 4998 3875 3876 
3 5037 3876 3877 
3 5151 3877 5075 
3 5168 3878 3879 
3 5200 5212 3879 
3 5158 3880 3881 
3 5126 3882 5104 
3 5025 3882 3883 
3 5006 3883 3884 
3 4949 3898 4934 
3 4949 3886 3885 
3 4879 3887 3888 
3 4950 3888 3889 
3 4963 3889 3890 
3 5148 5080 3890 
3 5139 3891 3892 
3 5200 3892 5210 
3 5191 3893 3894 
3 5182 5179 3894 
3 5093 3895 3896 
3 5052 5046 3896 
3 4978 4968 3897 
3 4908 3900 4880 
3 4990 3901 3902 
3 5032 3902 3903 
3 5148 3903 5073 
3 5162 3904 3905 
3 5201 5210 3905 
3 5190 3906 3907 
3 5182 3907 5123 
3 5091 3908 3909 
3 5052 3909 3910 
3 4978 3910 3911 
3 4934 3911 3912 
3 4880 3913 3914 
3 4951 3914 3915 
3 4961 3915 3916 
3 5149 5082 3916 
3 5140 3917 3918 
3 5201 3918 5211 
3 5157 3919 3920 
3 5125 3921 5103 
3 5023 3921 3922 
3 5008 3922 3923 
3 4939 3923 3924 
3 4868 3924 3925 
3 4909 3926 3927 
3 4991 3927 3928 
3 5030 3928 3929 
3 5149 3929 3930 
3 5161 3930 3931 
3 5211 3931 5214 
3 5192 3932 3933 
3 5180 3933 5122 
3 5094 3934 3935 
3 5047 3935 3936 
3 4970 3936 3937 
3 4924 3937 3938 
3 4999 4992 3939 
3 5061 5058 3940 
3 5088 3941 3942 
3 5177 3942 5152 
3 5189 3943 3944 
3 5213 5214 3944 
3 5156 3945 3946 
3 5127 3947 5102 
3 5021 3947 3948 
3 5009 3948 3949 
3 4940 3949 3950 
3 4869 3950 3951 
3 4999 3952 3953 
3 5061 3953 3954 
3 5098 3954 3955 
3 5152 3955 3956 
3 5169 3956 3957 
3 5213 3957 3958 
3 5193 3958 3959 
3 5181 3959 3960 
3 5095 3960 3961 
3 5053 5048 3961 
3 4979 4971 3962 
3 4935 4925 3963 
3 4917 3965 3966 
3 5000 3966 3967 
3 5062 3967 3968 
3 5097 3968 3969 
3 5175 3969 5121 
3 5194 3970 3971 
3 5188 3971 3972 
3 5184 3972 3973 
3 5089 3973 3974 
3 5053 3974 3975 
3 4979 3975 3976 
3 4935 3976 3977 
3 4881 3978 3979 
3 4952 3979 3980 
3 5013 3980 3981 
3 5022 3981 3982 
3 5144 5128 3982 
3 5174 3983 3984 
3 5195 3984 3985 
3 5183 3986 5100 
3 5020 3986 3987 
3 5010 3987 3988 
3 4941 3988 3989 
3 4870 3989 3990 
3 4910 3991 4882 
3 4993 3992 3993 
3 5059 3993 3994 
3 5090 3994 3995 
3 5144 3995 3996 
3 5170 3996 3997 
3 5160 3997 3998 
3 5154 3998 3999 
3 5096 3999 4000 
3 5049 4000 4001 
3 4972 4001 4002 
3 4926 4002 4003 
3 4882 4004 4005 
3 4953 4005 4006 
3 5014 4006 4007 
3 5069 4007 4008 
3 5086 4008 4009 
3 5186 4009 5178 
3 5185 4011 5138 
3 5087 4011 4012 
3 5067 4012 4013 
3 5011 4013 4014 
3 4942 4014 4015 
3 4871 4015 4016 
3 4918 4911 4017 
3 5001 4994 4018 
3 5063 5060 4019 
3 5115 5113 4020 
3 5133 4021 4022 
3 5178 4022 4023 
3 5176 4023 4024 
3 5136 4024 4025 
3 5111 5107 4025 
3 5054 5050 4026 
3 4980 4973 4027 
3 4936 4927 4028 
3 4918 4030 4031 
3 5001 4031 4032 
3 5063 4032 4033 
3 5115 4033 4034 
3 5110 4034 4035 
3 5116 5153 4035 
3 5132 4036 4037 
3 5117 4037 4038 
3 5111 4038 4039 
3 5054 4039 4040 
3 4980 4040 4041 
3 4936 4041 4042 
3 4883 4043 4044 
3 4954 4044 4045 
3 5015 4045 5002 
3 5070 4046 4047 
3 5055 4047 4048 
3 5116 4048 4049 
3 5112 4049 4050 
3 5066 4050 4051 
3 5068 4051 4052 
3 5012 4052 4982 
3 4943 4053 4054 
3 4872 4054 4055 
3 4912 4056 4885 
3 4995 4057 4919 
3 5002 4058 4059 
3 5064 4059 4060 
3 4981 4060 4061 
3 5065 4061 4062 
3 5056 4062 4063 
3 4937 5005 4063 
3 5057 4064 4065 
3 4982 4065 4066 
3 4974 4066 4900 
3 4928 4067 4068 
3 4885 4069 4855 
3 4919 4070 4856 
3 4920 4071 4072 
3 5003 4072 4073 
3 4898 4073 4074 
3 5004 4074 4075 
3 4983 4075 4076 
3 4859 4937 4076 
3 4984 4077 4078 
3 4899 4078 4079 
3 4900 4079 4080 
3 4884 4080 4081 
3 4855 4082 4083 
3 4856 4083 4084 
3 4857 4084 4085 
3 4922 4085 4086 
3 4849 4086 4087 
3 4923 4087 4088 
3 4901 4088 4089 
3 4859 4089 4090 
3 4902 4090 4091 
3 4850 4091 4092 
3 4851 4092 4093 
3 4929 4093 4094 
3 4191 369 12 
3 4096 365 366 
3 4101 365 4096 
3 4175 4102 4101 
3 4097 362 363 
3 4103 362 4097 
3 4104 360 4098 
3 4105 359 4104 
3 4106 358 4105 
3 4107 357 4106 
3 4108 356 4107 
3 4109 355 4108 
3 4110 354 4109 
3 4284 4197 4137 
3 4809 383 3711 
3 4846 377 378 
3 4810 373 374 
3 4166 4164 371 
3 4164 4162 370 
3 425 426 4082 
3 4827 423 4787 
3 418 419 4017 
3 414 415 3978 
3 411 412 3952 
3 4826 407 408 
3 4791 403 404 
3 4834 400 401 
3 4792 396 397 
3 4835 393 4789 
3 4829 4793 390 
3 4836 386 3722 
3 443 444 4094 
3 4820 440 4778 
3 4821 437 4779 
3 4822 433 4780 
3 428 429 4083 
3 4161 1 4123 
3 4163 35 4161 
3 4227 38 37 
3 41 40 3795 
3 4844 43 4794 
3 4796 46 3847 
3 4797 50 49 
3 4845 53 52 
3 4802 57 56 
3 4839 60 59 
3 4840 63 62 
3 66 65 4029 
3 69 68 4055 
3 4801 4841 71 
3 16 0 445 
3 4151 16 445 
3 4169 19 18 
3 4095 19 4169 
3 4124 20 4095 
3 4112 22 21 
3 4113 22 4112 
3 4242 4183 4229 
3 4115 25 4099 
3 4116 26 4115 
3 4117 27 4116 
3 4118 28 4117 
3 4119 29 4118 
3 4120 30 4119 
3 4121 31 4120 
3 4122 32 4121 
3 4186 4121 4171 
3 482 11 351 
3 4157 482 351 
3 4145 4137 480 
3 4137 4129 479 
3 4129 478 479 
3 4134 478 4129 
3 4134 477 478 
3 4125 475 476 
3 4158 475 4125 
3 4140 473 474 
3 4149 473 4140 
3 4136 4126 471 
3 4159 470 4126 
3 4127 468 469 
3 4156 468 4127 
3 4150 466 467 
3 4192 466 4150 
3 4132 464 465 
3 4146 464 4132 
3 4141 462 463 
3 4155 462 4141 
3 4128 460 461 
3 4154 460 4128 
3 4154 459 460 
3 4135 447 448 
3 4151 445 446 
3 4131 456 457 
3 4152 456 4131 
3 4152 455 456 
3 4130 453 454 
3 4153 453 4130 
3 4133 451 452 
3 4142 451 4133 
3 4139 449 450 
3 4147 449 4139 
3 4123 1 34 
3 4123 34 33 
3 4162 12 370 
3 4283 18 17 
3 4124 4112 21 
3 4095 20 19 
3 4100 366 367 
3 4252 4175 4177 
3 4102 363 364 
3 4234 4103 4246 
3 4111 353 4110 
3 4235 4098 4234 
3 4098 360 361 
3 4099 25 24 
3 4114 24 23 
3 4174 368 369 
3 4100 367 4174 
3 4174 367 368 
3 4100 4096 366 
3 4101 364 365 
3 4177 4096 4173 
3 4102 4097 363 
3 4102 364 4101 
3 4103 361 362 
3 4246 4103 4097 
3 4178 4104 4235 
3 4104 359 360 
3 4179 4105 4178 
3 4105 358 359 
3 4180 4106 4179 
3 4106 357 358 
3 4181 4107 4180 
3 4107 356 357 
3 4182 4108 4181 
3 4108 355 356 
3 4197 4193 4129 
3 4109 354 355 
3 4230 4182 4181 
3 4110 353 354 
3 4111 4157 352 
3 4111 352 353 
3 4124 21 20 
3 4170 4114 4113 
3 4114 23 4113 
3 4113 23 22 
3 4231 4187 4170 
3 4114 4099 24 
3 4188 4115 4167 
3 4115 26 25 
3 4232 4117 4116 
3 4116 27 26 
3 4117 28 27 
3 4189 4171 4120 
3 4118 29 28 
3 4189 4119 4168 
3 4119 30 29 
3 4171 4121 4120 
3 4120 31 30 
3 4190 4123 4172 
3 4121 32 31 
3 4172 4123 4122 
3 4122 33 32 
3 4123 33 4122 
3 4151 17 16 
3 4144 447 4135 
3 4283 4169 18 
3 4283 17 4151 
3 4183 4095 4169 
3 4184 4124 4183 
3 4160 476 477 
3 4158 4140 474 
3 4126 470 471 
3 4198 4126 4136 
3 4159 469 470 
3 4336 4255 4310 
3 4155 461 462 
3 4143 4138 458 
3 4193 4134 4129 
3 4137 479 480 
3 4148 454 455 
3 4153 4133 452 
3 4216 4138 4143 
3 4152 4148 455 
3 4192 465 466 
3 4146 4141 463 
3 4153 452 453 
3 4142 4139 450 
3 4222 4134 4193 
3 4160 477 4134 
3 4147 448 449 
3 4256 4229 4169 
3 4149 472 473 
3 4200 4136 4149 
3 4145 480 481 
3 4284 4145 4157 
3 4143 458 459 
3 4216 4196 4138 
3 4142 450 451 
3 4215 4139 4199 
3 4158 474 475 
3 4208 4140 4158 
3 4146 463 464 
3 4210 4141 4206 
3 4213 4133 4153 
3 4214 4142 4133 
3 4154 4143 459 
3 4219 4143 4154 
3 4144 446 447 
3 4157 4145 481 
3 4205 4146 4132 
3 4206 4146 4205 
3 4209 4256 4135 
3 4147 4135 448 
3 4217 4148 4152 
3 4148 4130 454 
3 4200 4198 4136 
3 4149 4136 472 
3 4255 4150 4203 
3 4156 467 468 
3 4151 446 4144 
3 4201 4131 4196 
3 4217 4152 4201 
3 4202 4153 4130 
3 4213 4153 4202 
3 4221 4128 4155 
3 4194 4154 4128 
3 4221 4155 4210 
3 4155 4128 461 
3 4212 4156 4127 
3 4203 4150 4156 
3 4157 481 482 
3 4284 4157 4111 
3 4195 4158 4125 
3 4208 4158 4195 
3 4204 4126 4198 
3 4220 4159 4204 
3 4222 4160 4134 
3 4160 4125 476 
3 4223 4163 4161 
3 4161 35 1 
3 4164 370 371 
3 4224 4191 4162 
3 4340 4289 4225 
3 4163 36 35 
3 4166 371 372 
3 4226 4224 4164 
3 4289 4227 4165 
3 4165 37 36 
3 4228 4166 372 
3 4393 4290 3719 
3 4284 4110 4243 
3 4110 4182 4243 
3 4187 4099 4114 
3 4250 4118 4117 
3 4247 4249 4304 
3 4256 4169 4283 
3 4185 4113 4112 
3 4233 4187 4231 
3 4188 4232 4116 
3 4189 4120 4119 
3 4247 4171 4249 
3 4186 4172 4122 
3 4247 4285 4172 
3 4177 4175 4101 
3 4173 4096 4100 
3 4176 4097 4102 
3 4177 4101 4096 
3 4176 4246 4097 
3 4176 4102 4175 
3 4234 4098 4103 
3 4235 4104 4098 
3 4245 4174 4244 
3 4174 4173 4100 
3 4248 4173 4245 
3 4252 4177 4248 
3 4236 4178 4235 
3 4178 4105 4104 
3 4237 4179 4236 
3 4179 4106 4105 
3 4294 4237 4236 
3 4180 4107 4106 
3 4181 4108 4107 
3 4182 4109 4108 
3 4243 4182 4230 
3 4182 4110 4109 
3 4239 4185 4184 
3 4183 4124 4095 
3 4185 4112 4184 
3 4184 4112 4124 
3 4284 4111 4110 
3 4299 4239 4295 
3 4185 4170 4113 
3 4186 4122 4121 
3 4256 4144 4135 
3 4187 4167 4099 
3 4187 4114 4170 
3 4188 4116 4115 
3 4292 4241 4233 
3 4250 4168 4118 
3 4250 4117 4232 
3 4253 4189 4168 
3 4172 4285 4190 
3 369 4191 4174 
3 4286 4191 4224 
3 4255 4192 4150 
3 4192 4132 465 
3 4207 4195 4125 
3 4197 4129 4137 
3 4424 4329 4325 
3 4219 4154 4194 
3 4207 4125 4160 
3 4218 4140 4208 
3 4328 4269 4323 
3 4196 4131 4138 
3 4284 4137 4145 
3 4314 4268 4262 
3 4279 4198 4271 
3 4199 4139 4142 
3 4209 4135 4147 
3 4215 4147 4139 
3 4218 4149 4140 
3 4271 4200 4268 
3 4211 4202 4130 
3 4201 4152 4131 
3 4211 4130 4148 
3 4264 4263 4213 
3 4220 4127 4159 
3 4254 4205 4132 
3 4220 4212 4127 
3 4204 4159 4126 
3 4254 4132 4192 
3 4276 4275 4206 
3 4275 4210 4206 
3 4206 4141 4146 
3 4283 4151 4144 
3 4283 4144 4256 
3 4222 4207 4160 
3 4261 4207 4222 
3 4259 4208 4195 
3 4262 4208 4259 
3 4215 4209 4147 
3 4278 4210 4275 
3 4210 4155 4141 
3 4217 4211 4148 
3 4266 4264 4202 
3 4282 4212 4220 
3 4212 4203 4156 
3 4263 4214 4213 
3 4214 4133 4213 
3 4265 4214 4263 
3 4214 4199 4142 
3 4258 4379 4215 
3 4219 4216 4143 
3 4272 4270 4196 
3 4269 4267 4217 
3 4267 4266 4211 
3 4268 4218 4262 
3 4218 4200 4149 
3 4274 4273 4219 
3 4273 4272 4216 
3 4280 4204 4279 
3 4282 4220 4280 
3 4278 4221 4210 
3 4221 4194 4128 
3 4257 4193 4326 
3 4261 4222 4257 
3 4223 4161 4190 
3 4287 4223 4285 
3 4286 4244 4191 
3 4224 4162 4164 
3 4392 4342 4391 
3 4225 4165 4163 
3 4290 4226 4166 
3 4288 4286 4224 
3 4227 37 4165 
3 4715 4227 4342 
3 4290 4228 3719 
3 4228 372 373 
3 4244 4174 4191 
3 4247 4172 4186 
3 4361 4247 4304 
3 4298 4242 4229 
3 4229 4183 4169 
3 4238 4181 4180 
3 4240 4170 4185 
3 4356 4241 4292 
3 4307 4249 4253 
3 4241 4188 4167 
3 4452 4450 4399 
3 4233 4167 4187 
3 4354 4293 4350 
3 4403 4402 4351 
3 4236 4179 4178 
3 4297 4237 4294 
3 4237 4180 4179 
3 4238 4230 4181 
3 4238 4180 4237 
3 4242 4239 4184 
3 4299 4240 4239 
3 4240 4231 4170 
3 4240 4185 4239 
3 4241 4232 4188 
3 4241 4167 4233 
3 4242 4184 4183 
3 4298 4229 4308 
3 4291 4284 4243 
3 4305 4245 4302 
3 4245 4173 4174 
3 4251 4176 4175 
3 4249 4171 4189 
3 4247 4186 4171 
3 4252 4251 4175 
3 4248 4177 4173 
3 4251 4246 4176 
3 4305 4248 4245 
3 4303 4246 4251 
3 4253 4249 4189 
3 4253 4168 4250 
3 4255 4254 4192 
3 4309 4276 4205 
3 4310 4203 4281 
3 4310 4255 4203 
3 4308 4256 4209 
3 4379 4209 4215 
3 4379 4308 4209 
3 4326 4197 4291 
3 4291 4197 4284 
3 4258 4215 4199 
3 4326 4193 4197 
3 4260 4259 4195 
3 4257 4222 4193 
3 4265 4199 4214 
3 4327 4258 4265 
3 4260 4195 4207 
3 4313 4262 4259 
3 4261 4260 4207 
3 4317 4260 4316 
3 4321 4316 4261 
3 4321 4261 4257 
3 4314 4262 4313 
3 4262 4218 4208 
3 4264 4213 4202 
3 4320 4263 4319 
3 4266 4202 4211 
3 4319 4264 4318 
3 4327 4265 4320 
3 4265 4258 4199 
3 4267 4211 4217 
3 4322 4266 4267 
3 4269 4217 4201 
3 4322 4318 4266 
3 4311 4279 4271 
3 4268 4200 4218 
3 4270 4201 4196 
3 4367 4328 4323 
3 4272 4196 4216 
3 4331 4270 4272 
3 4315 4271 4268 
3 4271 4198 4200 
3 4273 4216 4219 
3 4331 4323 4270 
3 4274 4219 4194 
3 4332 4273 4274 
3 4277 4194 4221 
3 4330 4274 4277 
3 4276 4206 4205 
3 4278 4277 4221 
3 4309 4205 4254 
3 4363 4276 4309 
3 4329 4277 4278 
3 4277 4274 4194 
3 4325 4275 4324 
3 4329 4278 4325 
3 4312 4279 4311 
3 4279 4204 4198 
3 4282 4281 4212 
3 4280 4220 4204 
3 4410 4334 4388 
3 4281 4203 4212 
3 4335 4280 4312 
3 4335 4282 4280 
3 4434 4337 4361 
3 4285 4223 4190 
3 4288 4224 4226 
3 4339 4286 4288 
3 4389 4340 4287 
3 4287 4225 4223 
3 4341 4288 4226 
3 4339 4302 4286 
3 4391 4342 4289 
3 4289 4165 4225 
3 4290 4166 4228 
3 4393 4341 4290 
3 4302 4244 4286 
3 4343 4302 4339 
3 4396 4345 4394 
3 4307 4253 4250 
3 4303 4251 4252 
3 4358 4246 4303 
3 4247 4361 4337 
3 4301 4230 4238 
3 4377 4375 4316 
3 4298 4295 4242 
3 4308 4229 4256 
3 4300 4233 4231 
3 4357 4300 4354 
3 4293 4231 4240 
3 4296 4236 4235 
3 4348 4301 4297 
3 4353 4350 4299 
3 4295 4239 4242 
3 4351 4296 4349 
3 4349 4234 4344 
3 4296 4294 4236 
3 4296 4235 4234 
3 4348 4347 4301 
3 4297 4238 4237 
3 4379 4355 4298 
3 4355 4353 4295 
3 4353 4299 4295 
3 4299 4293 4240 
3 4300 4292 4233 
3 4300 4231 4293 
3 4301 4243 4230 
3 4301 4238 4297 
3 4306 4248 4305 
3 4302 4245 4244 
3 4306 4252 4248 
3 4358 4344 4246 
3 4307 4304 4249 
3 4343 4305 4302 
3 4360 4359 4306 
3 4360 4306 4305 
3 4306 4303 4252 
3 4346 4250 4345 
3 4346 4307 4250 
3 4336 4254 4255 
3 4363 4324 4276 
3 4364 4281 4334 
3 4371 4310 4364 
3 4365 4311 4315 
3 4366 4311 4365 
3 4335 4334 4282 
3 4312 4280 4279 
3 4317 4259 4260 
3 4376 4313 4374 
3 4372 4365 4315 
3 4315 4268 4314 
3 4372 4315 4314 
3 4315 4311 4271 
3 4375 4374 4317 
3 4316 4260 4261 
3 4375 4317 4316 
3 4317 4313 4259 
3 4368 4319 4318 
3 4318 4264 4266 
3 4378 4319 4368 
3 4319 4263 4264 
3 4327 4379 4258 
3 4320 4265 4263 
3 4382 4377 4321 
3 4328 4267 4269 
3 4370 4368 4318 
3 4385 4323 4331 
3 4323 4269 4270 
3 4503 4325 4324 
3 4324 4275 4276 
3 4424 4325 4503 
3 4325 4278 4275 
3 4291 4347 4326 
3 4379 4327 4381 
3 4381 4320 4378 
3 4380 4328 4367 
3 4328 4322 4267 
3 4369 4330 4329 
3 4330 4277 4329 
3 4326 4321 4257 
3 4333 4273 4332 
3 4332 4274 4330 
3 4333 4272 4273 
3 4386 4331 4333 
3 4373 4330 4369 
3 4384 4332 4373 
3 4386 4333 4384 
3 4333 4331 4272 
3 4477 4410 4469 
3 4334 4281 4282 
3 4387 4312 4366 
3 4388 4335 4387 
3 4371 4336 4310 
3 4336 4309 4254 
3 4338 4285 4337 
3 4337 4285 4247 
3 4434 4361 4408 
3 4338 4287 4285 
3 4390 4339 4288 
3 4438 4339 4390 
3 4340 4225 4287 
3 4441 4391 4340 
3 4442 4390 4341 
3 4341 4226 4290 
3 4715 4342 3769 
3 4342 4227 4289 
3 4359 4358 4303 
3 4408 4362 4406 
3 4397 4395 4344 
3 4345 4250 4232 
3 4362 4361 4304 
3 4362 4307 4346 
3 4241 4356 4232 
3 4425 4422 4375 
3 4347 4243 4301 
3 4352 4297 4294 
3 4401 4348 4352 
3 4344 4234 4246 
3 4401 4400 4348 
3 4349 4296 4234 
3 4398 4354 4350 
3 4350 4293 4299 
3 4402 4401 4352 
3 4351 4294 4296 
3 4352 4348 4297 
3 4352 4294 4351 
3 4355 4295 4298 
3 4454 4398 4350 
3 4354 4300 4293 
3 4379 4298 4308 
3 4356 4345 4232 
3 4357 4356 4292 
3 4357 4292 4300 
3 4399 4354 4398 
3 4359 4303 4306 
3 4455 4397 4405 
3 4407 4405 4359 
3 4405 4397 4358 
3 4360 4305 4343 
3 4485 4484 4440 
3 4458 4434 4408 
3 4362 4304 4307 
3 4396 4346 4345 
3 4448 4396 4394 
3 4383 4309 4336 
3 4409 4503 4324 
3 4414 4364 4410 
3 4364 4310 4281 
3 4411 4365 4372 
3 4413 4365 4411 
3 4433 4366 4413 
3 4366 4312 4311 
3 4460 4459 4412 
3 4416 4370 4412 
3 4370 4318 4322 
3 4419 4368 4416 
3 4466 4415 4424 
3 4415 4373 4369 
3 4380 4370 4322 
3 4418 4380 4367 
3 4420 4371 4414 
3 4383 4336 4371 
3 4376 4314 4313 
3 4417 4372 4376 
3 4431 4373 4415 
3 4373 4332 4330 
3 4423 4374 4422 
3 4374 4313 4317 
3 4377 4316 4321 
3 4425 4375 4377 
3 4417 4411 4372 
3 4376 4372 4314 
3 4382 4321 4326 
3 4427 4425 4377 
3 4454 4452 4398 
3 4378 4320 4319 
3 4381 4327 4320 
3 4409 4324 4363 
3 4380 4322 4328 
3 4418 4412 4380 
3 4426 4378 4419 
3 4486 4454 4428 
3 4424 4369 4329 
3 4500 4451 4496 
3 4429 4381 4426 
3 4430 4326 4347 
3 4420 4383 4371 
3 4383 4363 4309 
3 4386 4385 4331 
3 4384 4333 4332 
3 4432 4418 4367 
3 4385 4367 4323 
3 4435 4384 4431 
3 4436 4386 4435 
3 4437 4387 4433 
3 4387 4335 4312 
3 4469 4388 4437 
3 4388 4334 4335 
3 4347 4291 4243 
3 4430 4347 4400 
3 4489 4389 4439 
3 4389 4287 4338 
3 4390 4288 4341 
3 4488 4438 4390 
3 4391 4289 4340 
3 4445 4392 4391 
3 4617 4443 4492 
3 4392 3769 4342 
3 4493 4444 3719 
3 4491 4442 4393 
3 4529 4501 4449 
3 4397 4344 4358 
3 4394 4345 4356 
3 4451 4500 4402 
3 4449 4396 4448 
3 4406 4346 4396 
3 4405 4358 4359 
3 4404 4356 4357 
3 4454 4350 4353 
3 4450 4448 4404 
3 4399 4357 4354 
3 4474 4473 4425 
3 4400 4347 4348 
3 4402 4352 4351 
3 4453 4401 4500 
3 4403 4351 4349 
3 4451 4402 4403 
3 4395 4403 4349 
3 4395 4349 4344 
3 4447 4395 4446 
3 4404 4394 4356 
3 4404 4357 4399 
3 4454 4353 4355 
3 4472 4419 4465 
3 4428 4355 4379 
3 4428 4454 4355 
3 4407 4359 4360 
3 4457 4406 4449 
3 4406 4362 4346 
3 4440 4360 4343 
3 4456 4455 4405 
3 4458 4408 4457 
3 4408 4361 4362 
3 4421 4363 4383 
3 4503 4409 4464 
3 4429 4428 4379 
3 4468 4464 4421 
3 4410 4364 4334 
3 4461 4413 4411 
3 4462 4411 4417 
3 4459 4416 4412 
3 4412 4370 4380 
3 4478 4413 4461 
3 4413 4366 4365 
3 4477 4414 4410 
3 4414 4371 4364 
3 4476 4415 4466 
3 4465 4416 4459 
3 4416 4368 4370 
3 4423 4376 4374 
3 4462 4461 4411 
3 4432 4367 4385 
3 4504 4459 4460 
3 4499 4498 4452 
3 4419 4378 4368 
3 4468 4421 4420 
3 4421 4383 4420 
3 4464 4409 4421 
3 4421 4409 4363 
3 4471 4463 4423 
3 4422 4374 4375 
3 4467 4424 4503 
3 4471 4423 4422 
3 4423 4417 4376 
3 4424 4415 4369 
3 4427 4377 4382 
3 4473 4471 4422 
3 4426 4381 4378 
3 4430 4427 4382 
3 4453 4400 4401 
3 4429 4379 4381 
3 4475 4426 4472 
3 4430 4382 4326 
3 4487 4430 4400 
3 4480 4431 4476 
3 4431 4384 4373 
3 4436 4385 4386 
3 4479 4460 4418 
3 4481 4433 4478 
3 4433 4387 4366 
3 4439 4338 4434 
3 4434 4338 4337 
3 4483 4435 4480 
3 4435 4386 4384 
3 4482 4479 4432 
3 4436 4432 4385 
3 4521 4437 4481 
3 4437 4388 4387 
3 4484 4456 4407 
3 4438 4343 4339 
3 4489 4441 4389 
3 4439 4389 4338 
3 4440 4407 4360 
3 4440 4343 4438 
3 4490 4441 3710 
3 4441 4340 4389 
3 4534 4488 4442 
3 4442 4341 4393 
3 4716 4712 3781 
3 4443 3769 4392 
3 4538 4444 4493 
3 4580 4491 4539 
3 4530 4445 4490 
3 4536 4492 4445 
3 4529 4448 4495 
3 4497 4447 4446 
3 4446 4395 4397 
3 4455 4446 4397 
3 4502 4455 4456 
3 4448 4394 4404 
3 4450 4404 4399 
3 4449 4406 4396 
3 4501 4457 4449 
3 4452 4399 4398 
3 4545 4514 4473 
3 4500 4401 4402 
3 4447 4451 4403 
3 4498 4495 4450 
3 4487 4400 4453 
3 4447 4403 4395 
3 4486 4428 4429 
3 4519 4472 4510 
3 4456 4405 4407 
3 4484 4407 4440 
3 4531 4458 4457 
3 4457 4408 4406 
3 4531 4457 4501 
3 4458 4439 4434 
3 4460 4412 4418 
3 4505 4459 4504 
3 4479 4418 4432 
3 4517 4504 4460 
3 4506 4461 4462 
3 4515 4461 4506 
3 4463 4462 4417 
3 4507 4462 4463 
3 4507 4506 4462 
3 4463 4417 4423 
3 4508 4464 4468 
3 4510 4465 4505 
3 4465 4419 4416 
3 4467 4466 4424 
3 4518 4466 4511 
3 4562 4503 4464 
3 4511 4466 4467 
3 4470 4420 4414 
3 4513 4468 4470 
3 4477 4470 4414 
3 4469 4410 4388 
3 4513 4508 4468 
3 4470 4468 4420 
3 4473 4422 4425 
3 4514 4471 4473 
3 4543 4541 4499 
3 4472 4426 4419 
3 4474 4425 4427 
3 4514 4509 4471 
3 4487 4474 4427 
3 4545 4474 4487 
3 4475 4429 4426 
3 4522 4476 4518 
3 4476 4431 4415 
3 4523 4469 4521 
3 4520 4513 4470 
3 4524 4478 4515 
3 4478 4433 4413 
3 4482 4432 4436 
3 4555 4548 4504 
3 4483 4482 4436 
3 4480 4435 4431 
3 4564 4481 4524 
3 4481 4437 4433 
3 4483 4436 4435 
3 4525 4517 4479 
3 4526 4480 4522 
3 4527 4483 4526 
3 4485 4440 4438 
3 4623 4624 4588 
3 4488 4485 4438 
3 4533 4512 4485 
3 4486 4429 4475 
3 4487 4427 4430 
3 4545 4487 4453 
3 4488 4390 4442 
3 4534 4533 4488 
3 4535 4441 4489 
3 4532 4439 4458 
3 4490 4391 4441 
3 4530 4490 3710 
3 4534 4491 3720 
3 4491 4393 4444 
3 4492 4392 4445 
3 4582 4492 4536 
3 4537 4493 3719 
3 4713 4537 3718 
3 4776 4494 4716 
3 4715 4494 3782 
3 4577 4497 4544 
3 4497 4446 4455 
3 4549 4529 4495 
3 4495 4448 4450 
3 4496 4447 4497 
3 4502 4497 4455 
3 4550 4516 4546 
3 4498 4450 4452 
3 4499 4452 4454 
3 4559 4556 4514 
3 4621 4584 4542 
3 4496 4451 4447 
3 4541 4540 4498 
3 4584 4500 4542 
3 4547 4486 4475 
3 4558 4510 4551 
3 4579 4535 4489 
3 4578 4501 4563 
3 4516 4484 4512 
3 4548 4505 4504 
3 4517 4460 4479 
3 4551 4505 4548 
3 4505 4465 4459 
3 4554 4506 4552 
3 4552 4506 4507 
3 4509 4507 4463 
3 4553 4552 4507 
3 4528 4511 4467 
3 4562 4464 4508 
3 4556 4553 4509 
3 4509 4463 4471 
3 4586 4585 4541 
3 4510 4472 4465 
3 4574 4560 4511 
3 4560 4518 4511 
3 4512 4484 4485 
3 4520 4470 4477 
3 4561 4513 4520 
3 4545 4473 4474 
3 4559 4514 4545 
3 4565 4515 4554 
3 4515 4478 4461 
3 4516 4502 4456 
3 4516 4456 4484 
3 4525 4479 4482 
3 4601 4555 4569 
3 4568 4518 4560 
3 4518 4476 4466 
3 4543 4547 4519 
3 4519 4475 4472 
3 4523 4477 4469 
3 4561 4557 4513 
3 4571 4521 4564 
3 4521 4469 4437 
3 4572 4522 4568 
3 4522 4480 4476 
3 4566 4561 4520 
3 4523 4520 4477 
3 4598 4524 4565 
3 4524 4481 4478 
3 4527 4482 4483 
3 4569 4555 4517 
3 4575 4526 4572 
3 4526 4483 4480 
3 4573 4569 4525 
3 4527 4525 4482 
3 4612 4600 4562 
3 4628 4604 4574 
3 4529 4449 4448 
3 4549 4495 4540 
3 4576 4530 3710 
3 4581 4536 4530 
3 4579 4532 4531 
3 4649 4578 4611 
3 4532 4489 4439 
3 4532 4458 4531 
3 4533 4485 4488 
3 4570 4533 4567 
3 4534 4442 4491 
3 4567 4534 3720 
3 4535 3710 4441 
3 4579 4489 4532 
3 4582 4536 3756 
3 4536 4445 4530 
3 4714 3719 4228 
3 4774 4713 3718 
3 4583 4538 3730 
3 4652 4538 4583 
3 4539 4444 4538 
3 4616 4580 4539 
3 4585 4549 4540 
3 4544 4497 4502 
3 4540 4495 4498 
3 4577 4542 4496 
3 4541 4498 4499 
3 4543 4499 4454 
3 4542 4500 4496 
3 4547 4543 4454 
3 4543 4558 4586 
3 4546 4516 4512 
3 4587 4550 4546 
3 4570 4512 4533 
3 4596 4570 4567 
3 4547 4454 4486 
3 4547 4475 4519 
3 4589 4551 4548 
3 4555 4504 4517 
3 4592 4549 4585 
3 4563 4529 4549 
3 4550 4544 4502 
3 4550 4502 4516 
3 4589 4558 4551 
3 4551 4510 4505 
3 4634 4633 4605 
3 4605 4552 4553 
3 4553 4507 4509 
3 4605 4553 3721 
3 4633 4594 4605 
3 4554 4515 4506 
3 4569 4517 4525 
3 4591 4589 4548 
3 4556 3721 4553 
3 4556 4509 4514 
3 4557 4508 4513 
3 4595 4557 4561 
3 4558 4519 4510 
3 4500 4584 4453 
3 3721 4556 4559 
3 4604 4560 4574 
3 4602 4568 4560 
3 4566 4520 4523 
3 4599 4561 4566 
3 4562 4528 4503 
3 4562 4508 4557 
3 4563 4501 4529 
3 4636 4592 4585 
3 4571 4566 4523 
3 4564 4521 4481 
3 4631 4565 4597 
3 4565 4524 4515 
3 4571 4523 4521 
3 4599 4595 4561 
3 4567 4533 4534 
3 4596 4567 3720 
3 4607 4572 4568 
3 4568 4522 4518 
3 4573 4525 4527 
3 4630 4626 4591 
3 4648 4570 4596 
3 4570 4546 4512 
3 4606 4564 4598 
3 4603 4599 4566 
3 4575 4573 4527 
3 4572 4526 4522 
3 4575 4527 4526 
3 4608 4601 4569 
3 4600 4528 4562 
3 4604 4602 4560 
3 4609 4575 4572 
3 4610 4575 4609 
3 4576 3710 4535 
3 4630 4591 4601 
3 4577 4496 4497 
3 4578 4531 4501 
3 4611 4563 4592 
3 4579 4576 4535 
3 4579 4531 4578 
3 4650 4640 4614 
3 4580 3720 4491 
3 4615 4530 4576 
3 4710 4706 4680 
3 4654 4618 3756 
3 4653 4582 4618 
3 4655 3731 4583 
3 4707 4652 4583 
3 4453 4584 4545 
3 4636 4585 4622 
3 4585 4540 4541 
3 4624 4621 4593 
3 4590 4544 4550 
3 4586 4541 4543 
3 4622 4585 4586 
3 4621 4620 3721 
3 4593 4542 4577 
3 4622 4558 4627 
3 4621 3721 4559 
3 4605 4594 4552 
3 4648 4546 4570 
3 4543 4519 4558 
3 4588 4577 4544 
3 4664 4624 4657 
3 4621 4559 4545 
3 4621 4545 4584 
3 4591 4548 4555 
3 4590 4588 4544 
3 4590 4550 4587 
3 4601 4591 4555 
3 4626 4589 4591 
3 4592 4563 4549 
3 4658 4636 4622 
3 4593 4621 4542 
3 4593 4577 4588 
3 4597 4554 4594 
3 4594 4554 4552 
3 4558 4589 4627 
3 4669 4632 4667 
3 4628 4600 4612 
3 4614 3720 4580 
3 4614 4596 3720 
3 4631 4598 4565 
3 4597 4565 4554 
3 4606 4603 4571 
3 4598 4564 4524 
3 4603 4566 4571 
3 4635 4632 4599 
3 4600 4574 4528 
3 4612 4562 4557 
3 4608 4569 4573 
3 4639 4630 4601 
3 4673 4641 4637 
3 4641 4602 4637 
3 4606 4571 4564 
3 4643 4635 4603 
3 4628 4574 4600 
3 4670 4628 4662 
3 4634 3721 4620 
3 4659 4657 4623 
3 4642 4606 4598 
3 4643 4606 4642 
3 4646 4609 4607 
3 4607 4568 4602 
3 4610 4573 4575 
3 4704 4681 4702 
3 4609 4572 4607 
3 4647 4610 4609 
3 4647 4645 4610 
3 4610 4608 4573 
3 4666 4636 4658 
3 4611 4578 4563 
3 4612 4557 4595 
3 4644 4612 4595 
3 4693 4615 4613 
3 4613 4576 4579 
3 4650 4580 4616 
3 4625 4623 4590 
3 4615 4581 4530 
3 4615 4576 4613 
3 4652 4616 4539 
3 4722 4694 4719 
3 4617 3768 4443 
3 4617 4492 4582 
3 4735 4684 3755 
3 4653 4617 4582 
3 4768 3730 4713 
3 4686 4655 4619 
3 4658 4622 4627 
3 4623 4588 4590 
3 4625 4590 4587 
3 4622 4586 4558 
3 4624 4620 4621 
3 4674 4648 4640 
3 4633 4629 4594 
3 4624 4593 4588 
3 4726 4717 4688 
3 4665 4633 4634 
3 4692 4678 4638 
3 4658 4627 4626 
3 4627 4589 4626 
3 4644 4595 4632 
3 4690 4670 4662 
3 4663 4631 4597 
3 4629 4597 4594 
3 4639 4601 4608 
3 4693 4613 4649 
3 4663 4597 4629 
3 4671 4631 4663 
3 4632 4595 4599 
3 4695 4690 4669 
3 4634 4605 3721 
3 4665 4634 4664 
3 4691 4664 4657 
3 4672 4667 4635 
3 4635 4599 4603 
3 4638 4592 4636 
3 4677 4641 4673 
3 4637 4602 4604 
3 4678 4649 4611 
3 4638 4611 4592 
3 4645 4639 4608 
3 4676 4668 4639 
3 4648 4625 4587 
3 4650 4614 4580 
3 4677 4646 4641 
3 4641 4607 4602 
3 4675 4643 4642 
3 4642 4598 4631 
3 4675 4672 4643 
3 4643 4603 4606 
3 4669 4644 4632 
3 4644 4628 4612 
3 4645 4608 4610 
3 4727 4705 4718 
3 4646 4607 4641 
3 4647 4646 3744 
3 4647 4609 4646 
3 4681 4647 3744 
3 4648 4587 4546 
3 4648 4596 4640 
3 4649 4613 4578 
3 4678 4611 4638 
3 4707 4679 4616 
3 4721 4719 4717 
3 4668 4660 4630 
3 4651 4581 4615 
3 4652 4539 4538 
3 4707 4583 3731 
3 4711 4685 4653 
3 4653 3768 4617 
3 4683 4654 3756 
3 4709 3755 4654 
3 4750 4745 3731 
3 4655 4583 4619 
3 4817 4775 4656 
3 4656 3741 4619 
3 4657 4624 4623 
3 4659 4623 4625 
3 4660 4626 4630 
3 4660 4658 4626 
3 4691 4688 4665 
3 4674 4659 4625 
3 4699 4692 4666 
3 4668 4630 4639 
3 4694 4663 4687 
3 4661 4629 4633 
3 4732 4690 4720 
3 4662 4628 4644 
3 4687 4629 4661 
3 4708 4682 4679 
3 4664 4634 4620 
3 4664 4620 4624 
3 4691 4665 4664 
3 4665 4661 4633 
3 4666 4638 4636 
3 4666 4658 4660 
3 4667 4632 4635 
3 4723 4695 4696 
3 4676 4639 4645 
3 4727 4718 4698 
3 4695 4669 4667 
3 4669 4662 4644 
3 4670 4637 4604 
3 4670 4604 4628 
3 4700 4675 4671 
3 4671 4642 4631 
3 4696 4672 3732 
3 4672 4635 4643 
3 4697 4637 4670 
3 4701 4677 4673 
3 4674 4625 4648 
3 4689 4640 4682 
3 4675 4642 4671 
3 4729 4675 4700 
3 4681 4645 4647 
3 4704 4676 4681 
3 4703 4677 4701 
3 4677 3744 4646 
3 4718 4693 4678 
3 4692 4638 4666 
3 4679 4650 4616 
3 4731 4708 4679 
3 4736 4730 4710 
3 4680 4581 4651 
3 4681 4676 4645 
3 4733 4710 4730 
3 4682 4640 4650 
3 4682 4650 4679 
3 4710 3756 4706 
3 4740 4728 4701 
3 4684 4618 4654 
3 4735 4711 4684 
3 4814 4773 3767 
3 4773 4712 4685 
3 4819 3741 4816 
3 4760 4686 3742 
3 4687 4663 4629 
3 4717 4661 4688 
3 4688 4661 4665 
3 4726 4689 4721 
3 4689 4659 4674 
3 4721 4689 4682 
3 4725 4701 4673 
3 4690 4662 4669 
3 4691 4657 4659 
3 4691 4659 4688 
3 4699 4666 4660 
3 4718 4699 4698 
3 4693 4651 4615 
3 4693 4649 4678 
3 4737 4700 4722 
3 4694 4671 4663 
3 4696 4695 4667 
3 4723 4720 4695 
3 4696 4667 4672 
3 4723 4696 3732 
3 4697 4673 4637 
3 4697 4670 4690 
3 4718 4705 4651 
3 4698 4668 4676 
3 4699 4660 4668 
3 4699 4668 4698 
3 4737 4729 4700 
3 4700 4671 4694 
3 4725 4673 4697 
3 4752 4728 4740 
3 4702 4681 3744 
3 4724 3744 4703 
3 4728 4724 4703 
3 4703 3744 4677 
3 4736 4705 4727 
3 4704 4698 4676 
3 4705 4680 4651 
3 4718 4651 4693 
3 4706 3756 4536 
3 4706 4581 4680 
3 4731 4707 3731 
3 4707 4616 4652 
3 4719 4687 4717 
3 4731 4679 4707 
3 4759 4709 4746 
3 4709 4654 4683 
3 4736 4680 4705 
3 4710 4683 3756 
3 4711 3767 4685 
3 4711 4653 4684 
3 4776 4716 3781 
3 4712 3768 4685 
3 4768 4713 3729 
3 4713 4493 4537 
3 4714 4228 373 
3 4810 4714 373 
3 4715 3769 4494 
3 4795 4715 3782 
3 4716 4494 4443 
3 4716 3768 4712 
3 4726 4721 4717 
3 4717 4687 4661 
3 4718 4678 4692 
3 4718 4692 4699 
3 4739 4722 4719 
3 4719 4694 4687 
3 4741 4732 4738 
3 4720 4690 4695 
3 4721 4682 4708 
3 4739 4721 4708 
3 4744 4739 4708 
3 4722 4700 4694 
3 4748 3732 4737 
3 4743 4723 4742 
3 4734 4733 4724 
3 4724 4702 3744 
3 4732 4725 4697 
3 4741 4725 4732 
3 4726 4688 4659 
3 4726 4659 4689 
3 4727 4698 4704 
3 4730 4727 4704 
3 4728 4703 4701 
3 4746 4734 4728 
3 4729 3732 4672 
3 4729 4672 4675 
3 4730 4704 4702 
3 4733 4730 4702 
3 4745 4731 3731 
3 4749 4748 4744 
3 4732 4697 4690 
3 4738 4732 4720 
3 4733 4702 4724 
3 4733 4683 4710 
3 4734 4709 4683 
3 4734 4724 4728 
3 4812 4770 4735 
3 4735 3767 4711 
3 4736 4710 4680 
3 4736 4727 4730 
3 4737 3732 4729 
3 4744 4722 4739 
3 4741 4740 4725 
3 4743 4720 4723 
3 4739 4719 4721 
3 4744 4708 4731 
3 4752 4746 4728 
3 4740 4701 4725 
3 4747 4741 4738 
3 4741 3743 4740 
3 4753 4748 4749 
3 4742 4723 3732 
3 4747 4738 4743 
3 4743 4738 4720 
3 4749 4731 4745 
3 4744 4737 4722 
3 4750 3731 4655 
3 4756 4745 4750 
3 4754 4746 4752 
3 4746 4709 4734 
3 4758 4747 4751 
3 4747 3743 4741 
3 4748 4742 3732 
3 4748 4737 4744 
3 4749 4744 4731 
3 4756 4753 4745 
3 4760 4655 4686 
3 4764 4760 4761 
3 4753 4751 4742 
3 4764 4761 4755 
3 4752 4740 3743 
3 4754 4752 3743 
3 4753 4742 4748 
3 4753 4749 4745 
3 4757 3743 4755 
3 4762 4754 4757 
3 4761 4757 4755 
3 4755 3743 4747 
3 4756 4751 4753 
3 4760 4756 4750 
3 4763 4762 4757 
3 4757 4754 3743 
3 4758 4755 4747 
3 4758 4751 4756 
3 4759 3755 4709 
3 4759 4746 4754 
3 4760 4750 4655 
3 4761 4760 3742 
3 4764 4755 4758 
3 4766 4763 3742 
3 4763 4757 4761 
3 4765 4762 4763 
3 4763 4761 3742 
3 4766 4765 4763 
3 4764 4758 4756 
3 4764 4756 4760 
3 4769 4765 3754 
3 4765 3755 4762 
3 4771 3742 4686 
3 4766 3754 4765 
3 4772 4767 3753 
3 4767 3754 4766 
3 4817 4768 3729 
3 4768 4656 3730 
3 4812 4769 3754 
3 4769 4735 3755 
3 4890 4770 3766 
3 4770 3767 4735 
3 4771 4766 3742 
3 4771 4686 3741 
3 4818 4772 3753 
3 4891 4812 4772 
3 4773 4685 3767 
3 4847 4773 3780 
3 4815 4774 3718 
3 4896 4774 4815 
3 4816 4775 3740 
3 4775 3741 4656 
3 4813 4776 3781 
3 4776 3782 4494 
3 4778 4777 4092 
3 4888 4777 442 
3 4820 4778 4091 
3 4778 441 4777 
3 4821 4779 4089 
3 4779 438 4090 
3 4822 4780 4086 
3 4887 4780 434 
3 4782 4781 4084 
3 4781 431 4085 
3 4782 4083 429 
3 4782 430 4781 
3 4783 406 407 
3 4880 4783 3913 
3 4784 413 414 
3 4881 4784 3978 
3 4785 416 417 
3 4882 4785 4004 
3 4786 420 421 
3 4883 4786 4043 
3 4787 423 424 
3 4885 4787 4069 
3 4867 4788 3733 
3 4788 3722 386 
3 4830 4789 394 
3 4886 4789 3796 
3 4790 399 400 
3 4877 4790 3848 
3 4833 4791 404 
3 4879 4791 3887 
3 4792 397 3822 
3 4875 4792 3822 
3 4873 4793 3757 
3 4793 3745 389 
3 4838 4794 42 
3 4874 4794 3808 
3 4813 4804 3782 
3 4795 39 38 
3 4876 4796 3847 
3 4796 3860 47 
3 4843 4797 49 
3 4878 4797 3873 
3 4870 4798 3977 
3 4798 3990 61 
3 4871 4799 4003 
3 4799 4016 64 
3 4872 4800 4042 
3 4800 4055 68 
3 4884 4801 4068 
3 4801 4081 4841 
3 4869 4802 3938 
3 4802 3951 57 
3 4868 4803 3912 
3 4803 3925 54 
3 4804 3795 40 
3 4804 39 4795 
3 4846 4805 377 
3 4805 3715 3716 
3 4858 4806 3716 
3 4806 3717 375 
3 4807 3713 3714 
3 4807 3714 379 
3 4808 3712 3713 
3 4808 3713 4807 
3 4809 382 383 
3 4809 3711 3712 
3 4815 4810 374 
3 4810 3718 4714 
3 4811 4083 4082 
3 4811 4082 427 
3 4812 3754 4772 
3 4812 3766 4770 
3 4894 4813 3781 
3 4813 3795 4804 
3 4814 3780 4773 
3 4814 3767 4770 
3 4815 374 375 
3 4896 4815 3717 
3 5016 4958 4816 
3 4819 3753 4767 
3 4892 3729 3728 
3 4817 3740 4775 
3 4958 3753 4816 
3 4957 4891 3765 
3 4819 4767 4771 
3 4819 4771 3741 
3 4820 4091 4090 
3 4820 4090 438 
3 4821 4089 4088 
3 4821 4088 436 
3 4822 4086 4085 
3 4822 4085 432 
3 4823 412 413 
3 4823 3965 3952 
3 4824 415 416 
3 4824 3991 3978 
3 4825 419 420 
3 4918 4825 4030 
3 4826 408 3926 
3 4909 4826 3926 
3 4827 422 423 
3 4827 4056 4043 
3 4828 388 3745 
3 4828 3745 3733 
3 4829 391 3770 
3 4904 4829 3770 
3 4830 395 3809 
3 4830 3809 3796 
3 4831 398 3835 
3 4906 4831 3835 
3 4832 402 403 
3 4916 4832 3874 
3 4833 405 3900 
3 4833 3900 3887 
3 4834 401 3861 
3 4907 4834 3861 
3 4915 4835 3783 
3 4835 3770 392 
3 4836 3722 3711 
3 4836 3711 385 
3 4837 45 3834 
3 4931 4837 3834 
3 4838 3795 3808 
3 4838 3808 4794 
3 4935 4839 3964 
3 4839 3977 4798 
3 4840 3990 4003 
3 4799 4840 4003 
3 4841 4081 4094 
3 4841 4094 72 
3 4842 51 50 
3 4949 4842 3886 
3 4843 48 3860 
3 4843 3860 3873 
3 4933 4844 3821 
3 4844 3834 44 
3 4934 4845 3899 
3 4845 3912 4803 
3 4846 3714 3715 
3 4846 3715 4805 
3 4889 4847 3780 
3 5106 4847 4889 
3 4848 3727 3716 
3 4848 3715 3726 
3 4922 4849 4073 
3 4849 4087 4074 
3 4902 4850 4078 
3 4850 4092 4079 
3 4851 4079 4092 
3 4929 4851 4093 
3 4938 4852 3725 
3 4852 3713 3724 
3 4853 3724 3713 
3 4853 3712 3723 
3 4854 3723 3712 
3 4854 3711 3722 
3 4855 4069 4082 
3 4855 4083 4070 
3 4856 4070 4083 
3 4856 4084 4071 
3 4857 4071 4084 
3 4857 4085 4922 
3 4896 4858 3728 
3 4858 3716 3727 
3 4859 4076 4089 
3 4859 4090 4077 
3 4936 4860 4029 
3 4860 4042 4800 
3 4861 418 4017 
3 4911 4861 4017 
3 4925 4862 3951 
3 4862 3964 58 
3 4863 425 4082 
3 4863 4082 4069 
3 4927 4864 4016 
3 4864 4029 65 
3 4865 4055 4068 
3 4801 4865 4068 
3 4866 3925 3938 
3 4866 3938 4802 
3 4913 4867 3734 
3 4867 3723 4854 
3 4868 3925 4803 
3 4939 4868 3911 
3 4869 3951 4802 
3 4940 4869 3937 
3 4870 3990 4798 
3 4941 4870 3976 
3 4871 4016 4799 
3 4942 4871 4002 
3 4872 4055 4800 
3 4943 4872 4041 
3 4873 3745 4793 
3 4944 4873 3758 
3 4874 3821 4794 
3 4895 4874 3807 
3 4875 3809 4792 
3 4945 4875 3823 
3 4876 3860 4796 
3 4946 4876 3846 
3 4877 3835 4790 
3 4947 4877 3849 
3 4878 3886 4797 
3 4948 4878 3872 
3 4879 3874 4791 
3 4950 4879 3888 
3 4880 3900 4783 
3 4951 4880 3914 
3 4881 3965 4784 
3 4952 4881 3979 
3 4882 3991 4785 
3 4953 4882 4005 
3 4883 4030 4786 
3 4954 4883 4044 
3 4884 4081 4801 
3 4900 4884 4067 
3 4885 4056 4787 
3 4919 4885 4070 
3 4886 3783 4789 
3 4955 4886 3797 
3 4887 4087 4780 
3 4887 435 4088 
3 4888 4094 4093 
3 4888 4093 4777 
3 5017 4889 4956 
3 5106 4889 3793 
3 4957 4890 3766 
3 4956 4890 3779 
3 4891 3766 4812 
3 4891 4772 4818 
3 5129 3728 3739 
3 5129 5072 3740 
3 4893 3752 3764 
3 4893 3764 4818 
3 4894 3794 4813 
3 4894 3781 4847 
3 4967 4895 3806 
3 4895 3820 4874 
3 4896 3717 4858 
3 4896 3728 4774 
3 4897 3738 3727 
3 4966 4897 3726 
3 5003 4898 4060 
3 4898 4074 4061 
3 4984 4899 4065 
3 4899 4079 4066 
3 4900 4066 4079 
3 4900 4080 4884 
3 4923 4901 4075 
3 4901 4089 4076 
3 4902 4077 4090 
3 4902 4091 4850 
3 4903 3745 4873 
3 4903 3746 3734 
3 4904 3771 3758 
3 4904 3757 4829 
3 4905 3810 3797 
3 4905 3796 3809 
3 4906 3836 3823 
3 4906 3822 4831 
3 4907 3862 3849 
3 4907 3848 4834 
3 4908 3901 3888 
3 4908 3887 3900 
3 4909 3927 3914 
3 4909 3913 4826 
3 4910 3992 3979 
3 4910 3978 3991 
3 4911 4018 4005 
3 4911 4004 4861 
3 4912 4057 4044 
3 4912 4043 4056 
3 4913 3735 3724 
3 4913 3723 4867 
3 4914 3736 3725 
3 4914 3724 3735 
3 4915 3770 4835 
3 4997 4915 3784 
3 4916 3861 4832 
3 4998 4916 3875 
3 4917 3952 3965 
3 5000 4917 3966 
3 4918 4017 4825 
3 5001 4918 4031 
3 4919 4057 4885 
3 4920 4919 4071 
3 4920 4058 4919 
3 4920 4072 4059 
3 4921 3739 3728 
3 4921 3727 3738 
3 4857 4922 4072 
3 4922 4086 4849 
3 4923 4074 4087 
3 4923 4088 4901 
3 4924 3938 3925 
3 4970 4924 3924 
3 4925 3964 4862 
3 4971 4925 3950 
3 4926 4003 3990 
3 4972 4926 3989 
3 4927 4029 4864 
3 4973 4927 4015 
3 4928 4068 4055 
3 4974 4928 4054 
3 4929 4094 4081 
3 4929 4080 4851 
3 4930 3859 3872 
3 4930 3873 3860 
3 4931 3833 3846 
3 4931 3847 4837 
3 4965 4932 3794 
3 4932 3808 3795 
3 4933 3834 4844 
3 4977 4933 3820 
3 4934 3898 3911 
3 4934 3912 4845 
3 4935 3963 3976 
3 4935 3977 4839 
3 4936 4028 4041 
3 4936 4042 4860 
3 4937 4063 4076 
3 4937 4077 4064 
3 4938 3726 3715 
3 4938 3714 4852 
3 4939 3924 4868 
3 5008 4939 3910 
3 4940 3950 4869 
3 5009 4940 3936 
3 4941 3989 4870 
3 5010 4941 3975 
3 4942 4015 4871 
3 5011 4942 4001 
3 4943 4054 4872 
3 5012 4943 4040 
3 5007 4944 3759 
3 4944 3747 3746 
3 4945 3810 4875 
3 4962 4945 3824 
3 4946 3859 4876 
3 4959 4946 3845 
3 4947 3836 4877 
3 4964 4947 3850 
3 4948 3885 4878 
3 5006 4948 3871 
3 4949 3899 4842 
3 4968 4949 3885 
3 4950 3875 4879 
3 4963 4950 3889 
3 4951 3901 4880 
3 4961 4951 3915 
3 4952 3966 4881 
3 5013 4952 3980 
3 4953 3992 4882 
3 5014 4953 4006 
3 4954 4031 4883 
3 5015 4954 4045 
3 4955 3784 4886 
3 4960 4955 3798 
3 5017 4956 3779 
3 4956 3780 4814 
3 4957 3765 3778 
3 4957 3779 4890 
3 5016 4816 3740 
3 4958 3752 4893 
3 5040 4959 3844 
3 4959 3858 4946 
3 5041 4960 3799 
3 4960 3785 4955 
3 5042 4961 3916 
3 4961 3902 4951 
3 5043 4962 3825 
3 4962 3811 4945 
3 5044 4963 3890 
3 4963 3876 4950 
3 5045 4964 3851 
3 4964 3837 4947 
3 4965 3793 3806 
3 4965 3807 4932 
3 4966 3737 4897 
3 4966 3726 3725 
3 5018 4967 3806 
3 4967 3819 4895 
3 4968 3898 4949 
3 5046 4968 3884 
3 5026 4969 3858 
3 4969 3872 3859 
3 4970 3937 4924 
3 5047 4970 3923 
3 4971 3963 4925 
3 5048 4971 3949 
3 4972 4002 4926 
3 5049 4972 3988 
3 4973 4028 4927 
3 5050 4973 4014 
3 4974 4067 4928 
3 4982 4974 4053 
3 5029 4975 3832 
3 4975 3846 3833 
3 5035 4976 3750 
3 5039 4976 3737 
3 4977 3833 4933 
3 5036 4977 3819 
3 4978 3897 3910 
3 4978 3911 3898 
3 4979 3962 3975 
3 4979 3976 3963 
3 4980 4027 4040 
3 4980 4041 4028 
3 5064 4981 4047 
3 4981 4061 4048 
3 5057 4982 4052 
3 4982 4066 4974 
3 5004 4983 4062 
3 4983 4076 4063 
3 4984 4064 4077 
3 4984 4078 4899 
3 5027 4985 3772 
3 4985 3758 3771 
3 4986 3734 3746 
3 4996 4986 3747 
3 5031 4987 3811 
3 4987 3797 3810 
3 5033 4988 3837 
3 4988 3823 3836 
3 5034 4989 3863 
3 4989 3849 3862 
3 5032 4990 3902 
3 4990 3888 3901 
3 5030 4991 3928 
3 4991 3914 3927 
3 4992 3940 3927 
3 4992 3926 3939 
3 4993 3993 3980 
3 4993 3979 3992 
3 4994 4019 4006 
3 4994 4005 4018 
3 5002 4995 4058 
3 4995 4044 4057 
3 5028 4996 3748 
3 4996 3735 4986 
3 4997 3771 4915 
3 5038 4997 3785 
3 4998 3862 4916 
3 5037 4998 3876 
3 4999 3939 3952 
3 4999 3953 3940 
3 5000 3953 4917 
3 5062 5000 3967 
3 5001 4018 4918 
3 5063 5001 4032 
3 5002 4045 4995 
3 5002 4059 4046 
3 5003 4059 4072 
3 5003 4073 4898 
3 5004 4061 4074 
3 5004 4075 4983 
3 5005 4050 4063 
3 5005 4064 4051 
3 5006 3884 4948 
3 5025 5006 3870 
3 5007 3747 4944 
3 5024 5007 3760 
3 5008 3923 4939 
3 5023 5008 3909 
3 5009 3949 4940 
3 5021 5009 3935 
3 5010 3988 4941 
3 5020 5010 3974 
3 5011 4014 4942 
3 5067 5011 4000 
3 5012 4053 4943 
3 5068 5012 4039 
3 5013 3967 4952 
3 5022 5013 3981 
3 5014 3993 4953 
3 5069 5014 4007 
3 5015 4032 4954 
3 5070 5015 4046 
3 5129 3740 4892 
3 5016 3752 4958 
3 5084 5017 3779 
3 5131 5017 3792 
3 5105 5019 5018 
3 5105 5018 3805 
3 5036 5019 3818 
3 5019 4967 5018 
3 5100 5020 3973 
3 5020 3987 5010 
3 5102 5021 3934 
3 5021 3948 5009 
3 5101 5022 3982 
3 5022 3968 5013 
3 5103 5023 3908 
3 5023 3922 5008 
3 5099 5024 3761 
3 5024 3748 5007 
3 5104 5025 3869 
3 5025 3883 5006 
3 5026 3871 4969 
3 5026 3858 3857 
3 5027 3773 3760 
3 5027 3759 4985 
3 5039 5028 3749 
3 5028 3736 4996 
3 5029 3831 3844 
3 5029 3845 4975 
3 5030 3929 3916 
3 5030 3915 4991 
3 5031 3812 3799 
3 5031 3798 4987 
3 5032 3903 3890 
3 5032 3889 4990 
3 5033 3838 3825 
3 5033 3824 4988 
3 5034 3864 3851 
3 5034 3850 4989 
3 5187 5173 5035 
3 5035 3738 4976 
3 5036 3818 3831 
3 5036 3832 4977 
3 5037 3877 3864 
3 5037 3863 4998 
3 5038 3786 3773 
3 5038 3772 4997 
3 5039 3749 4976 
3 5039 3737 5028 
3 5040 3857 4959 
3 5143 3844 3843 
3 5074 5041 3799 
3 5041 3786 4960 
3 5082 5073 5042 
3 5042 3903 4961 
3 5076 5043 3825 
3 5043 3812 4962 
3 5080 5075 5044 
3 5044 3877 4963 
3 5077 5045 3851 
3 5045 3838 4964 
3 5046 3897 4968 
3 5093 5046 3883 
3 5047 3936 4970 
3 5094 5047 3922 
3 5048 3962 4971 
3 5095 5048 3948 
3 5049 4001 4972 
3 5096 5049 3987 
3 5050 4027 4973 
3 5107 5050 4013 
3 5092 5051 3762 
3 5099 5051 3749 
3 5091 5052 3896 
3 5052 3910 3897 
3 5089 5053 3961 
3 5053 3975 3962 
3 5054 4026 4039 
3 5054 4040 4027 
3 5070 5055 4034 
3 5055 4048 4035 
3 5065 5056 4049 
3 5056 4063 4050 
3 5057 4051 4064 
3 5057 4065 4982 
3 5088 5058 3941 
3 5058 3927 3940 
3 5090 5059 3994 
3 5059 3980 3993 
3 5060 4020 4007 
3 5060 4006 4019 
3 5061 3940 3953 
3 5098 5061 3954 
3 5062 3954 5000 
3 5097 5062 3968 
3 5063 4019 5001 
3 5115 5063 4033 
3 5064 4046 4059 
3 5064 4060 4981 
3 5065 4048 4061 
3 5065 4062 5056 
3 5066 4037 4050 
3 5068 5066 4051 
3 5067 4013 5011 
3 5087 5067 3999 
3 5068 4052 5012 
3 5068 4038 5066 
3 5069 3994 5014 
3 5086 5069 4008 
3 5070 4033 5015 
3 5070 4047 5055 
3 5071 409 410 
3 5071 3939 3926 
3 5173 5083 5072 
3 5173 5072 3739 
3 5140 5073 5082 
3 5148 5073 3904 
3 5118 5074 3800 
3 5118 5081 5074 
3 5139 5075 5080 
3 5151 5075 3878 
3 5119 5076 3826 
3 5119 5079 5076 
3 5120 5077 3852 
3 5120 5078 5077 
3 5146 5078 3839 
3 5078 5045 5077 
3 5145 5079 3813 
3 5079 5043 5076 
3 5080 5044 3890 
3 5139 5080 3891 
3 5150 5081 3787 
3 5081 5041 5074 
3 5082 5042 3916 
3 5140 5082 3917 
3 5130 5083 3751 
3 5083 5016 5072 
3 5084 3778 3791 
3 5084 3792 5017 
3 5085 3806 3793 
3 5172 5085 5131 
3 5137 5086 4009 
3 5086 3995 5069 
3 5138 5087 3998 
3 5087 4012 5067 
3 5088 3942 3929 
3 5088 3928 5058 
3 5089 3960 3973 
3 5089 3974 5053 
3 5090 3995 3982 
3 5090 3981 5059 
3 5091 3895 3908 
3 5091 3909 5052 
3 5204 5187 5092 
3 5092 3750 5051 
3 5093 3882 3895 
3 5093 3896 5046 
3 5094 3921 3934 
3 5094 3935 5047 
3 5095 3947 3960 
3 5095 3961 5048 
3 5096 3986 3999 
3 5096 4000 5049 
3 5097 3969 3956 
3 5097 3955 5062 
3 5098 3955 3942 
3 5098 3941 5061 
3 5099 3761 5051 
3 5099 3749 5024 
3 5183 5100 3973 
3 5100 3986 5020 
3 5128 5121 5101 
3 5101 3969 5022 
3 5180 5122 3934 
3 5102 3947 5021 
3 5182 5123 3908 
3 5103 3921 5023 
3 5134 5124 3869 
3 5104 3882 5025 
3 5105 3804 3817 
3 5105 3818 5019 
3 5106 3793 4965 
3 5106 3794 4894 
3 5107 4026 5050 
3 5136 5107 4012 
3 5135 5108 3775 
3 5108 3761 3774 
3 5134 5109 3856 
3 5109 3870 3857 
3 5115 5110 4021 
3 5110 4035 4022 
3 5111 4025 4038 
3 5111 4039 4026 
3 5116 5112 4036 
3 5112 4050 4037 
3 5133 5113 4021 
3 5113 4007 4020 
3 5114 3774 3761 
3 5114 3760 3773 
3 5115 4020 5063 
3 5115 4034 5110 
3 5116 4035 4048 
3 5116 4049 5112 
3 5132 5117 4024 
3 5117 4038 4025 
3 5118 3801 3788 
3 5118 3787 5081 
3 5119 3827 3814 
3 5119 3813 5079 
3 5120 3853 3840 
3 5120 3839 5078 
3 5174 5121 5128 
3 5175 5121 3970 
3 5156 5122 3933 
3 5156 5127 5122 
3 5157 5123 3907 
3 5157 5125 5123 
3 5158 5124 3868 
3 5158 5126 5124 
3 5180 5125 3920 
3 5125 5103 5123 
3 5179 5126 3881 
3 5126 5104 5124 
3 5181 5127 3946 
3 5127 5102 5122 
3 5128 5101 3982 
3 5174 5128 3983 
3 5129 4892 3728 
3 5129 3739 5072 
3 5204 5130 3751 
3 5130 3764 3752 
3 5131 3793 4889 
3 5172 5131 3792 
3 5132 4023 4036 
3 5132 4037 5117 
3 5133 4022 4009 
3 5133 4008 5113 
3 5134 3855 3868 
3 5134 3869 5109 
3 5217 3776 3763 
3 5135 3762 5108 
3 5136 4011 4024 
3 5136 4025 5107 
3 5186 5137 4009 
3 5137 3996 5086 
3 5185 5138 3998 
3 5138 4011 5087 
3 5139 3892 3879 
3 5139 3878 5075 
3 5140 3918 3905 
3 5140 3904 5073 
3 5166 5141 3788 
3 5150 5141 3774 
3 5142 3831 3818 
3 5167 5142 3817 
3 5171 5143 3843 
3 5143 3856 5109 
3 5144 3982 3995 
3 5170 5144 3996 
3 5163 5145 3813 
3 5145 3799 3812 
3 5164 5146 3839 
3 5146 3825 3838 
3 5165 5147 3865 
3 5147 3851 3864 
3 5162 5148 3904 
3 5148 3890 3903 
3 5161 5149 3930 
3 5149 3916 3929 
3 5150 3787 5141 
3 5150 3774 5114 
3 5151 3864 3877 
3 5168 5151 3878 
3 5152 3942 3955 
3 5169 5152 3956 
3 5153 4022 4035 
3 5153 4036 4023 
3 5160 5154 3985 
3 5154 3999 3986 
3 5155 3844 3831 
3 5159 5155 3830 
3 5156 3932 3945 
3 5156 3946 5127 
3 5157 3906 3919 
3 5157 3920 5125 
3 5158 3867 3880 
3 5158 3881 5126 
3 5159 3843 5155 
3 5159 3830 3829 
3 5160 3984 3997 
3 5160 3998 5154 
3 5161 3931 3918 
3 5161 3917 5149 
3 5162 3905 3892 
3 5162 3891 5148 
3 5163 3814 3801 
3 5163 3800 5145 
3 5164 3840 3827 
3 5164 3826 5146 
3 5165 3866 3853 
3 5165 3852 5147 
3 5166 3789 3776 
3 5166 3775 5141 
3 5167 3816 3829 
3 5167 3830 5142 
3 5168 3879 3866 
3 5168 3865 5151 
3 5169 3957 3944 
3 5169 3943 5152 
3 5170 3997 3984 
3 5170 3983 5144 
3 5171 3842 3855 
3 5171 3856 5143 
3 5172 3791 3804 
3 5172 3805 5085 
3 5173 3751 5083 
3 5173 3739 5035 
3 5174 3984 3971 
3 5174 3970 5121 
3 5175 3956 3969 
3 5194 5175 3970 
3 5178 5176 4010 
3 5176 4024 4011 
3 5189 5177 3943 
3 5177 3929 3942 
3 5178 4009 4022 
3 5178 4023 5176 
3 5179 3895 3882 
3 5191 5179 3881 
3 5180 3934 3921 
3 5192 5180 3920 
3 5181 3960 3947 
3 5193 5181 3946 
3 5190 5182 3894 
3 5182 3908 3895 
3 5195 5183 3972 
3 5183 3985 5154 
3 5184 3973 3960 
3 5188 5184 3959 
3 5186 5185 3997 
3 5185 4010 4011 
3 5186 4010 5185 
3 5186 3997 3996 
3 5187 3751 5173 
3 5187 3750 5092 
3 5208 5188 3958 
3 5188 3972 5184 
3 5189 3944 3931 
3 5189 3930 5177 
3 5190 3893 3906 
3 5190 3907 5182 
3 5191 3880 3893 
3 5191 3894 5179 
3 5192 3919 3932 
3 5192 3933 5180 
3 5193 3945 3958 
3 5193 3959 5181 
3 5208 5194 3971 
3 5194 3957 5175 
3 5195 3971 3984 
3 5195 3985 5183 
3 5206 5203 3829 
3 5196 3842 5159 
3 5207 5197 3854 
3 5197 3868 3855 
3 5198 3814 3827 
3 5206 5198 3828 
3 5199 3840 3853 
3 5205 5199 3854 
3 5200 3879 3892 
3 5200 3893 3880 
3 5201 3905 3918 
3 5201 3919 3906 
3 5202 3788 3801 
3 5202 3802 3789 
3 5203 3828 3841 
3 5216 5203 3841 
3 5204 3763 5130 
3 5204 3751 5187 
3 5205 3855 3842 
3 5205 3841 5199 
3 5206 3829 3816 
3 5206 3815 5198 
3 5207 3853 3866 
3 5207 3867 5197 
3 5208 3958 5194 
3 5208 3971 5188 
3 5209 3841 3828 
3 5209 3827 3840 
3 5210 3906 3893 
3 5210 3892 3905 
3 5211 3932 3919 
3 5211 3918 3931 
3 5212 3866 3879 
3 5212 3880 3867 
3 5213 3944 3957 
3 5213 3958 3945 
3 5214 3945 3932 
3 5214 3931 3944 
3 5215 3815 3802 
3 5202 5215 3802 
3 5216 3841 5205 
3 5216 3842 5196 
3 5217 3763 5204 
3 5217 3762 5135 
3 3776 3789 5218 
3 3790 3777 5218 
3 8 483 261 
3 261 483 5529 
3 5529 483 484 
3 6384 485 486 
3 6483 486 487 
3 5532 487 488 
3 6385 489 490 
3 6484 490 491 
3 5536 492 493 
3 6387 493 494 
3 6485 494 495 
3 5539 496 497 
3 6388 497 498 
3 5540 498 499 
3 5541 500 501 
3 502 5541 501 
3 6442 502 503 
3 6389 503 504 
3 6389 5528 503 
3 6507 5514 5515 
3 6601 6553 5500 
3 6647 5486 5487 
3 6686 6685 5472 
3 6671 5458 5459 
3 6729 5444 6724 
3 6736 6747 5430 
3 6696 6694 6676 
3 6673 5402 5403 
3 6607 5388 5389 
3 6578 5374 5375 
3 6529 6528 5360 
3 6452 6399 281 
3 6452 280 5360 
3 280 279 5360 
3 6444 5360 279 
3 6474 5374 5373 
3 6579 5388 5387 
3 6608 5402 5401 
3 6678 5416 5415 
3 6705 5430 5429 
3 6702 5444 5443 
3 6728 5458 5457 
3 6682 5472 5471 
3 6657 5486 5485 
3 6648 5500 5499 
3 6520 5514 5513 
3 6466 6457 5528 
3 6466 5528 6389 
3 6466 5515 5514 
3 282 5334 283 
3 6399 282 281 
3 6467 5347 5348 
3 6533 5348 5349 
3 6565 5336 6533 
3 5337 5350 5351 
3 5338 5351 5352 
3 6778 5339 5352 
3 6787 6772 5353 
3 6785 6780 6777 
3 6784 6780 5355 
3 6629 5356 5357 
3 6590 5357 5358 
3 6508 5358 5359 
3 6508 6441 5346 
3 523 5346 522 
3 6430 523 524 
3 6430 524 6391 
3 6430 6391 5333 
3 6509 5319 5320 
3 6544 5305 5306 
3 6788 6630 5279 
3 6792 6773 5278 
3 6669 6496 5263 
3 6373 6363 5249 
3 6383 5223 6354 
3 6259 6240 5239 
3 5679 5619 5617 
3 5564 369 368 
3 5562 363 5561 
3 5563 360 359 
3 5764 5575 5647 
3 5675 5584 5663 
3 5608 564 565 
3 5622 5555 5554 
3 5680 5678 5618 
3 6067 5269 6027 
3 6400 288 5282 
3 6463 5295 5282 
3 6443 285 6401 
3 6453 6401 284 
3 6453 5334 5321 
3 6522 5334 5335 
3 6467 5334 6399 
3 6444 278 6406 
3 6444 6406 5373 
3 6523 5387 5386 
3 6579 6547 5401 
3 6638 5415 5414 
3 6681 5429 6678 
3 6690 5443 5442 
3 6735 5457 5456 
3 6716 5471 5470 
3 6643 5485 6682 
3 6652 5499 5498 
3 6648 6602 5513 
3 6458 5527 5526 
3 6386 499 500 
3 6457 5540 5541 
3 6445 277 276 
3 6445 5386 6406 
3 6523 6475 5400 
3 6580 5414 5413 
3 6642 5428 6638 
3 6655 5442 5441 
3 6717 5456 5455 
3 6735 6714 5470 
3 6687 5484 5483 
3 6586 5498 5497 
3 6605 5512 5511 
3 6534 5526 5525 
3 6388 5540 5539 
3 6458 5539 5540 
3 276 275 5399 
3 6402 5399 275 
3 6524 5413 5412 
3 6584 5427 6580 
3 6611 5441 5440 
3 6679 5455 5454 
3 6717 6688 5469 
3 6683 5483 5482 
3 6651 5497 5496 
3 6505 5511 6586 
3 6535 5525 5524 
3 496 5539 5538 
3 6534 5539 5526 
3 6451 6402 274 
3 6451 5412 6402 
3 6530 5426 6524 
3 6550 5440 5439 
3 6639 5454 5453 
3 6679 6656 5468 
3 6688 6653 5482 
3 6646 5496 5495 
3 6604 5510 5509 
3 6455 5524 6505 
3 6485 495 5538 
3 6535 5537 5538 
3 273 272 5425 
3 6446 5425 272 
3 6478 5439 5438 
3 6581 5453 5452 
3 6639 6612 5467 
3 6680 5481 5480 
3 6606 5495 5494 
3 6589 5509 5508 
3 6536 5523 5522 
3 6387 5537 5536 
3 6455 5536 5537 
3 6405 6446 271 
3 6405 5438 6446 
3 6525 5452 5451 
3 6581 6551 5466 
3 6640 5480 5479 
3 6680 6645 5494 
3 6532 5508 6606 
3 6537 5522 5521 
3 492 5536 5535 
3 6536 5536 5523 
3 6447 270 269 
3 6447 5451 6405 
3 6525 6479 5465 
3 6582 5479 5478 
3 6644 5493 6640 
3 6588 5507 5506 
3 6462 5521 6532 
3 6484 491 5535 
3 6537 5534 5535 
3 269 268 5464 
3 6404 268 267 
3 6526 5478 5477 
3 6585 5492 6582 
3 6587 5506 5505 
3 6503 5520 5519 
3 6385 5534 5533 
3 6462 5533 5534 
3 6448 267 266 
3 6448 5477 6404 
3 6531 5491 6526 
3 6504 5505 5504 
3 6538 5519 5518 
3 6428 488 489 
3 6503 5532 5533 
3 266 265 5490 
3 6450 265 264 
3 6480 5504 5503 
3 6504 6456 5518 
3 6483 5532 5531 
3 6538 5531 5532 
3 6403 264 263 
3 6403 5503 6450 
3 6527 5517 5516 
3 6384 5531 5530 
3 6456 5530 5531 
3 6449 263 262 
3 6449 262 5529 
3 6429 484 485 
3 6527 5530 5517 
3 500 15 501 
3 6431 504 505 
3 6431 5515 6389 
3 6507 6482 5501 
3 6591 5487 5488 
3 6650 5473 6647 
3 6654 5459 5460 
3 6712 5445 5446 
3 6740 5431 5432 
3 6731 5417 5418 
3 6737 5403 6694 
3 6624 5389 5390 
3 6634 5375 5376 
3 6583 5361 6578 
3 6528 5348 5347 
3 505 506 5502 
3 6398 506 507 
3 6510 5488 5489 
3 6600 5474 6591 
3 6610 5460 5461 
3 6672 5446 5447 
3 6727 6677 6695 
3 6755 5418 5419 
3 5404 5405 5391 
3 5390 5391 5377 
3 6719 5376 5377 
3 6628 5362 5363 
3 6583 5349 5348 
3 6432 507 508 
3 6432 5489 6398 
3 6519 5475 6510 
3 6549 5461 5462 
3 6649 5447 5448 
3 6623 5433 5434 
3 6704 5419 6695 
3 6755 6801 5405 
3 5391 5392 5378 
3 5377 5378 5364 
3 6718 5363 6719 
3 6628 5350 5349 
3 508 509 5476 
3 6433 5476 509 
3 6477 5462 5463 
3 6592 5448 5449 
3 6649 6609 5434 
3 6684 5420 5421 
3 6730 5406 5407 
3 6800 5392 5393 
3 6796 5378 5379 
3 6794 5364 5365 
3 6718 5350 5363 
3 6433 510 6397 
3 6433 6397 5463 
3 6511 5449 5450 
3 6592 6548 5435 
3 6626 5421 5422 
3 6715 5407 5408 
3 6709 5393 5394 
3 6800 6797 5379 
3 6794 6793 6782 
3 6794 5351 5364 
3 6434 511 512 
3 6434 5450 6397 
3 6511 6476 5436 
3 6593 5422 5423 
3 6632 5408 5409 
3 6664 5395 6637 
3 6799 6798 5380 
3 6795 6789 6790 
3 6794 6782 5352 
3 512 513 5437 
3 6396 513 514 
3 6512 5423 5424 
3 6599 5409 6593 
3 6564 5395 5396 
3 6701 5381 6663 
3 6786 5367 5368 
3 6790 6787 5353 
3 6435 514 515 
3 6435 5424 6396 
3 6518 5410 6512 
3 6546 5396 5397 
3 6627 5382 5383 
3 5368 5369 5355 
3 6789 6786 5354 
3 515 516 5411 
3 6436 5411 516 
3 6473 5397 5398 
3 6594 5383 5384 
3 6566 5369 5370 
3 5355 5369 5356 
3 6436 517 6395 
3 6436 6395 5398 
3 6513 5384 5385 
3 6594 6539 5370 
3 6566 5356 5369 
3 6437 518 519 
3 6437 5385 6395 
3 6513 6468 5371 
3 6539 5358 5357 
3 519 520 5372 
3 6390 5372 520 
3 6468 5359 5358 
3 6441 6390 521 
3 6391 525 5320 
3 6438 5320 526 
3 6509 6471 5306 
3 6595 5292 5293 
3 6791 6633 6754 
3 6658 6614 5264 
3 6492 6420 5250 
3 6488 6422 6379 
3 6372 5238 6306 
3 6413 5683 6382 
3 5621 371 5619 
3 6438 527 6392 
3 6438 6392 5307 
3 6514 5293 5294 
3 6598 5279 6595 
3 6754 6563 6743 
3 6734 6636 6706 
3 6665 6560 5225 
3 6500 6461 5237 
3 6486 6413 5549 
3 6413 373 5683 
3 6464 6392 528 
3 6464 528 529 
3 6517 5280 6514 
3 6552 5266 5267 
3 6597 5252 5253 
3 6603 5226 5227 
3 6506 5236 5235 
3 6461 6407 5548 
3 6486 375 374 
3 6464 5294 6392 
3 6439 5281 530 
3 6481 5267 5268 
3 6596 5253 5254 
3 6516 5227 5228 
3 6521 5235 5234 
3 6454 377 376 
3 6407 376 375 
3 6439 531 6393 
3 6393 531 532 
3 6515 5254 5255 
3 6596 6541 5228 
3 6516 6460 5234 
3 6487 5546 5545 
3 377 5546 378 
3 6439 6393 5268 
3 6440 5255 533 
3 6515 6470 5229 
3 6540 5233 5232 
3 6408 5545 5544 
3 6487 379 378 
3 6440 534 6394 
3 6440 6394 5230 
3 6470 6459 5232 
3 5544 5543 380 
3 6408 380 379 
3 6394 535 5231 
3 6465 535 536 
3 6410 382 5543 
3 380 5543 381 
3 6465 5231 535 
3 5542 537 383 
3 6410 383 382 
3 537 13 383 
3 6469 5321 5322 
3 6401 285 284 
3 6573 5335 5336 
3 6522 5321 5334 
3 5607 5596 562 
3 6244 6210 6225 
3 6286 6257 6270 
3 6334 6330 5259 
3 6356 6353 6350 
3 6490 5288 6427 
3 6660 5302 6619 
3 6748 5316 6745 
3 6769 5330 6766 
3 6629 5344 5343 
3 6662 5343 5344 
3 6662 5344 5331 
3 6572 5344 5345 
3 6629 6590 5344 
3 6319 6294 6318 
3 6318 6308 6298 
3 6266 6245 6226 
3 6087 6074 6059 
3 6056 5998 6000 
3 5613 5586 550 
3 5613 551 5584 
3 6340 6327 6328 
3 6328 6327 6316 
3 6314 6291 6303 
3 6236 6189 6213 
3 6024 5947 5987 
3 6130 6098 6064 
3 6277 6259 6256 
3 6272 6256 6234 
3 6368 6359 6332 
3 6345 6338 6342 
3 6357 5273 6353 
3 6358 6353 5274 
3 6364 6362 5274 
3 6415 6364 6367 
3 6367 6364 5274 
3 6333 6324 6313 
3 6360 6354 6352 
3 6383 6371 5223 
3 6420 6363 6373 
3 6706 6665 6492 
3 6636 5227 5226 
3 6597 5228 5227 
3 6596 5229 6541 
3 6515 5230 6470 
3 6470 5231 6459 
3 6541 5232 5233 
3 6516 5233 6460 
3 6603 5234 5235 
3 6560 5235 5236 
3 6500 6422 6488 
3 6371 6306 6290 
3 6073 6038 6018 
3 5996 5964 5242 
3 6224 6174 6205 
3 6254 6234 6236 
3 5712 5709 5648 
3 6128 6022 6058 
3 5988 5851 5949 
3 6027 5989 5256 
3 6418 6241 6370 
3 6494 5295 5296 
3 6542 5308 5309 
3 6499 6469 5322 
3 6499 5322 5323 
3 6573 5323 5322 
3 6689 5336 5337 
3 6758 6749 5324 
3 6756 6752 5325 
3 6757 6751 5326 
3 6765 6763 6759 
3 6776 6764 5328 
3 6769 6766 5329 
3 6768 5329 6764 
3 6764 6748 6761 
3 6738 5315 6723 
3 6744 6707 6720 
3 6741 6700 6722 
3 6693 5312 6659 
3 6697 6668 6692 
3 6732 6499 5310 
3 6697 6692 5324 
3 6689 5323 5336 
3 6136 6104 6103 
3 6188 6187 5244 
3 6163 6099 5257 
3 6301 6216 6239 
3 6346 5273 6344 
3 6426 5287 6356 
3 6661 5301 6618 
3 6660 6619 5301 
3 6192 6164 6163 
3 6216 6166 6190 
3 6369 6217 6241 
3 6569 6414 5296 
3 6732 6571 5309 
3 6571 5297 6569 
3 6557 6556 6502 
3 6556 5298 6502 
3 6417 6381 5284 
3 6276 6260 5271 
3 6239 6216 5271 
3 6166 6134 6101 
3 6314 6303 6311 
3 6342 6338 5247 
3 6351 5248 6347 
3 6424 6374 5262 
3 6420 6373 5250 
3 6355 6352 6351 
3 6669 6614 6496 
3 6734 6614 6658 
3 6563 5253 5252 
3 6552 5254 5253 
3 6481 5255 5254 
3 5579 302 301 
3 6068 5989 6027 
3 6270 6257 6237 
3 6378 6366 5262 
3 6495 6491 6425 
3 6570 5263 6491 
3 6710 6669 6570 
3 6491 6424 6425 
3 6699 5265 6658 
3 6754 6633 5266 
3 6598 5267 5266 
3 6517 5268 5267 
3 5988 5986 5948 
3 5616 5553 9 
3 6370 6241 5270 
3 6292 6276 5284 
3 6369 6276 6217 
3 6375 6335 6341 
3 6555 6495 6501 
3 6767 6667 6762 
3 6739 6721 6726 
3 6616 6577 5318 
3 6572 5332 5331 
3 6543 6508 5346 
3 6543 5346 6430 
3 6543 5333 5332 
3 6472 5332 5333 
3 6568 5318 5319 
3 6779 6746 6567 
3 6774 6773 6771 
3 6771 6666 6625 
3 6625 5276 6555 
3 6773 5277 6771 
3 6788 6783 6630 
3 6598 6595 5280 
3 6517 6514 5281 
3 6067 5682 290 
3 6494 5283 6418 
3 6502 6416 6417 
3 6569 6417 6414 
3 6377 6346 6349 
3 6419 5285 6416 
3 6615 5300 6559 
3 6661 6618 5300 
3 6426 6356 6350 
3 6501 6495 5275 
3 6631 6558 6619 
3 6745 6725 6698 
3 6691 6675 5317 
3 6617 5331 6577 
3 6750 5303 6739 
3 6779 6739 5304 
3 6781 6567 5292 
3 6544 5293 5292 
3 6471 5294 5293 
3 6418 6400 5282 
3 6542 5296 5295 
3 6497 6416 5298 
3 6575 6554 5299 
3 6615 6559 5299 
3 6559 6489 5299 
3 6618 6490 6574 
3 6619 6558 5301 
3 6725 6667 5302 
3 6670 5317 6616 
3 6746 6670 5305 
3 6568 5306 5305 
3 6509 5307 6471 
3 6463 288 287 
3 6659 6621 6554 
3 6745 6698 5315 
3 6760 6691 5316 
3 6498 5331 5332 
3 6577 6498 5318 
3 6472 5320 5319 
3 6542 6443 5308 
3 6758 5325 6749 
3 6749 6742 6693 
3 6756 5326 6752 
3 6722 6700 5312 
3 6757 5327 6751 
3 6720 6707 5313 
3 6763 5328 6759 
3 6753 6723 5314 
3 6766 6675 6760 
3 6533 5336 5335 
3 6565 5337 5336 
3 5338 5337 5351 
3 5339 5338 5352 
3 6778 6772 5340 
3 6770 5341 6763 
3 6777 5342 6768 
3 6784 5343 5342 
3 6529 5373 5374 
3 6529 5360 6444 
3 6583 6578 5362 
3 6634 5363 5362 
3 6718 6719 5364 
3 5365 5364 5378 
3 6796 5366 6793 
3 6795 5367 6789 
3 6799 5368 5367 
3 6701 5369 5368 
3 6627 5370 5369 
3 6594 5371 6539 
3 6513 5372 6468 
3 6545 5387 5388 
3 6545 5374 6474 
3 6607 5376 5375 
3 6624 5377 5376 
3 5378 5377 5391 
3 5379 5378 5392 
3 6800 5380 6798 
3 6709 5381 5380 
3 6663 6637 5382 
3 6564 5383 5382 
3 6546 5384 5383 
3 6473 5385 5384 
3 6474 5386 5387 
3 6641 5401 5402 
3 6641 5388 5401 
3 6673 5390 5389 
3 6737 5391 5390 
3 5392 5391 5405 
3 5393 5392 6801 
3 6730 5394 5393 
3 6715 5395 6664 
3 6632 5396 5395 
3 6599 5397 5396 
3 6518 5398 5397 
3 6523 5399 6475 
3 6579 5400 6547 
3 6622 5415 5416 
3 6622 5403 5402 
3 6694 5403 6676 
3 6731 5405 5404 
3 6755 5406 6801 
3 6704 5407 5406 
3 6684 5408 5407 
3 6626 5409 5408 
3 6599 6593 5410 
3 6518 6512 5411 
3 6475 5412 5413 
3 6547 5413 5414 
3 6608 5414 5415 
3 6703 5429 5430 
3 6703 5417 6696 
3 6747 5418 5417 
3 6740 5419 5418 
3 6695 6677 5420 
3 6623 5421 5420 
3 6609 5422 5421 
3 6548 5423 5422 
3 6476 5424 5423 
3 6530 6524 5425 
3 6584 6580 5426 
3 6642 6638 5427 
3 6681 6678 5428 
3 6736 5443 5444 
3 6736 5430 5443 
3 6729 5432 5431 
3 6727 6712 5433 
3 6672 5434 5433 
3 6649 5435 6609 
3 6592 5436 6548 
3 6511 5437 6476 
3 6530 5438 5439 
3 6584 5439 5440 
3 6642 5440 5441 
3 6681 5441 5442 
3 6705 5442 5443 
3 6711 5457 5458 
3 6724 6711 5445 
3 6671 5446 5445 
3 6654 5447 5446 
3 6610 5448 5447 
3 6549 5449 5448 
3 6477 5450 5449 
3 6478 5451 5452 
3 6550 5452 5453 
3 6611 5453 5454 
3 6655 5454 5455 
3 6690 5455 5456 
3 6702 5456 5457 
3 6713 5471 5472 
3 6728 6713 5458 
3 6685 5460 5459 
3 6650 5461 5460 
3 6600 5462 5461 
3 6519 5463 5462 
3 6525 5464 6479 
3 6581 5465 6551 
3 6639 5466 6612 
3 6679 5467 6656 
3 6717 5468 6688 
3 6735 5469 6714 
3 6728 5470 5471 
3 6686 5485 5486 
3 6686 5472 5485 
3 6650 6647 5474 
3 6600 6591 5475 
3 6519 6510 5476 
3 6479 5477 5478 
3 6551 5478 5479 
3 6612 5479 5480 
3 6656 5480 5481 
3 6688 5481 6653 
3 6714 5482 5483 
3 6716 5483 5484 
3 6643 6682 5484 
3 6613 5499 5500 
3 6613 5487 5486 
3 6553 5488 5487 
3 6482 5489 5488 
3 6531 6526 5490 
3 6585 6582 5491 
3 6644 6640 5492 
3 6680 5493 6645 
3 6653 5494 5495 
3 6683 5495 5496 
3 6687 5496 5497 
3 6643 5497 5498 
3 6657 5498 5499 
3 6601 5513 5514 
3 6601 5500 5513 
3 6507 5502 6482 
3 6531 5503 5504 
3 6585 5504 5505 
3 6644 5505 5506 
3 6645 5506 5507 
3 6532 6606 5507 
3 6646 5508 5509 
3 6651 5509 5510 
3 6505 6586 5510 
3 6652 5511 5512 
3 6648 5512 6602 
3 6480 5516 5517 
3 6504 5517 6456 
3 6587 5518 5519 
3 6588 5519 5520 
3 6462 6532 5520 
3 6589 5521 5522 
3 6604 5522 5523 
3 6455 6505 5523 
3 6605 5524 5525 
3 6602 5525 5526 
3 6520 5526 5527 
3 6459 5542 5543 
3 6540 5543 5544 
3 6460 5544 5545 
3 6521 5545 5546 
3 6506 5546 5547 
3 6461 5547 6407 
3 6411 6409 6372 
3 6274 5550 6240 
3 5606 312 311 
3 5553 294 9 
3 5576 296 5553 
3 5576 297 296 
3 5554 299 298 
3 5555 299 5554 
3 5578 300 5555 
3 5578 301 300 
3 5556 303 5552 
3 5580 304 5556 
3 5580 305 304 
3 5557 307 306 
3 5558 307 5557 
3 5582 308 5558 
3 5582 309 308 
3 5737 5599 5606 
3 262 261 5529 
3 6403 6450 264 
3 6448 6404 267 
3 6405 271 270 
3 6451 274 273 
3 6406 278 277 
3 6452 281 280 
3 6453 284 283 
3 287 286 5295 
3 6380 6067 290 
3 5620 5618 292 
3 5618 5616 293 
3 6386 500 5541 
3 495 496 5538 
3 491 492 5535 
3 6428 489 6385 
3 6429 485 6384 
3 536 537 5542 
3 532 533 5255 
3 529 530 5281 
3 525 526 5320 
3 6441 521 522 
3 6395 517 518 
3 6435 6396 514 
3 6397 510 511 
3 6432 6398 507 
3 6442 503 5528 
3 382 381 5543 
3 6454 376 6407 
3 5683 373 372 
3 5619 370 5617 
3 5617 12 5564 
3 5565 366 5560 
3 5560 366 365 
3 5629 5561 5702 
3 5630 5562 5629 
3 5561 363 362 
3 5686 5702 5567 
3 5568 360 5563 
3 5569 5563 359 
3 5570 5569 358 
3 5571 5570 357 
3 5572 5571 356 
3 5573 5572 355 
3 5574 5573 354 
3 5575 5574 353 
3 5647 351 538 
3 351 11 538 
3 575 10 312 
3 5606 575 312 
3 5599 5597 573 
3 5599 573 574 
3 5601 572 5597 
3 5593 570 571 
3 5610 570 5593 
3 5610 569 570 
3 5598 5587 567 
3 5587 566 567 
3 5611 566 5587 
3 5611 565 566 
3 5607 563 5589 
3 5596 561 562 
3 5648 561 5596 
3 5648 560 561 
3 5585 558 559 
3 5595 558 5585 
3 5615 557 5595 
3 5591 555 556 
3 5649 555 5591 
3 5649 554 555 
3 5605 553 5603 
3 5584 551 552 
3 5647 5575 352 
3 5586 549 550 
3 5590 549 5586 
3 5602 548 5590 
3 5594 546 547 
3 5612 546 5594 
3 5612 545 546 
3 5588 543 544 
3 5592 543 5588 
3 5614 542 5592 
3 5646 5617 5564 
3 5564 12 369 
3 5623 5556 5552 
3 5552 303 302 
3 5559 311 310 
3 5559 5606 311 
3 5616 9 293 
3 5553 295 294 
3 5577 297 5576 
3 5553 296 295 
3 5577 298 297 
3 5640 5554 5577 
3 5638 5555 5622 
3 5555 300 299 
3 5581 305 5580 
3 5556 304 303 
3 5581 306 305 
3 5624 5558 5557 
3 5583 309 5582 
3 5558 308 307 
3 5583 310 309 
3 5583 5644 5697 
3 5566 365 364 
3 5567 362 361 
3 5566 364 5562 
3 5562 364 363 
3 5569 359 358 
3 5686 5567 5568 
3 5564 368 367 
3 5565 5564 367 
3 5631 5565 5628 
3 5565 367 366 
3 5628 5565 5560 
3 5630 5566 5562 
3 5566 5560 365 
3 5567 5561 362 
3 5568 5567 361 
3 5568 361 360 
3 5687 5686 5568 
3 5570 358 357 
3 5633 5687 5563 
3 5571 357 356 
3 5634 5633 5569 
3 5572 356 355 
3 5635 5634 5570 
3 5573 355 354 
3 5637 5572 5573 
3 5574 354 353 
3 5574 5637 5573 
3 5575 353 352 
3 5647 352 351 
3 5647 538 539 
3 5670 540 541 
3 5625 5577 5576 
3 5640 5577 5625 
3 5577 5554 298 
3 5626 5579 5578 
3 5579 301 5578 
3 5579 5552 302 
3 5642 5556 5623 
3 5627 5581 5580 
3 5643 5581 5627 
3 5581 5557 306 
3 5644 5558 5624 
3 5660 5601 5652 
3 5744 5737 5697 
3 5583 5559 310 
3 5605 552 553 
3 5725 5723 5655 
3 5609 559 560 
3 5666 5585 5650 
3 5656 5655 5590 
3 5613 550 551 
3 5598 567 568 
3 5608 5589 564 
3 5604 544 545 
3 5671 5588 5662 
3 5589 563 564 
3 5654 5589 5608 
3 5602 5594 547 
3 5590 548 549 
3 5615 556 557 
3 5649 5603 554 
3 5592 542 543 
3 5614 541 542 
3 5601 571 572 
3 5600 5598 568 
3 5602 547 548 
3 5612 5604 545 
3 5674 5595 5666 
3 5595 557 558 
3 5648 5609 560 
3 5607 562 563 
3 5597 572 573 
3 5737 5652 5597 
3 5600 568 569 
3 5672 5598 5600 
3 5606 5599 574 
3 5764 539 540 
3 5610 5600 569 
3 5672 5600 5651 
3 5737 5597 5599 
3 5601 5593 571 
3 5655 5602 5590 
3 5673 5602 5655 
3 5603 553 554 
3 5710 5603 5649 
3 5665 5604 5612 
3 5604 5588 544 
3 5658 5605 5603 
3 5605 5584 552 
3 5606 574 575 
3 5737 5606 5559 
3 5668 5589 5654 
3 5668 5607 5589 
3 5611 5608 565 
3 5669 5608 5611 
3 5650 5585 5609 
3 5609 5585 559 
3 5660 5593 5601 
3 5676 5610 5593 
3 5677 5587 5653 
3 5677 5611 5587 
3 5673 5594 5602 
3 5665 5662 5604 
3 5663 5584 5605 
3 5661 5656 5586 
3 5671 5592 5588 
3 5752 5751 5690 
3 5674 5615 5595 
3 5615 5591 556 
3 5618 293 292 
3 5678 5645 5616 
3 5799 5743 5681 
3 5617 370 12 
3 5620 292 291 
3 5680 5618 5620 
3 5681 5619 5679 
3 5619 371 370 
3 5682 5620 291 
3 5851 5798 5742 
3 5743 5683 5621 
3 5621 372 371 
3 5737 5583 5697 
3 5644 5583 5582 
3 5707 5638 5622 
3 5641 5552 5579 
3 5642 5627 5580 
3 5698 5695 5639 
3 5643 5557 5581 
3 5759 5685 5749 
3 5644 5582 5558 
3 5639 5625 5576 
3 5696 5625 5695 
3 5638 5626 5578 
3 5699 5684 5623 
3 5642 5580 5556 
3 5692 5627 5642 
3 5702 5561 5567 
3 5632 5560 5566 
3 5754 5574 5708 
3 5708 5574 5575 
3 5705 5629 5702 
3 5629 5562 5561 
3 5705 5630 5629 
3 5632 5566 5630 
3 5687 5568 5563 
3 5636 5635 5571 
3 5693 5637 5574 
3 5700 5646 5564 
3 5631 5564 5565 
3 5701 5700 5631 
3 5703 5701 5628 
3 5632 5628 5560 
3 5633 5563 5569 
3 5634 5569 5570 
3 5635 5570 5571 
3 5688 5687 5633 
3 5636 5571 5572 
3 5689 5688 5634 
3 5637 5636 5572 
3 5690 5689 5635 
3 5637 5690 5636 
3 5737 5559 5583 
3 5638 5578 5555 
3 5761 5707 5704 
3 5639 5576 5553 
3 5696 5640 5625 
3 5640 5622 5554 
3 5641 5623 5552 
3 5641 5579 5626 
3 5684 5642 5623 
3 5692 5642 5684 
3 5691 5643 5627 
3 5643 5624 5557 
3 5694 5624 5685 
3 5697 5644 5694 
3 5645 5553 5616 
3 5738 5645 5678 
3 5739 5646 5700 
3 5647 539 5764 
3 5712 5596 5659 
3 5712 5648 5596 
3 5711 5591 5664 
3 5711 5649 5591 
3 5731 5729 5666 
3 5709 5609 5648 
3 5670 541 5614 
3 5670 5614 5657 
3 5672 5653 5598 
3 5651 5600 5610 
3 5759 5694 5685 
3 5652 5601 5597 
3 5669 5654 5608 
3 5653 5587 5598 
3 5783 5726 5774 
3 5668 5659 5607 
3 5656 5590 5586 
3 5667 5665 5612 
3 5661 5586 5613 
3 5779 5725 5770 
3 5657 5614 5592 
3 5874 5823 5873 
3 5663 5605 5658 
3 5793 5712 5768 
3 5659 5596 5607 
3 5714 5660 5785 
3 5676 5593 5660 
3 5675 5613 5584 
3 5728 5725 5656 
3 5717 5715 5671 
3 5662 5588 5604 
3 5735 5663 5658 
3 5736 5663 5735 
3 5711 5710 5649 
3 5664 5591 5615 
3 5667 5612 5594 
3 5721 5665 5718 
3 5729 5674 5666 
3 5666 5595 5585 
3 5673 5667 5594 
3 5719 5667 5673 
3 5732 5654 5727 
3 5733 5668 5732 
3 5677 5669 5611 
3 5727 5669 5726 
3 540 5670 5764 
3 5715 5713 5657 
3 5671 5657 5592 
3 5720 5716 5672 
3 5720 5672 5651 
3 5723 5719 5673 
3 5719 5718 5667 
3 5730 5674 5729 
3 5674 5664 5615 
3 5734 5728 5661 
3 5675 5661 5613 
3 5722 5676 5714 
3 5676 5651 5610 
3 5724 5653 5716 
3 5726 5677 5724 
3 5764 5708 5575 
3 5738 5698 5645 
3 5678 5616 5618 
3 5679 5617 5646 
3 5741 5679 5739 
3 5742 5680 5620 
3 5740 5738 5678 
3 5947 5743 5799 
3 5681 5621 5619 
3 5901 5682 5256 
3 5682 291 290 
3 5683 372 5621 
3 6382 5683 5550 
3 5700 5564 5631 
3 5753 5739 5700 
3 5698 5553 5645 
3 5699 5623 5641 
3 5691 5685 5643 
3 5685 5624 5643 
3 5688 5633 5634 
3 5689 5634 5635 
3 5747 5686 5687 
3 5690 5635 5636 
3 5748 5747 5688 
3 5693 5690 5637 
3 5751 5748 5689 
3 5692 5691 5627 
3 5749 5691 5746 
3 5750 5684 5745 
3 5750 5746 5692 
3 5574 5754 5693 
3 5694 5644 5624 
3 5816 5761 5765 
3 5695 5625 5639 
3 5704 5640 5696 
3 5760 5694 5759 
3 5698 5639 5553 
3 5795 5698 5738 
3 5757 5641 5626 
3 5701 5631 5628 
3 5753 5700 5701 
3 5703 5628 5632 
3 5706 5630 5705 
3 5757 5745 5699 
3 5757 5626 5638 
3 5757 5699 5641 
3 5706 5632 5630 
3 5763 5703 5706 
3 5704 5622 5640 
3 5756 5696 5695 
3 5758 5705 5702 
3 5763 5706 5758 
3 5706 5703 5632 
3 5707 5757 5638 
3 5707 5622 5704 
3 5708 5764 5670 
3 5767 5731 5650 
3 5709 5650 5609 
3 5794 5710 5711 
3 5710 5658 5603 
3 5766 5664 5730 
3 5794 5711 5766 
3 5768 5659 5733 
3 5768 5712 5659 
3 5785 5652 5744 
3 5744 5652 5737 
3 5713 5670 5657 
3 5713 5708 5670 
3 5813 5759 5812 
3 5785 5660 5652 
3 5715 5657 5671 
3 5838 5755 5754 
3 5722 5720 5651 
3 5714 5676 5660 
3 5717 5671 5662 
3 5810 5752 5808 
3 5773 5724 5716 
3 5716 5653 5672 
3 5721 5662 5665 
3 5786 5717 5777 
3 5782 5718 5775 
3 5718 5665 5667 
3 5723 5673 5655 
3 5776 5719 5723 
3 5722 5651 5676 
3 5778 5773 5716 
3 5782 5721 5718 
3 5721 5717 5662 
3 5781 5778 5720 
3 5725 5655 5656 
3 5779 5723 5725 
3 5774 5724 5773 
3 5724 5677 5653 
3 5728 5656 5661 
3 5776 5775 5719 
3 5834 5774 5827 
3 5726 5669 5677 
3 5789 5727 5783 
3 5727 5654 5669 
3 5734 5661 5675 
3 5771 5728 5734 
3 5731 5666 5650 
3 5784 5729 5780 
3 5820 5730 5784 
3 5730 5664 5674 
3 5821 5731 5767 
3 5767 5650 5709 
3 5790 5732 5789 
3 5732 5668 5654 
3 5876 5821 5835 
3 5733 5659 5668 
3 5736 5675 5663 
3 5771 5770 5728 
3 5769 5658 5710 
3 5791 5736 5735 
3 5792 5736 5791 
3 5736 5734 5675 
3 5740 5678 5680 
3 5695 5795 5756 
3 5797 5739 5753 
3 5739 5679 5646 
3 5798 5740 5680 
3 5896 5795 5796 
3 5850 5799 5741 
3 5741 5681 5679 
3 5742 5620 5682 
3 5901 5851 5742 
3 5743 5550 5683 
3 5743 5621 5681 
3 5772 5708 5713 
3 5760 5697 5694 
3 5765 5696 5756 
3 5811 5702 5800 
3 5806 5750 5803 
3 5745 5684 5699 
3 5815 5756 5795 
3 5795 5695 5698 
3 5807 5746 5806 
3 5746 5691 5692 
3 5747 5687 5688 
3 5748 5688 5689 
3 5804 5800 5686 
3 5751 5689 5690 
3 5805 5804 5747 
3 5788 5714 5785 
3 5749 5685 5691 
3 5750 5692 5684 
3 5803 5745 5801 
3 5752 5690 5693 
3 5810 5751 5752 
3 5755 5693 5754 
3 5762 5701 5703 
3 5817 5797 5753 
3 5772 5754 5708 
3 5838 5808 5755 
3 5755 5752 5693 
3 5765 5761 5704 
3 5765 5704 5696 
3 5763 5762 5703 
3 5758 5706 5705 
3 5812 5749 5807 
3 5863 5807 5857 
3 5848 5760 5813 
3 5760 5744 5697 
3 5761 5757 5707 
3 5818 5762 5763 
3 5762 5753 5701 
3 5814 5758 5811 
3 5818 5763 5814 
3 5819 5756 5815 
3 5853 5757 5802 
3 5794 5769 5710 
3 5766 5711 5664 
3 5821 5780 5731 
3 5793 5709 5712 
3 5822 5733 5790 
3 5843 5793 5768 
3 5823 5791 5735 
3 5769 5735 5658 
3 5833 5770 5771 
3 5770 5725 5728 
3 5792 5734 5736 
3 5833 5824 5770 
3 5787 5713 5715 
3 5786 5715 5717 
3 5778 5716 5720 
3 5827 5774 5773 
3 5834 5829 5783 
3 5774 5726 5724 
3 5782 5777 5721 
3 5775 5718 5719 
3 5779 5776 5723 
3 5830 5776 5825 
3 5840 5777 5832 
3 5777 5717 5721 
3 5781 5720 5722 
3 5828 5827 5773 
3 5824 5779 5770 
3 5825 5779 5824 
3 5837 5784 5780 
3 5780 5729 5731 
3 5788 5722 5714 
3 5839 5828 5778 
3 5831 5775 5830 
3 5832 5782 5831 
3 5829 5789 5783 
3 5783 5727 5726 
3 5869 5820 5784 
3 5784 5730 5729 
3 5910 5857 5907 
3 5813 5863 5911 
3 5844 5786 5840 
3 5787 5715 5786 
3 5787 5772 5713 
3 5842 5788 5841 
3 5788 5781 5722 
3 5836 5789 5829 
3 5789 5732 5727 
3 5871 5790 5836 
3 5790 5733 5732 
3 5823 5735 5769 
3 5847 5846 5792 
3 5846 5833 5771 
3 5792 5771 5734 
3 5843 5768 5822 
3 5793 5767 5709 
3 5845 5766 5820 
3 5845 5794 5766 
3 5796 5738 5740 
3 5796 5795 5738 
3 5849 5796 5740 
3 5896 5868 5815 
3 5898 5817 5867 
3 5797 5741 5739 
3 5899 5849 5798 
3 5798 5680 5742 
3 5799 5681 5741 
3 5900 5799 5850 
3 5855 5800 5852 
3 5800 5702 5686 
3 5802 5757 5761 
3 5854 5801 5853 
3 5801 5745 5757 
3 5819 5765 5756 
3 5861 5853 5802 
3 5856 5803 5854 
3 5803 5750 5745 
3 5804 5686 5747 
3 5805 5747 5748 
3 5809 5748 5751 
3 5859 5805 5809 
3 5857 5806 5856 
3 5806 5746 5750 
3 5911 5863 5910 
3 5807 5749 5746 
3 5810 5809 5751 
3 5808 5752 5755 
3 5859 5858 5805 
3 5809 5805 5748 
3 5862 5860 5810 
3 5860 5859 5809 
3 5864 5811 5855 
3 5811 5758 5702 
3 5838 5754 5772 
3 5838 5772 5787 
3 5848 5785 5744 
3 5812 5759 5749 
3 5813 5760 5759 
3 5818 5817 5762 
3 5814 5763 5758 
3 5819 5816 5765 
3 5913 5861 5866 
3 5816 5802 5761 
3 5898 5797 5817 
3 5817 5753 5762 
3 5865 5814 5864 
3 5867 5818 5865 
3 5868 5866 5819 
3 5866 5861 5816 
3 5826 5823 5769 
3 5820 5766 5730 
3 5870 5837 5780 
3 5835 5767 5793 
3 5843 5835 5793 
3 5822 5768 5733 
3 5826 5769 5794 
3 5873 5823 5826 
3 5883 5824 5833 
3 5872 5825 5824 
3 5875 5825 5872 
3 5825 5776 5779 
3 5845 5826 5794 
3 5884 5826 5845 
3 5828 5773 5778 
3 5920 5877 5918 
3 5839 5778 5781 
3 5878 5877 5827 
3 5834 5783 5774 
3 5885 5829 5879 
3 5881 5830 5875 
3 5830 5775 5776 
3 5882 5831 5881 
3 5831 5782 5775 
3 5841 5785 5848 
3 5934 5882 5928 
3 5832 5777 5782 
3 5846 5771 5792 
3 5883 5872 5824 
3 5878 5827 5828 
3 5877 5834 5827 
3 5876 5870 5821 
3 5835 5821 5767 
3 5922 5836 5885 
3 5836 5790 5789 
3 5870 5780 5821 
3 5869 5837 5242 
3 5844 5787 5786 
3 5840 5786 5777 
3 5842 5781 5788 
3 5880 5878 5828 
3 5886 5832 5882 
3 5937 5862 5892 
3 5889 5841 5887 
3 5841 5788 5785 
3 5890 5842 5889 
3 5842 5839 5781 
3 5888 5822 5871 
3 5888 5843 5822 
3 5891 5840 5886 
3 5844 5838 5787 
3 5919 5820 5869 
3 5919 5845 5820 
3 5847 5792 5791 
3 5894 5883 5833 
3 5874 5791 5823 
3 5895 5894 5846 
3 5848 5744 5760 
3 5887 5813 5911 
3 5849 5740 5798 
3 5897 5868 5896 
3 5945 5900 5850 
3 5850 5741 5797 
3 5949 5851 5901 
3 5948 5899 5851 
3 5950 5902 5903 
3 5852 5800 5804 
3 5861 5802 5816 
3 5904 5853 5905 
3 5853 5801 5757 
3 5906 5854 5904 
3 5854 5803 5801 
3 5902 5855 5852 
3 5855 5811 5800 
3 5907 5856 5906 
3 5856 5806 5803 
3 5857 5807 5806 
3 5903 5902 5852 
3 5858 5804 5805 
3 5852 5804 5858 
3 5860 5809 5810 
3 5908 5903 5858 
3 5862 5810 5808 
3 5909 5908 5859 
3 5866 5816 5819 
3 5892 5808 5838 
3 5892 5862 5808 
3 5863 5812 5807 
3 5887 5848 5813 
3 5863 5813 5812 
3 5914 5864 5912 
3 5864 5814 5811 
3 5915 5865 5914 
3 5865 5818 5814 
3 5868 5819 5815 
3 5943 5867 5915 
3 5867 5817 5818 
3 5896 5815 5795 
3 5913 5905 5861 
3 5892 5838 5844 
3 5937 5909 5860 
3 5869 5784 5837 
3 5929 5845 5919 
3 5961 5942 5921 
3 5942 5837 5870 
3 5893 5843 5888 
3 5871 5822 5790 
3 5924 5917 5872 
3 5917 5875 5872 
3 5845 5929 5884 
3 5931 5874 5873 
3 5926 5895 5847 
3 5874 5847 5791 
3 5923 5881 5875 
3 5875 5830 5825 
3 5893 5835 5843 
3 5930 5876 5893 
3 5962 5918 5925 
3 5879 5834 5877 
3 5880 5828 5839 
3 5925 5878 5880 
3 5932 5879 5920 
3 5879 5829 5834 
3 5890 5839 5842 
3 5925 5918 5878 
3 5919 5869 5242 
3 5928 5881 5923 
3 5881 5831 5830 
3 5956 5954 5908 
3 5882 5832 5831 
3 5894 5833 5846 
3 5966 5963 5917 
3 5884 5873 5826 
3 5968 5885 5932 
3 5885 5836 5829 
3 5995 5886 5934 
3 5886 5840 5832 
3 5976 5910 5955 
3 5887 5841 5848 
3 5940 5871 5922 
3 5938 5930 5893 
3 5936 5889 5935 
3 5889 5842 5841 
3 5933 5925 5880 
3 5890 5880 5839 
3 5891 5844 5840 
3 5892 5844 5891 
3 5930 5921 5876 
3 5893 5876 5835 
3 5895 5846 5847 
3 5939 5924 5883 
3 5926 5847 5874 
3 5941 5939 5894 
3 5897 5796 5849 
3 5897 5896 5796 
3 5944 5849 5899 
3 5946 5897 5944 
3 5945 5898 5943 
3 5898 5850 5797 
3 5899 5798 5851 
3 5944 5899 5243 
3 5987 5947 5900 
3 6019 5987 5900 
3 5901 5742 5682 
3 5949 5901 5256 
3 6036 6016 5992 
3 5953 5904 5905 
3 5905 5853 5861 
3 5950 5912 5902 
3 5912 5855 5902 
3 5903 5852 5858 
3 5954 5950 5903 
3 5916 5866 5868 
3 5958 5913 5916 
3 5904 5854 5853 
3 5952 5906 5951 
3 5906 5856 5854 
3 5955 5907 5952 
3 5907 5857 5856 
3 5908 5858 5859 
3 5954 5903 5908 
3 5909 5859 5860 
3 5937 5860 5862 
3 5937 5892 5891 
3 6032 5934 5971 
3 5910 5863 5857 
3 5935 5887 5911 
3 5957 5912 5950 
3 5912 5864 5855 
3 5916 5913 5866 
3 5983 5916 5946 
3 5959 5914 5957 
3 5914 5865 5864 
3 5959 5915 5914 
3 5915 5867 5865 
3 5946 5868 5897 
3 5963 5923 5917 
3 5924 5872 5883 
3 5999 5960 5997 
3 5918 5877 5878 
3 5964 5919 5242 
3 5929 5927 5884 
3 5969 5920 5960 
3 5920 5879 5877 
3 5967 5921 5930 
3 5921 5870 5876 
3 5940 5938 5888 
3 5922 5871 5836 
3 5923 5875 5917 
3 5965 5928 5923 
3 5939 5883 5894 
3 6000 5998 5963 
3 5933 5880 5890 
3 5962 5960 5918 
3 5931 5873 5927 
3 5972 5941 5895 
3 5974 5927 5970 
3 5927 5873 5884 
3 5971 5934 5928 
3 5928 5882 5881 
3 5970 5929 5964 
3 5938 5893 5888 
3 5967 5961 5921 
3 5979 5926 5931 
3 5931 5926 5874 
3 6004 5932 5969 
3 5932 5885 5879 
3 5936 5890 5889 
3 5973 5962 5925 
3 6032 5992 5956 
3 5934 5886 5882 
3 5935 5889 5887 
3 5976 5911 5910 
3 5995 5956 5909 
3 5995 5891 5886 
3 5975 5973 5933 
3 5936 5933 5890 
3 5937 5891 5995 
3 5940 5888 5871 
3 5977 5967 5930 
3 5941 5894 5895 
3 5978 5966 5924 
3 5981 5922 5968 
3 5980 5977 5938 
3 5972 5895 5926 
3 5982 5978 5939 
3 5942 5242 5837 
3 5942 5870 5921 
3 5984 5945 5943 
3 5943 5898 5867 
3 5985 5944 5243 
3 5944 5897 5849 
3 6019 5945 5984 
3 5945 5850 5898 
3 5946 5916 5868 
3 5947 5550 5743 
3 5947 5799 5900 
3 6066 5988 6025 
3 5948 5243 5899 
3 5989 5949 5256 
3 6026 6025 5949 
3 5994 5959 5957 
3 6017 5951 5953 
3 5953 5905 5913 
3 5951 5904 5953 
3 5951 5906 5904 
3 5952 5907 5906 
3 5958 5953 5913 
3 6060 5958 5983 
3 5956 5908 5909 
3 5992 5954 5956 
3 6008 5975 5990 
3 5955 5910 5907 
3 5995 5909 5937 
3 6047 5971 6003 
3 5976 5935 5911 
3 6021 5957 5950 
3 5957 5914 5912 
3 5983 5958 5916 
3 6022 5983 5985 
3 6059 6020 5994 
3 6020 5915 5959 
3 5960 5920 5918 
3 6035 6033 5997 
3 5996 5242 5961 
3 5996 6002 5964 
3 5961 5242 5942 
3 5973 5925 5933 
3 6001 5997 5962 
3 5998 5965 5963 
3 5966 5917 5924 
3 5964 5929 5919 
3 5965 5923 5963 
3 6003 5971 5965 
3 5978 5924 5939 
3 6056 6000 6039 
3 5977 5930 5938 
3 6009 5967 5977 
3 5981 5980 5940 
3 5968 5922 5885 
3 6041 5969 5999 
3 5969 5932 5920 
3 6007 5970 6002 
3 5970 5927 5929 
3 5971 5928 5965 
3 5979 5931 5974 
3 6005 5982 5941 
3 5975 5933 5936 
3 6008 6001 5973 
3 6010 5974 6007 
3 5974 5931 5927 
3 6032 5995 5934 
3 5976 5975 5936 
3 5990 5975 5976 
3 5976 5936 5935 
3 5980 5938 5940 
3 6011 5977 5980 
3 5982 5939 5941 
3 6006 6000 5966 
3 6013 5972 5979 
3 5979 5972 5926 
3 5981 5940 5922 
3 6011 6009 5977 
3 6014 5968 6004 
3 6015 5981 6014 
3 6005 5941 5972 
3 6012 6006 5978 
3 5985 5946 5944 
3 5985 5983 5946 
3 6019 5984 5551 
3 6020 5943 5915 
3 6023 5243 5986 
3 6058 5985 6023 
3 5986 5243 5948 
3 6065 6064 5987 
3 6064 6024 5987 
3 5988 5948 5851 
3 6025 5988 5949 
3 6067 6027 5256 
3 6131 6099 6026 
3 5990 5976 5955 
3 6057 5996 6038 
3 6071 6034 6030 
3 6034 5993 6030 
3 5993 5953 5958 
3 5991 5952 5951 
3 6055 6052 6021 
3 6016 5954 5992 
3 5991 5990 5955 
3 5991 5955 5952 
3 6032 5956 5995 
3 6031 5992 6032 
3 5971 6031 6032 
3 6060 5983 6022 
3 6061 6020 6059 
3 6018 5961 5967 
3 6057 6002 5996 
3 5997 5960 5962 
3 6033 5999 5997 
3 6000 5963 5966 
3 6041 6004 5969 
3 5999 5969 5960 
3 6006 5966 5978 
3 6045 6006 6012 
3 6040 6035 6001 
3 6001 5962 5973 
3 6042 6002 6029 
3 6002 5970 5964 
3 6003 5965 5998 
3 6050 6004 6041 
3 6004 5968 5932 
3 6013 5979 6010 
3 6043 6012 5982 
3 6012 5978 5982 
3 6111 6045 6078 
3 6044 6007 6042 
3 6007 5974 5970 
3 6047 6031 5971 
3 6069 6008 5990 
3 6008 5973 5975 
3 6049 6009 6046 
3 6018 5967 6009 
3 6048 6010 6044 
3 6010 5979 5974 
3 6015 5980 5981 
3 6051 6011 6015 
3 6043 5982 6005 
3 6045 6039 6006 
3 6053 6013 6048 
3 6013 6005 5972 
3 6054 6014 6050 
3 6014 5981 5968 
3 6051 6046 6011 
3 6015 6011 5980 
3 6016 5950 5954 
3 6036 5992 6031 
3 6017 5991 5951 
3 6017 5953 5993 
3 6085 6081 6046 
3 6038 5961 6018 
3 6019 5551 5987 
3 6019 5900 5945 
3 6020 5984 5943 
3 6020 5959 5994 
3 6021 5994 5957 
3 6021 5950 6016 
3 6023 5985 5243 
3 6092 6058 6023 
3 6063 6023 5986 
3 6127 6092 6063 
3 6098 5550 6024 
3 6024 5550 5947 
3 6100 6066 6062 
3 6026 5949 5989 
3 6131 6026 5989 
3 6099 6062 6026 
3 6102 6027 5269 
3 6102 6068 6027 
3 6037 5991 6017 
3 6069 6040 6008 
3 6095 6029 6057 
3 6070 6042 6029 
3 6060 6030 5993 
3 6104 6071 6103 
3 6075 6041 5999 
3 6034 6017 5993 
3 6035 5997 6001 
3 6090 6035 6040 
3 6077 6055 6036 
3 6055 6016 6036 
3 6037 6028 5991 
3 6037 6017 6034 
3 6038 5996 5961 
3 6073 6018 6049 
3 6113 6091 6079 
3 6039 6000 6006 
3 6040 6001 6008 
3 6075 5999 6033 
3 6084 6041 6075 
3 6080 6042 6070 
3 6042 6007 6002 
3 6069 5990 6028 
3 6028 5990 5991 
3 6053 6005 6013 
3 6078 6045 6012 
3 6082 6048 6044 
3 6044 6010 6007 
3 6078 6012 6043 
3 6139 6113 6079 
3 6081 6049 6046 
3 6046 6009 6011 
3 6077 6036 6047 
3 6086 6053 6048 
3 6048 6013 6010 
3 6112 6038 6073 
3 6049 6018 6009 
3 6054 6051 6015 
3 6050 6014 6004 
3 6054 6015 6014 
3 6093 6051 6054 
3 6074 6061 6059 
3 6052 5994 6021 
3 6088 6053 6086 
3 6053 6043 6005 
3 6094 6050 6084 
3 6093 6085 6051 
3 6055 6021 6016 
3 6047 6036 6031 
3 6056 6003 5998 
3 6091 6039 6079 
3 6095 6070 6029 
3 6057 6029 6002 
3 6106 6030 6076 
3 6058 6022 5985 
3 6061 5984 6020 
3 6087 5994 6052 
3 6060 5993 5958 
3 6076 6060 6022 
3 6096 5551 6061 
3 6061 5551 5984 
3 6100 6063 6066 
3 6062 6025 6026 
3 6066 6063 5986 
3 6231 6156 6208 
3 6065 5987 5551 
3 6162 6130 6097 
3 6096 6061 6074 
3 6129 6065 6096 
3 6066 5986 5988 
3 6066 6025 6062 
3 6067 5256 5682 
3 6380 290 289 
3 6102 6101 6068 
3 6131 6068 5257 
3 6069 6028 6037 
3 6072 6047 6003 
3 6089 6003 6056 
3 6076 6030 6060 
3 6172 6154 6137 
3 6116 6070 6095 
3 6108 6080 6070 
3 6071 6069 6037 
3 6071 6037 6034 
3 6091 6089 6056 
3 6152 6072 6089 
3 6109 6049 6081 
3 6153 6112 6109 
3 6083 6052 6055 
3 6126 6096 6074 
3 6107 6033 6090 
3 6136 6107 6090 
3 6128 6058 6092 
3 6154 6071 6106 
3 6083 6055 6077 
3 6077 6047 6072 
3 6088 6043 6053 
3 6111 6079 6045 
3 6139 6079 6111 
3 6079 6039 6045 
3 6115 6080 6108 
3 6080 6044 6042 
3 6117 6081 6085 
3 6138 6081 6117 
3 6082 6044 6080 
3 6118 6086 6082 
3 6110 6077 6072 
3 6105 6087 6052 
3 6094 6093 6054 
3 6084 6050 6041 
3 6122 6117 6085 
3 6085 6046 6051 
3 6086 6048 6082 
3 6120 6088 6086 
3 6087 6059 5994 
3 6105 6052 6083 
3 6120 6119 6088 
3 6088 6078 6043 
3 6089 6072 6003 
3 6091 6056 6039 
3 6104 6090 6040 
3 6090 6033 6035 
3 6177 6125 6147 
3 6147 6125 6113 
3 6092 6023 6063 
3 6144 6128 6092 
3 6094 6054 6050 
3 6124 6093 6094 
3 6121 6084 6114 
3 6124 6122 6093 
3 6112 6057 6038 
3 6116 6108 6070 
3 6161 6129 6126 
3 6096 6065 5551 
3 6213 6162 5240 
3 6097 6064 6065 
3 6240 6098 6165 
3 6098 6024 6064 
3 6215 5257 6134 
3 6132 6062 6099 
3 6133 6100 6062 
3 6156 6100 6133 
3 6101 5257 6068 
3 6190 6166 6101 
3 6370 6102 5269 
3 6102 5270 6101 
3 6106 6071 6030 
3 6141 6107 6136 
3 6104 6040 6069 
3 6104 6069 6071 
3 6123 6087 6105 
3 6135 6083 6110 
3 6128 6076 6022 
3 6154 6106 6137 
3 6114 6075 6107 
3 6107 6075 6033 
3 6143 6108 6116 
3 6140 6115 6108 
3 6180 6153 6138 
3 6109 6073 6049 
3 6110 6083 6077 
3 6125 6089 6091 
3 6119 6111 6078 
3 6184 6160 6161 
3 6112 6095 6057 
3 6112 6073 6109 
3 6159 6123 6135 
3 6170 6147 6113 
3 6193 6154 6172 
3 6114 6084 6075 
3 6145 6118 6115 
3 6115 6082 6080 
3 6142 6095 6112 
3 6143 6140 6108 
3 6150 6117 6122 
3 6171 6117 6150 
3 6118 6082 6115 
3 6149 6120 6118 
3 6119 6078 6088 
3 6146 6139 6111 
3 6120 6086 6118 
3 6151 6120 6149 
3 6157 6121 6148 
3 6121 6094 6084 
3 6155 6150 6122 
3 6122 6085 6093 
3 6123 6074 6087 
3 6135 6105 6083 
3 6124 6094 6121 
3 6157 6124 6121 
3 6177 6152 6125 
3 6125 6091 6113 
3 6160 6097 6129 
3 6126 6074 6123 
3 6158 6063 6100 
3 6181 6157 6148 
3 6137 6076 6128 
3 6144 6092 6127 
3 6129 6097 6065 
3 6129 6096 6126 
3 6189 6130 6162 
3 6130 6064 6097 
3 6131 5989 6068 
3 6131 5257 6099 
3 6164 6132 6163 
3 6133 6132 5244 
3 6133 6062 6132 
3 6156 6133 5244 
3 6287 6134 6191 
3 6134 5257 6101 
3 6178 6177 6147 
3 6135 6123 6105 
3 6136 6090 6104 
3 6154 6103 6071 
3 6193 6141 6168 
3 6137 6106 6076 
3 6167 6143 6116 
3 6138 6109 6081 
3 6146 6111 6119 
3 6161 6160 6129 
3 6174 6145 6140 
3 6174 6140 6173 
3 6148 6114 6141 
3 6141 6114 6107 
3 6142 6116 6095 
3 6153 6142 6112 
3 6167 6116 6142 
3 6196 6167 6194 
3 6144 6137 6128 
3 6246 6200 6221 
3 6149 6145 5241 
3 6145 6115 6140 
3 6151 6119 6120 
3 6195 6146 6183 
3 6170 6113 6139 
3 6178 6135 6177 
3 6157 6155 6124 
3 6148 6121 6114 
3 6149 6118 6145 
3 6151 6149 5241 
3 6182 6150 5219 
3 6182 6171 6150 
3 6183 6151 5241 
3 6151 6146 6119 
3 6152 6110 6072 
3 6152 6089 6125 
3 6153 6109 6138 
3 6180 6138 6171 
3 6168 6103 6154 
3 6172 6137 6144 
3 6155 5219 6150 
3 6155 6122 6124 
3 6203 6181 6200 
3 6187 6156 5244 
3 6201 6200 6172 
3 6169 6155 6157 
3 6158 6127 6063 
3 6158 6100 6156 
3 6198 6185 6178 
3 6159 6126 6123 
3 6161 6126 6159 
3 6186 6162 6160 
3 6185 6159 6178 
3 6175 6170 6139 
3 6162 6097 6160 
3 6189 6165 6130 
3 6215 6192 6163 
3 6163 6132 6099 
3 6252 6248 6212 
3 6164 5244 6132 
3 6240 6165 5239 
3 6165 6098 6130 
3 6190 6101 5270 
3 6216 6191 6166 
3 6222 6196 6194 
3 6167 6142 6153 
3 6168 6141 6136 
3 6168 6136 6103 
3 6179 6144 6127 
3 6169 5219 6155 
3 6185 6184 6161 
3 6175 6139 6146 
3 6202 6194 6180 
3 6171 6138 6117 
3 6201 6144 6179 
3 6193 6176 6141 
3 6205 6174 6173 
3 6173 6140 6143 
3 6251 6224 6242 
3 6174 5241 6145 
3 6183 6146 6151 
3 6235 6228 6220 
3 6181 6148 6176 
3 6176 6148 6141 
3 6177 6135 6110 
3 6177 6110 6152 
3 6178 6159 6135 
3 6178 6147 6170 
3 6231 6127 6158 
3 6208 6156 6187 
3 6202 6180 6171 
3 6180 6167 6153 
3 6181 6169 6157 
3 6200 6181 6176 
3 6212 6187 6188 
3 6210 6202 6171 
3 6206 5241 6204 
3 6245 6220 6206 
3 6209 6207 6184 
3 6185 6161 6159 
3 6198 6178 6170 
3 6198 6170 6175 
3 6186 5240 6162 
3 6186 6160 6184 
3 6188 5244 6164 
3 6203 6169 6181 
3 6211 6188 6164 
3 6232 6212 6188 
3 6213 6189 6162 
3 6214 6165 6189 
3 6217 6190 5270 
3 6216 6190 5271 
3 6287 6215 6134 
3 6191 6134 6166 
3 6237 6192 6215 
3 6238 6211 6192 
3 6193 6168 6154 
3 6200 6193 6172 
3 6223 6196 6222 
3 6194 6167 6180 
3 6195 6175 6146 
3 6235 6209 6228 
3 6196 6173 6143 
3 6196 6143 6167 
3 6199 5219 6197 
3 6197 5219 6169 
3 6228 6175 6195 
3 6209 6185 6198 
3 6255 6219 6248 
3 6199 6182 5219 
3 6200 6176 6193 
3 6246 6208 6230 
3 6201 6172 6144 
3 6221 6201 6179 
3 6210 6171 6182 
3 6218 6194 6202 
3 6248 6227 6230 
3 6203 6197 6169 
3 6233 5240 6207 
3 6204 5241 6174 
3 6243 6223 6222 
3 6247 6205 6223 
3 6226 6206 6204 
3 6206 6183 5241 
3 6207 5240 6186 
3 6207 6186 6184 
3 6231 6208 6179 
3 6246 6230 6227 
3 6209 6184 6185 
3 6228 6198 6175 
3 6225 6182 6199 
3 6225 6210 6182 
3 6211 6164 6192 
3 6253 6232 6211 
3 6227 6219 6197 
3 6232 6188 6211 
3 6229 6213 5240 
3 6236 6213 6229 
3 6236 6234 6214 
3 6214 5239 6165 
3 6215 6163 5257 
3 6287 6237 6215 
3 6260 6239 5271 
3 6301 6191 6216 
3 6217 5271 6190 
3 6241 6217 5270 
3 6250 6243 6222 
3 6218 6202 6210 
3 6219 6199 6197 
3 6227 6197 6203 
3 6220 6195 6183 
3 6220 6183 6206 
3 6221 6200 6201 
3 6221 6179 6208 
3 6222 6194 6218 
3 6262 6261 6243 
3 6223 6205 6173 
3 6223 6173 6196 
3 6242 6224 6205 
3 6224 6204 6174 
3 6255 6199 6219 
3 6263 6225 6255 
3 6251 6204 6224 
3 6266 6249 6245 
3 6246 6203 6200 
3 6230 6208 6187 
3 6228 6209 6198 
3 6228 6195 6220 
3 6233 6229 5240 
3 6275 6272 6234 
3 6230 6187 6212 
3 6248 6230 6212 
3 6231 6179 6127 
3 6231 6158 6156 
3 6253 6211 6238 
3 6267 6255 6252 
3 6264 6258 6233 
3 6249 6207 6235 
3 6289 6272 5222 
3 6234 5239 6214 
3 6245 6235 6220 
3 6235 6207 6209 
3 6236 6214 6189 
3 6254 6236 6229 
3 6287 6270 6237 
3 6257 6238 6237 
3 6253 6238 5245 
3 6238 6192 6237 
3 6326 6315 6325 
3 6315 6288 6301 
3 6274 6259 5238 
3 6240 5550 6098 
3 6418 6370 6400 
3 6369 6241 5283 
3 6261 6242 6247 
3 6309 6242 6261 
3 6250 6222 6218 
3 6261 6247 6243 
3 6265 6250 6218 
3 6244 6218 6210 
3 6245 6206 6226 
3 6266 6264 6249 
3 6246 6227 6203 
3 6246 6221 6208 
3 6247 6242 6205 
3 6247 6223 6243 
3 6248 6219 6227 
3 6252 6212 6232 
3 6249 6233 6207 
3 6249 6235 6245 
3 6265 6218 6244 
3 6293 6250 6265 
3 6285 6280 6258 
3 6251 6226 6204 
3 6267 6263 6255 
3 6268 6232 6253 
3 6269 6268 6253 
3 6268 6267 6252 
3 6273 6229 6258 
3 6291 6275 6283 
3 6255 6225 6199 
3 6255 6248 6252 
3 6289 6277 6256 
3 6256 5239 6234 
3 6286 6271 6257 
3 6257 5245 6238 
3 6280 6273 6258 
3 6258 6229 6233 
3 6259 5239 6256 
3 6409 5238 6372 
3 6349 6260 6292 
3 6260 5272 6239 
3 6282 6261 6262 
3 6295 6261 6282 
3 6262 6243 6250 
3 6282 6262 5220 
3 6278 6265 6263 
3 6263 6244 6225 
3 6264 6233 6249 
3 6279 6264 6266 
3 6265 6244 6263 
3 6293 6262 6250 
3 6266 6226 6251 
3 6279 6266 6251 
3 6268 6252 6232 
3 6281 6267 6268 
3 6269 6253 5245 
3 6281 6268 6269 
3 6284 5245 6271 
3 6281 6278 6267 
3 6288 6270 5258 
3 6300 6299 6271 
3 6299 6284 6271 
3 6271 5245 6257 
3 6275 6234 6254 
3 6324 6289 5222 
3 6283 6273 6280 
3 6273 6254 6229 
3 6382 6274 5549 
3 6274 6240 6259 
3 6283 6275 6254 
3 6275 5222 6272 
3 6276 5271 6217 
3 6381 6292 5284 
3 6376 6277 6289 
3 6277 5238 6259 
3 6296 6293 6278 
3 6278 6263 6267 
3 6309 6295 6279 
3 6302 6285 6297 
3 6283 6280 5221 
3 6285 6258 6264 
3 6298 6269 6284 
3 6296 6278 6281 
3 6294 6282 5220 
3 6307 6297 6295 
3 6283 6254 6273 
3 6303 6283 5221 
3 6317 6299 5246 
3 6284 6269 5245 
3 6285 6264 6279 
3 6297 6279 6295 
3 6288 6286 6270 
3 6316 6300 6305 
3 6287 6191 5258 
3 6287 5258 6270 
3 6301 6288 5258 
3 6315 6305 6288 
3 6376 6290 6277 
3 6289 6256 6272 
3 6422 6306 6371 
3 6290 5238 6277 
3 6303 6291 6283 
3 6291 5222 6275 
3 6349 6292 5285 
3 6292 6260 6276 
3 6293 5220 6262 
3 6293 6265 6278 
3 6307 6295 6282 
3 6296 6294 5220 
3 6309 6279 6251 
3 6307 6282 6294 
3 6296 5220 6293 
3 6308 6269 6298 
3 6302 6280 6285 
3 6297 6285 6279 
3 6310 6284 6299 
3 6318 6296 6308 
3 6300 6271 6286 
3 6320 6311 6312 
3 6305 6300 6286 
3 6300 5246 6299 
3 6301 5258 6191 
3 6325 6301 6239 
3 6307 6302 6297 
3 6302 5221 6280 
3 6311 6303 5221 
3 6321 6304 6314 
3 6323 6313 6304 
3 6304 5222 6291 
3 6305 6286 6288 
3 6328 6305 5259 
3 6372 6306 5237 
3 6306 5238 6290 
3 6320 6310 6317 
3 6312 6302 6307 
3 6308 6296 6281 
3 6308 6281 6269 
3 6309 6251 6242 
3 6309 6261 6295 
3 6320 6319 6318 
3 6310 6298 6284 
3 6312 6311 5221 
3 6322 6314 6311 
3 6312 5221 6302 
3 6320 6318 6310 
3 6313 5222 6304 
3 6332 6313 6323 
3 6322 6321 6314 
3 6314 6304 6291 
3 6325 6315 6301 
3 6315 5259 6305 
3 6340 6328 6330 
3 6316 5246 6300 
3 6317 6310 6299 
3 6336 6329 6317 
3 6318 6294 6296 
3 6318 6298 6310 
3 6319 6312 6307 
3 6319 6307 6294 
3 6329 6320 6317 
3 6320 6312 6319 
3 6337 6331 6327 
3 6323 6321 5247 
3 6329 6322 6311 
3 6331 5246 6327 
3 6323 6304 6321 
3 6332 6323 5247 
3 6376 6324 5223 
3 6324 5222 6313 
3 6325 6239 5272 
3 6326 6325 5272 
3 6339 6334 6326 
3 6326 5259 6315 
3 6331 5247 6321 
3 6327 5246 6316 
3 6328 6316 6305 
3 6330 6328 5259 
3 6329 6311 6320 
3 6336 6317 5246 
3 6334 5259 6326 
3 6340 6337 6327 
3 6331 6321 6322 
3 6336 6331 6322 
3 6338 6332 5247 
3 6359 6354 5223 
3 6333 5223 6324 
3 6333 6313 6332 
3 6339 6326 5272 
3 6341 6334 6339 
3 6343 6335 5260 
3 6335 6330 6334 
3 6336 5246 6331 
3 6336 6322 6329 
3 6342 6337 6340 
3 6337 5247 6331 
3 6347 6338 6345 
3 6368 6338 6347 
3 6348 6339 5272 
3 6344 6341 6339 
3 6343 6330 6335 
3 6343 6342 6340 
3 6357 6341 5273 
3 6341 6335 6334 
3 6342 5247 6337 
3 6345 6342 5260 
3 6343 6340 6330 
3 6343 5260 6342 
3 6348 6346 6344 
3 6344 5273 6341 
3 6423 6361 5261 
3 6412 6347 6345 
3 6349 6346 6348 
3 6350 6346 5286 
3 6412 6351 6347 
3 6368 6347 5248 
3 6348 6344 6339 
3 6349 6348 5272 
3 6349 5272 6260 
3 6377 6349 5285 
3 6356 5274 6353 
3 6350 5273 6346 
3 6365 6355 6351 
3 6412 6365 6351 
3 6360 6352 5249 
3 6352 5248 6351 
3 6358 6357 6353 
3 6353 5273 6350 
3 6359 5223 6333 
3 6354 5248 6352 
3 6374 6355 5262 
3 6355 5249 6352 
3 6426 6350 5286 
3 6367 6356 5287 
3 6361 6357 6358 
3 6375 6357 6361 
3 6362 6358 5274 
3 6362 6361 6358 
3 6359 6333 6332 
3 6359 5248 6354 
3 6363 6360 5249 
3 6383 5224 6371 
3 6423 5261 6412 
3 6423 6375 6361 
3 6366 6364 5275 
3 6362 5261 6361 
3 6420 6379 6363 
3 6363 5224 6360 
3 6367 5274 6356 
3 6425 6366 5275 
3 6378 5261 6362 
3 6365 5262 6355 
3 6378 5262 6365 
3 6366 6362 6364 
3 6427 6367 5287 
3 6427 6415 6367 
3 6368 5248 6359 
3 6368 6332 6338 
3 6414 6369 5283 
3 6369 5284 6276 
3 6370 5270 6102 
3 6400 6370 5269 
3 6371 6290 5223 
3 6422 6371 5224 
3 6576 6372 5237 
3 6576 6411 6372 
3 6374 6373 5249 
3 6421 6373 6374 
3 6374 5249 6355 
3 6424 6421 6374 
3 6375 5260 6335 
3 6375 6341 6357 
3 6376 6289 6324 
3 6376 5223 6290 
3 6419 6377 5285 
3 6377 5286 6346 
3 6378 6365 5261 
3 6378 6362 6366 
3 6560 6488 5225 
3 6379 5224 6363 
3 6400 6380 289 
3 6380 5269 6067 
3 6417 6416 6381 
3 6381 5285 6292 
3 6382 5550 6274 
3 6413 6382 5549 
3 6383 6354 6360 
3 6383 6360 5224 
3 6429 6384 5530 
3 6483 6384 486 
3 6428 6385 5533 
3 6484 6385 490 
3 6386 5541 5540 
3 6386 5540 499 
3 6387 5536 493 
3 6485 6387 494 
3 6388 5539 497 
3 6388 498 5540 
3 6431 6389 504 
3 6466 6389 5515 
3 6390 520 521 
3 6468 6390 5359 
3 6391 524 525 
3 6472 6391 5320 
3 6392 527 528 
3 6471 6392 5294 
3 6393 532 5255 
3 6481 6393 5255 
3 6394 534 535 
3 6470 6394 5231 
3 6437 6395 518 
3 6473 6395 5385 
3 6476 6396 5424 
3 6396 5437 513 
3 6434 6397 511 
3 6477 6397 5450 
3 6482 6398 5489 
3 6398 5502 506 
3 6467 6399 5347 
3 6399 5334 282 
3 6400 5269 6380 
3 6400 289 288 
3 6469 6401 5321 
3 6443 6401 5308 
3 6402 275 274 
3 6475 6402 5412 
3 6403 263 5516 
3 6480 6403 5516 
3 6479 6404 5477 
3 6404 5464 268 
3 6447 6405 270 
3 6478 6405 5451 
3 6445 6406 277 
3 6474 6406 5386 
3 6454 6407 5547 
3 6486 6407 375 
3 6408 5544 380 
3 6487 6408 379 
3 6409 5549 6274 
3 6409 6274 5238 
3 6410 5543 5542 
3 6410 5542 383 
3 6486 6411 5548 
3 6411 5549 6409 
3 6423 6412 6345 
3 6412 5261 6365 
3 6486 5549 6411 
3 6413 374 373 
3 6414 5284 6369 
3 6414 5283 5296 
3 6501 6415 5288 
3 6415 5275 6364 
3 6497 6419 6416 
3 6416 5285 6381 
3 6417 5284 6414 
3 6502 6417 5297 
3 6494 6418 5282 
3 6418 5283 6241 
3 6575 6419 6497 
3 6419 5286 6377 
3 6561 6492 5250 
3 6420 5225 6379 
3 6496 6421 5263 
3 6421 5250 6373 
3 6422 5237 6306 
3 6422 5224 6379 
3 6423 6345 5260 
3 6423 5260 6375 
3 6425 6424 5262 
3 6424 5263 6421 
3 6425 5262 6366 
3 6495 6425 5275 
3 6489 6426 5286 
3 6493 6426 6489 
3 6490 6427 5287 
3 6427 5288 6415 
3 6428 5533 5532 
3 6428 5532 488 
3 6429 5530 5529 
3 6429 5529 484 
3 6543 6430 5333 
3 6430 5346 523 
3 6431 505 5502 
3 6431 5502 5515 
3 6432 508 5476 
3 6510 6432 5476 
3 6433 509 510 
3 6433 5463 5476 
3 6434 512 5437 
3 6434 5437 5450 
3 6435 515 5411 
3 6512 6435 5411 
3 6436 516 517 
3 6518 6436 5398 
3 6437 519 5372 
3 6437 5372 5385 
3 6438 526 527 
3 6438 5307 5320 
3 6439 530 531 
3 6517 6439 5268 
3 6440 533 534 
3 6440 5230 5255 
3 6441 5359 6390 
3 6441 522 5346 
3 6442 5528 5541 
3 6442 5541 502 
3 6443 5295 286 
3 6443 286 285 
3 6444 279 278 
3 6529 6444 5373 
3 6445 276 5399 
3 6445 5399 5386 
3 6446 272 271 
3 6446 5438 5425 
3 6447 269 5464 
3 6447 5464 5451 
3 6448 266 5490 
3 6526 6448 5490 
3 6527 6449 5529 
3 6449 5516 263 
3 6450 5503 5490 
3 6450 5490 265 
3 6451 273 5425 
3 6524 6451 5425 
3 6528 6452 5360 
3 6452 5347 6399 
3 6453 5321 6401 
3 6453 283 5334 
3 6454 5547 5546 
3 6454 5546 377 
3 6455 5523 5536 
3 6455 5537 5524 
3 6456 5517 5530 
3 6456 5531 5518 
3 6457 5527 5540 
3 6457 5541 5528 
3 6458 5526 5539 
3 6458 5540 5527 
3 6459 5231 5542 
3 6540 6459 5543 
3 6460 5233 5544 
3 6460 5545 5234 
3 6461 5236 5547 
3 6576 6461 5548 
3 6462 5520 5533 
3 6462 5534 5521 
3 6463 5282 288 
3 6463 287 5295 
3 6464 529 5281 
3 6514 6464 5281 
3 6465 536 5542 
3 6465 5542 5231 
3 6520 6466 5514 
3 6466 5527 6457 
3 6533 6467 5348 
3 6467 5335 5334 
3 6468 5372 6390 
3 6539 6468 5358 
3 6469 5309 5308 
3 6469 5308 6401 
3 6470 5230 6394 
3 6541 6470 5232 
3 6471 5307 6392 
3 6544 6471 5293 
3 6472 5333 6391 
3 6498 6472 5319 
3 6473 5398 6395 
3 6546 6473 5384 
3 6474 5373 6406 
3 6545 6474 5387 
3 6475 5399 6402 
3 6547 6475 5413 
3 6476 5437 6396 
3 6548 6476 5423 
3 6477 5463 6397 
3 6549 6477 5449 
3 6478 5438 6405 
3 6550 6478 5452 
3 6479 5464 6404 
3 6551 6479 5478 
3 6480 5503 6403 
3 6504 6480 5517 
3 6481 5268 6393 
3 6552 6481 5254 
3 6482 5502 6398 
3 6553 6482 5488 
3 6483 5531 6384 
3 6483 487 5532 
3 6484 5535 5534 
3 6484 5534 6385 
3 6485 5538 5537 
3 6485 5537 6387 
3 6486 5548 6407 
3 6486 374 6413 
3 6487 5545 6408 
3 6487 378 5546 
3 6488 6379 5225 
3 6500 6488 5236 
3 6489 5286 6419 
3 6559 6493 6489 
3 6574 5287 6493 
3 6558 6490 5301 
3 6570 6491 5276 
3 6491 5263 6424 
3 6706 6492 5251 
3 6492 5225 6420 
3 6574 6493 5300 
3 6493 5287 6426 
3 6494 5282 5295 
3 6494 5296 5283 
3 6501 5275 6415 
3 6495 5276 6491 
3 6614 6561 6496 
3 6496 5250 6421 
3 6554 6497 5298 
3 6575 6497 6554 
3 6498 5332 6472 
3 6498 5319 5318 
3 6692 6499 5323 
3 6499 5309 6469 
3 6500 5236 6461 
3 6500 5237 6422 
3 6562 6501 5288 
3 6562 6555 6501 
3 6620 5297 6571 
3 6502 5298 6416 
3 6538 6503 5519 
3 6503 5533 5520 
3 6504 5504 6480 
3 6587 6504 5518 
3 6505 5510 5523 
3 6505 5524 5511 
3 6521 6506 5235 
3 6506 5547 5236 
3 6507 5501 5514 
3 6507 5515 5502 
3 6508 5345 5358 
3 6508 5359 6441 
3 6568 6509 5306 
3 6509 5320 5307 
3 6510 5475 5488 
3 6510 5489 6432 
3 6511 5436 5449 
3 6511 5450 5437 
3 6512 5410 5423 
3 6512 5424 6435 
3 6513 5371 5384 
3 6513 5385 5372 
3 6514 5280 5293 
3 6514 5294 6464 
3 6515 5229 5254 
3 6515 5255 5230 
3 6541 6516 5228 
3 6516 5234 5227 
3 6517 5281 6439 
3 6598 6517 5267 
3 6518 5411 6436 
3 6599 6518 5397 
3 6519 5476 5463 
3 6600 6519 5462 
3 6520 5513 5526 
3 6520 5527 6466 
3 6521 5234 5545 
3 6521 5546 6506 
3 6573 6522 5335 
3 6522 5322 5321 
3 6523 5400 5387 
3 6523 5386 5399 
3 6524 5426 5413 
3 6524 5412 6451 
3 6525 5465 5452 
3 6525 5451 5464 
3 6526 5491 5478 
3 6526 5477 6448 
3 6527 5516 6449 
3 6527 5529 5530 
3 6528 5361 5348 
3 6528 5347 6452 
3 6578 6529 5374 
3 6529 5361 6528 
3 6530 5425 5438 
3 6584 6530 5439 
3 6531 5490 5503 
3 6585 6531 5504 
3 6532 5507 5520 
3 6532 5521 5508 
3 6533 5335 6467 
3 6565 6533 5349 
3 6535 6534 5525 
3 6534 5538 5539 
3 6535 5524 5537 
3 6535 5538 6534 
3 6537 6536 5522 
3 6536 5535 5536 
3 6537 5521 5534 
3 6537 5535 6536 
3 6538 5518 5531 
3 6538 5532 6503 
3 6539 5371 6468 
3 6566 6539 5357 
3 6540 5544 5233 
3 6540 5232 6459 
3 6541 5229 6470 
3 6541 5233 6516 
3 6542 5295 6443 
3 6571 6542 5309 
3 6572 6543 5332 
3 6543 5345 6508 
3 6544 5306 6471 
3 6567 6544 5292 
3 6607 6545 5388 
3 6545 5375 5374 
3 6546 5397 6473 
3 6564 6546 5383 
3 6547 5400 6475 
3 6608 6547 5414 
3 6548 5436 6476 
3 6609 6548 5422 
3 6549 5462 6477 
3 6610 6549 5448 
3 6550 5439 6478 
3 6611 6550 5453 
3 6551 5465 6479 
3 6612 6551 5479 
3 6552 5267 6481 
3 6563 6552 5253 
3 6553 5501 6482 
3 6613 6553 5487 
3 6556 6554 5298 
3 6621 6615 5299 
3 6625 6555 5289 
3 6555 5276 6495 
3 6668 6556 6557 
3 6659 6556 5311 
3 6557 6502 5297 
3 6668 6557 5310 
3 6631 6619 5302 
3 6558 5288 6490 
3 6621 5299 6554 
3 6559 5300 6493 
3 6665 6635 6560 
3 6560 5236 6488 
3 6561 5251 6492 
3 6561 5250 6496 
3 6562 5288 6558 
3 6562 5289 6555 
3 6743 6563 5252 
3 6563 5266 6552 
3 6637 6564 5382 
3 6564 5396 6546 
3 6565 5349 5350 
3 6565 5350 5337 
3 6566 5370 6539 
3 6566 5357 5356 
3 6779 6567 5291 
3 6567 5305 6544 
3 6568 5305 5318 
3 6568 5319 6509 
3 6571 6569 5296 
3 6569 5297 6417 
3 6666 6570 5276 
3 6710 6570 6666 
3 6571 5296 6542 
3 6732 6620 6571 
3 6572 5331 5344 
3 6572 5345 6543 
3 6573 5336 5323 
3 6573 5322 6522 
3 6618 6574 5300 
3 6574 6490 5287 
3 6575 5299 6489 
3 6575 6489 6419 
3 6576 5237 6461 
3 6576 5548 6411 
3 6670 6616 5318 
3 6577 5331 6498 
3 6578 5361 6529 
3 6634 6578 5375 
3 6579 5401 5388 
3 6579 5387 5400 
3 6580 5427 5414 
3 6580 5413 5426 
3 6581 5466 5453 
3 6581 5452 5465 
3 6582 5492 5479 
3 6582 5478 5491 
3 6628 6583 5362 
3 6583 5348 5361 
3 6584 5426 6530 
3 6642 6584 5440 
3 6585 5491 6531 
3 6644 6585 5505 
3 6586 5497 5510 
3 6586 5511 5498 
3 6587 5505 6504 
3 6588 6587 5519 
3 6588 5506 6587 
3 6588 5520 5507 
3 6589 5508 5521 
3 6604 6589 5522 
3 6590 5358 5345 
3 6590 5345 5344 
3 6591 5474 5487 
3 6591 5488 5475 
3 6592 5435 5448 
3 6592 5449 5436 
3 6626 6593 5409 
3 6593 5423 5410 
3 6627 6594 5370 
3 6594 5384 5371 
3 6630 6595 5279 
3 6595 5293 5280 
3 6596 5228 5253 
3 6596 5254 5229 
3 6597 5253 5228 
3 6636 6597 5227 
3 6598 5280 6517 
3 6633 6598 5266 
3 6599 5410 6518 
3 6632 6599 5396 
3 6600 5475 6519 
3 6650 6600 5461 
3 6601 5514 5501 
3 6601 5501 6553 
3 6605 6602 5512 
3 6602 5526 5513 
3 6603 5227 5234 
3 6635 6603 5235 
3 6604 5509 6589 
3 6604 5523 5510 
3 6605 5511 5524 
3 6605 5525 6602 
3 6606 5494 5507 
3 6606 5508 5495 
3 6607 5375 6545 
3 6624 6607 5389 
3 6608 5401 6547 
3 6622 6608 5415 
3 6609 5435 6548 
3 6623 6609 5421 
3 6610 5461 6549 
3 6654 6610 5447 
3 6611 5440 6550 
3 6655 6611 5454 
3 6612 5466 6551 
3 6656 6612 5480 
3 6613 5500 6553 
3 6657 6613 5486 
3 6699 6658 5264 
3 6614 5251 6561 
3 6700 6615 6621 
3 6700 6674 6615 
3 6675 6616 5317 
3 6675 6617 6616 
3 6662 6617 5330 
3 6617 6577 6616 
3 6674 6661 5300 
3 6618 5301 6490 
3 6708 5301 6661 
3 6667 6631 5302 
3 6620 5310 6557 
3 6620 6557 5297 
3 6659 6554 6556 
3 6700 6621 5312 
3 6676 6622 5416 
3 6622 5402 6608 
3 6677 6623 5420 
3 6623 5434 6609 
3 6624 5390 5377 
3 6624 5376 6607 
3 6767 6625 5289 
3 6771 6625 6767 
3 6626 5408 5421 
3 6626 5422 6593 
3 6627 5369 5382 
3 6627 5383 6594 
3 6628 5363 5350 
3 6628 5349 6583 
3 6629 5343 5356 
3 6629 5357 6590 
3 6783 6781 6630 
3 6630 5292 6595 
3 6631 5289 6562 
3 6631 6562 6558 
3 6632 5395 5408 
3 6632 5409 6599 
3 6791 6754 5265 
3 6633 5279 6598 
3 6634 5376 5363 
3 6634 5362 6578 
3 6635 5226 6603 
3 6635 5235 6560 
3 6706 6636 5226 
3 6636 5252 6597 
3 6701 6663 5382 
3 6637 5395 6564 
3 6638 5428 5415 
3 6638 5414 5427 
3 6639 5467 5454 
3 6639 5453 5466 
3 6680 6640 5493 
3 6640 5479 5492 
3 6673 6641 5402 
3 6641 5389 5388 
3 6642 5427 6584 
3 6681 6642 5441 
3 6643 5484 5497 
3 6657 6643 5498 
3 6644 5492 6585 
3 6645 6644 5506 
3 6645 5493 6644 
3 6645 5507 5494 
3 6646 5495 5508 
3 6651 6646 5509 
3 6647 5473 5486 
3 6647 5487 5474 
3 6648 5513 5500 
3 6652 6648 5499 
3 6672 6649 5434 
3 6649 5448 5435 
3 6650 5474 6600 
3 6685 6650 5460 
3 6651 5496 6646 
3 6651 5510 5497 
3 6652 5498 5511 
3 6652 5512 6648 
3 6653 5481 5494 
3 6653 5495 5482 
3 6654 5460 6610 
3 6671 6654 5446 
3 6655 5441 6611 
3 6690 6655 5455 
3 6656 5467 6612 
3 6688 6656 5481 
3 6657 5499 6613 
3 6657 5485 6643 
3 6743 6658 5265 
3 6743 6734 6658 
3 6693 6659 5311 
3 6659 5312 6621 
3 6723 6660 6708 
3 6698 6660 5315 
3 6707 6661 6674 
3 6708 6661 5314 
3 6662 5331 6617 
3 6662 5330 5343 
3 6709 6663 5381 
3 6709 6664 6663 
3 6715 6664 5394 
3 6664 6637 6663 
3 6665 5226 6635 
3 6665 5225 6492 
3 6666 5276 6625 
3 6710 6666 5277 
3 6762 5303 6750 
3 6667 5289 6631 
3 6668 5311 6556 
3 6692 6668 5310 
3 6669 5264 6614 
3 6669 5263 6570 
3 6670 5318 5305 
3 6726 6670 5304 
3 6711 6671 5445 
3 6671 5459 6654 
3 6672 5433 5446 
3 6672 5447 6649 
3 6673 5403 5390 
3 6673 5389 6641 
3 6707 6674 5313 
3 6674 5300 6615 
3 6760 6675 6691 
3 6675 5330 6617 
3 6703 6696 5416 
3 6676 5403 6622 
3 6704 6695 5420 
3 6677 5433 6623 
3 6703 6678 5429 
3 6678 5415 5428 
3 6679 5468 5455 
3 6679 5454 5467 
3 6680 5494 5481 
3 6680 5480 6640 
3 6681 5428 6642 
3 6705 6681 5442 
3 6682 5471 5484 
3 6682 5485 5472 
3 6683 5482 5495 
3 6687 6683 5496 
3 6704 6684 5407 
3 6684 5421 5408 
3 6685 5473 6650 
3 6713 6685 5459 
3 6686 5486 5473 
3 6686 5473 6685 
3 6687 5483 6683 
3 6687 5497 5484 
3 6688 5468 6656 
3 6714 6688 5482 
3 6689 5337 5324 
3 6689 5324 5323 
3 6690 5442 6655 
3 6702 6690 5456 
3 6726 6691 5317 
3 6726 6721 6691 
3 6692 5310 6499 
3 6692 5323 5324 
3 6697 6693 5311 
3 6742 6722 5312 
3 6731 6694 6696 
3 6737 6694 5404 
3 6740 6695 5419 
3 6727 6695 5432 
3 6696 6676 5416 
3 6731 6696 5417 
3 6697 5324 6693 
3 6697 5311 6668 
3 6745 6721 6725 
3 6698 5302 6660 
3 6710 6699 5264 
3 6792 6791 6699 
3 6742 5312 6693 
3 6700 5313 6674 
3 6701 5382 5369 
3 6701 5368 5381 
3 6733 6702 5457 
3 6702 5443 6690 
3 6703 5430 5417 
3 6703 5416 6678 
3 6704 5406 5419 
3 6704 5420 6684 
3 6705 5443 5430 
3 6705 5429 6681 
3 6706 5226 6665 
3 6734 6706 5251 
3 6741 5313 6700 
3 6707 5314 6661 
3 6723 6708 5314 
3 6708 6660 5301 
3 6709 5380 5393 
3 6709 5394 6664 
3 6792 6710 5277 
3 6710 5264 6669 
3 6729 6724 5445 
3 6711 5458 6671 
3 6729 6712 5432 
3 6712 5446 5433 
3 6713 5472 6685 
3 6713 5459 5458 
3 6714 5469 6688 
3 6716 6714 5483 
3 6730 6715 5394 
3 6715 5408 5395 
3 6716 5470 6714 
3 6716 5484 5471 
3 6717 5469 5456 
3 6717 5455 5468 
3 6718 5364 5351 
3 6718 5351 5350 
3 6719 5363 5376 
3 6719 5377 5364 
3 6751 6720 5326 
3 6751 6744 6720 
3 6725 6721 5303 
3 6721 5316 6691 
3 6752 6741 6722 
3 6752 6722 5325 
3 6753 5314 6744 
3 6723 5315 6660 
3 6733 6724 5444 
3 6724 5457 6711 
3 6762 6725 5303 
3 6725 5302 6698 
3 6726 5317 6670 
3 6739 6726 5304 
3 6727 5432 6712 
3 6727 5433 6677 
3 6728 5457 5470 
3 6728 5471 6713 
3 6729 5431 5444 
3 6729 5445 6712 
3 6730 5393 5406 
3 6730 5407 6715 
3 6731 5418 5405 
3 6731 5404 6694 
3 6732 5309 6499 
3 6732 5310 6620 
3 6733 5457 6724 
3 6733 5444 6702 
3 6734 5252 6636 
3 6734 5251 6614 
3 6735 5470 5457 
3 6735 5456 5469 
3 6736 5444 5431 
3 6736 5431 6747 
3 6737 5390 5403 
3 6737 5404 5391 
3 6759 6738 6753 
3 6761 6748 5315 
3 6779 6750 6739 
3 6739 5303 6721 
3 6740 5418 5431 
3 6740 5432 6695 
3 6741 5326 6720 
3 6741 6720 5313 
3 6749 6693 5324 
3 6742 5325 6722 
3 6743 5252 6734 
3 6754 6743 5265 
3 6753 6744 5327 
3 6744 5314 6707 
3 6748 6745 5315 
3 6745 5316 6721 
3 6746 5304 6670 
3 6746 5305 6567 
3 6747 5417 5430 
3 6747 5431 5418 
3 6761 5315 6738 
3 6764 6760 6748 
3 6758 5324 5337 
3 6749 5325 6742 
3 6774 6750 5291 
3 6762 6750 5290 
3 6757 5326 5339 
3 6751 5327 6744 
3 6758 6756 5325 
3 6752 5326 6741 
3 6759 6753 5327 
3 6753 6738 6723 
3 6754 5266 6563 
3 6791 6788 6633 
3 6755 5405 5418 
3 6755 5419 5406 
3 6756 5338 5339 
3 6756 5339 5326 
3 6757 5339 5340 
3 6765 6757 5340 
3 6758 5337 5338 
3 6758 5338 6756 
3 6765 5327 6757 
3 6759 5328 6738 
3 6760 5316 6748 
3 6766 6760 5329 
3 6761 6738 5328 
3 6764 6761 5328 
3 6767 6762 5290 
3 6762 6667 6725 
3 6770 6763 6765 
3 6776 6768 6764 
3 6776 5328 6763 
3 6764 5329 6760 
3 6765 6759 5327 
3 6770 6765 5340 
3 6769 5329 6768 
3 6766 5330 6675 
3 6767 5289 6667 
3 6771 6767 5290 
3 6777 6768 6776 
3 6769 6768 5342 
3 6769 5342 5343 
3 6769 5343 5330 
3 6772 6770 5340 
3 6775 6770 6772 
3 6774 5290 6750 
3 6771 5277 6666 
3 6778 5340 5339 
3 6787 6775 6772 
3 6783 6773 6774 
3 6792 5278 6791 
3 6774 6771 5290 
3 6783 6774 5291 
3 6785 5355 6780 
3 6775 5341 6770 
3 6776 6763 5341 
3 6777 6776 5341 
3 6777 5341 6775 
3 6785 6777 6775 
3 6782 6778 5352 
3 6778 5353 6772 
3 6779 5304 6746 
3 6779 5291 6750 
3 6784 5355 5356 
3 6780 5342 6777 
3 6781 5291 6567 
3 6781 5292 6630 
3 6793 6790 6782 
3 6782 5353 6778 
3 6783 5278 6773 
3 6783 5291 6781 
3 6784 5342 6780 
3 6784 5356 5343 
3 6785 6775 5354 
3 6786 6785 5354 
3 6786 5368 5355 
3 6786 5355 6785 
3 6790 6789 6787 
3 6787 5354 6775 
3 6788 5278 6783 
3 6788 5279 6633 
3 6789 5367 6786 
3 6789 5354 6787 
3 6790 5353 6782 
3 6795 6790 5366 
3 6791 5265 6699 
3 6791 5278 6788 
3 6792 6699 6710 
3 6792 5277 6773 
3 6796 6793 5365 
3 6793 5366 6790 
3 6794 5365 6793 
3 6794 5352 5351 
3 6797 6795 5366 
3 6798 6795 6797 
3 6796 5365 5378 
3 6797 6796 5379 
3 6797 5366 6796 
3 6800 6798 6797 
3 6799 5380 5381 
3 6798 5367 6795 
3 6799 5367 6798 
3 6799 5381 5368 
3 6800 5379 5392 
3 6800 5393 5380 
3 5392 5405 6801 
3 5406 5393 6801 

CELL_TYPES 13208
5
5
5
5
5
5
5
5
5
5
5
5
5
5
5
5
5
5
5
5
5
5
5
5
5
5
5
5
5
5
5
5
5
5
5
5
5
5
5
5
5
5
5
5
5
5
5
5
5
5
5
5
5
5
5
5
5
5
5
5
5
5
5
5
5
5
5
5
5
5
5
5
5
5
5
5
5
5
5
5
5
5
5
5
5
5
5
5
5
5
5
5
5
5
5
5
5
5
5
5
5
5
5
5
5
5
5
5
5
5
5
5
5
5
5
5
5
5
5
5
5
5
5
5
5
5
5
5
5
5
5
5
5
5
5
5
5
5
5
5
5
5
5
5
5
5
5
5
5
5
5
5
5
5
5
5
5
5
5
5
5
5
5
5
5
5
5
5
5
5
5
5
5
5
5
5
5
5
5
5
5
5
5
5
5
5
5
5
5
5
5
5
5
5
5
5
5
5
5
5
5
5
5
5
5
5
5
5
5
5
5
5
5
5
5
5
5
5
5
5
5
5
5
5
5
5
5
5
5
5
5
5
5
5
5
5
5
5
5
5
5
5
5
5
5
5
5
5
5
5
5
5
5
5
5
5
5
5
5
5
5
5
5
5
5
5
5
5
5
5
5
5
5
5
5
5
5
5
5
5
5
5
5
5
5
5
5
5
5
5
5
5
5
5
5
5
5
5
5
5
5
5
5
5
5
5
5
5
5
5
5
5
5
5
5
5
5
5
5
5
5
5
5
5
5
5
5
5
5
5
5
5
5
5
5
5
5
5
5
5
5
5
5
5
5
5
5
5
5
5
5
5
5
5
5
5
5
5
5
5
5
5
5
5
5
5
5
5
5
5
5
5
5
5
5
5
5
5
5
5
5
5
5
5
5
5
5
5
5
5
5
5
5
5
5
5
5
5
5
5
5
5
5
5
5
5
5
5
5
5
5
5
5
5
5
5
5
5
5
5
5
5
5
5
5
5
5
5
5
5
5
5
5
5
5
5
5
5
5
5
5
5
5
5
5
5
5
5
5
5
5
5
5
5
5
5
5
5
5
5
5
5
5
5
5
5
5
5
5
5
5
5
5
5
5
5
5
5
5
5
5
5
5
5
5
5
5
5
5
5
5
5
5
5
5
5
5
5
5
5
5
5
5
5
5
5
5
5
5
5
5
5
5
5
5
5
5
5
5
5
5
5
5
5
5
5
5
5
5
5
5
5
5
5
5
5
5
5
5
5
5
5
5
5
5
5
5
5
5
5
5
5
5
5
5
5
5
5
5
5
5
5
5
5
5
5
5
5
5
5
5
5
5
5
5
5
5
5
5
5
5
5
5
5
5
5
5
5
5
5
5
5
5
5
5
5
5
5
5
5
5
5
5
5
5
5
5
5
5
5
5
5
5
5
5
5
5
5
5
5
5
5
5
5
5
5
5
5
5
5
5
5
5
5
5
5
5
5
5
5
5
5
5
5
5
5
5
5
5
5
5
5
5
5
5
5
5
5
5
5
5
5
5
5
5
5
5
5
5
5
5
5
5
5
5
5
5
5
5
5
5
5
5
5
5
5
5
5
5
5
5
5
5
5
5
5
5
5
5
5
5
5
5
5
5
5
5
5
5
5
5
5
5
5
5
5
5
5
5
5
5
5
5
5
5
5
5
5
5
5
5
5
5
5
5
5
5
5
5
5
5
5
5
5
5
5
5
5
5
5
5
5
5
5
5
5
5
5
5
5
5
5
5
5
5
5
5
5
5
5
5
5
5
5
5
5
5
5
5
5
5
5
5
5
5
5
5
5
5
5
5
5
5
5
5
5
5
5
5
5
5
5
5
5
5
5
5
5
5
5
5
5
5
5
5
5
5
5
5
5
5
5
5
5
5
5
5
5
5
5
5
5
5
5
5
5
5
5
5
5
5
5
5
5
5
5
5
5
5
5
5
5
5
5
5
5
5
5
5
5
5
5
5
5
5
5
5
5
5
5
5
5
5
5
5
5
5
5
5
5
5
5
5
5
5
5
5
5
5
5
5
5
5
5
5
5
5
5
5
5
5
5
5
5
5
5
5
5
5
5
5
5
5
5
5
5
5
5
5
5
5
5
5
5
5
5
5
5
5
5
5
5
5
5
5
5
5
5
5
5
5
5
5
5
5
5
5
5
5
5
5
5
5
5
5
5
5
5
5
5
5
5
5
5
5
5
5
5
5
5
5
5
5
5
5
5
5
5
5
5
5
5
5
5
5
5
5
5
5
5
5
5
5
5
5
5
5
5
5
5
5
5
5
5
5
5
5
5
5
5
5
5
5
5
5
5
5
5
5
5
5
5
5
5
5
5
5
5
5
5
5
5
5
5
5
5
5
5
5
5
5
5
5
5
5
5
5
5
5
5
5
5
5
5
5
5
5
5
5
5
5
5
5
5
5
5
5
5
5
5
5
5
5
5
5
5
5
5
5
5
5
5
5
5
5
5
5
5
5
5
5
5
5
5
5
5
5
5
5
5
5
5
5
5
5
5
5
5
5
5
5
5
5
5
5
5
5
5
5
5
5
5
5
5
5
5
5
5
5
5
5
5
5
5
5
5
5
5
5
5
5
5
5
5
5
5
5
5
5
5
5
5
5
5
5
5
5
5
5
5
5
5
5
5
5
5
5
5
5
5
5
5
5
5
5
5
5
5
5
5
5
5
5
5
5
5
5
5
5
5
5
5
5
5
5
5
5
5
5
5
5
5
5
5
5
5
5
5
5
5
5
5
5
5
5
5
5
5
5
5
5
5
5
5
5
5
5
5
5
5
5
5
5
5
5
5
5
5
5
5
5
5
5
5
5
5
5
5
5
5
5
5
5
5
5
5
5
5
5
5
5
5
5
5
5
5
5
5
5
5
5
5
5
5
5
5
5
5
5
5
5
5
5
5
5
5
5
5
5
5
5
5
5
5
5
5
5
5
5
5
5
5
5
5
5
5
5
5
5
5
5
5
5
5
5
5
5
5
5
5
5
5
5
5
5
5
5
5
5
5
5
5
5
5
5
5
5
5
5
5
5
5
5
5
5
5
5
5
5
5
5
5
5
5
5
5
5
5
5
5
5
5
5
5
5
5
5
5
5
5
5
5
5
5
5
5
5
5
5
5
5
5
5
5
5
5
5
5
5
5
5
5
5
5
5
5
5
5
5
5
5
5
5
5
5
5
5
5
5
5
5
5
5
5
5
5
5
5
5
5
5
5
5
5
5
5
5
5
5
5
5
5
5
5
5
5
5
5
5
5
5
5
5
5
5
5
5
5
5
5
5
5
5
5
5
5
5
5
5
5
5
5
5
5
5
5
5
5
5
5
5
5
5
5
5
5
5
5
5
5
5
5
5
5
5
5
5
5
5
5
5
5
5
5
5
5
5
5
5
5
5
5
5
5
5
5
5
5
5
5
5
5
5
5
5
5
5
5
5
5
5
5
5
5
5
5
5
5
5
5
5
5
5
5
5
5
5
5
5
5
5
5
5
5
5
5
5
5
5
5
5
5
5
5
5
5
5
5
5
5
5
5
5
5
5
5
5
5
5
5
5
5
5
5
5
5
5
5
5
5
5
5
5
5
5
5
5
5
5
5
5
5
5
5
5
5
5
5
5
5
5
5
5
5
5
5
5
5
5
5
5
5
5
5
5
5
5
5
5
5
5
5
5
5
5
5
5
5
5
5
5
5
5
5
5
5
5
5
5
5
5
5
5
5
5
5
5
5
5
5
5
5
5
5
5
5
5
5
5
5
5
5
5
5
5
5
5
5
5
5
5
5
5
5
5
5
5
5
5
5
5
5
5
5
5
5
5
5
5
5
5
5
5
5
5
5
5
5
5
5
5
5
5
5
5
5
5
5
5
5
5
5
5
5
5
5
5
5
5
5
5
5
5
5
5
5
5
5
5
5
5
5
5
5
5
5
5
5
5
5
5
5
5
5
5
5
5
5
5
5
5
5
5
5
5
5
5
5
5
5
5
5
5
5
5
5
5
5
5
5
5
5
5
5
5
5
5
5
5
5
5
5
5
5
5
5
5
5
5
5
5
5
5
5
5
5
5
5
5
5
5
5
5
5
5
5
5
5
5
5
5
5
5
5
5
5
5
5
5
5
5
5
5
5
5
5
5
5
5
5
5
5
5
5
5
5
5
5
5
5
5
5
5
5
5
5
5
5
5
5
5
5
5
5
5
5
5
5
5
5
5
5
5
5
5
5
5
5
5
5
5
5
5
5
5
5
5
5
5
5
5
5
5
5
5
5
5
5
5
5
5
5
5
5
5
5
5
5
5
5
5
5
5
5
5
5
5
5
5
5
5
5
5
5
5
5
5
5
5
5
5
5
5
5
5
5
5
5
5
5
5
5
5
5
5
5
5
5
5
5
5
5
5
5
5
5
5
5
5
5
5
5
5
5
5
5
5
5
5
5
5
5
5
5
5
5
5
5
5
5
5
5
5
5
5
5
5
5
5
5
5
5
5
5
5
5
5
5
5
5
5
5
5
5
5
5
5
5
5
5
5
5
5
5
5
5
5
5
5
5
5
5
5
5
5
5
5
5
5
5
5
5
5
5
5
5
5
5
5
5
5
5
5
5
5
5
5
5
5
5
5
5
5
5
5
5
5
5
5
5
5
5
5
5
5
5
5
5
5
5
5
5
5
5
5
5
5
5
5
5
5
5
5
5
5
5
5
5
5
5
5
5
5
5
5
5
5
5
5
5
5
5
5
5
5
5
5
5
5
5
5
5
5
5
5
5
5
5
5
5
5
5
5
5
5
5
5
5
5
5
5
5
5
5
5
5
5
5
5
5
5
5
5
5
5
5
5
5
5
5
5
5
5
5
5
5
5
5
5
5
5
5
5
5
5
5
5
5
5
5
5
5
5
5
5
5
5
5
5
5
5
5
5
5
5
5
5
5
5
5
5
5
5
5
5
5
5
5
5
5
5
5
5
5
5
5
5
5
5
5
5
5
5
5
5
5
5
5
5
5
5
5
5
5
5
5
5
5
5
5
5
5
5
5
5
5
5
5
5
5
5
5
5
5
5
5
5
5
5
5
5
5
5
5
5
5
5
5
5
5
5
5
5
5
5
5
5
5
5
5
5
5
5
5
5
5
5
5
5
5
5
5
5
5
5
5
5
5
5
5
5
5
5
5
5
5
5
5
5
5
5
5
5
5
5
5
5
5
5
5
5
5
5
5
5
5
5
5
5
5
5
5
5
5
5
5
5
5
5
5
5
5
5
5
5
5
5
5
5
5
5
5
5
5
5
5
5
5
5
5
5
5
5
5
5
5
5
5
5
5
5
5
5
5
5
5
5
5
5
5
5
5
5
5
5
5
5
5
5
5
5
5
5
5
5
5
5
5
5
5
5
5
5
5
5
5
5
5
5
5
5
5
5
5
5
5
5
5
5
5
5
5
5
5
5
5
5
5
5
5
5
5
5
5
5
5
5
5
5
5
5
5
5
5
5
5
5
5
5
5
5
5
5
5
5
5
5
5
5
5
5
5
5
5
5
5
5
5
5
5
5
5
5
5
5
5
5
5
5
5
5
5
5
5
5
5
5
5
5
5
5
5
5
5
5
5
5
5
5
5
5
5
5
5
5
5
5
5
5
5
5
5
5
5
5
5
5
5
5
5
5
5
5
5
5
5
5
5
5
5
5
5
5
5
5
5
5
5
5
5
5
5
5
5
5
5
5
5
5
5
5
5
5
5
5
5
5
5
5
5
5
5
5
5
5
5
5
5
5
5
5
5
5
5
5
5
5
5
5
5
5
5
5
5
5
5
5
5
5
5
5
5
5
5
5
5
5
5
5
5
5
5
5
5
5
5
5
5
5
5
5
5
5
5
5
5
5
5
5
5
5
5
5
5
5
5
5
5
5
5
5
5
5
5
5
5
5
5
5
5
5
5
5
5
5
5
5
5
5
5
5
5
5
5
5
5
5
5
5
5
5
5
5
5
5
5
5
5
5
5
5
5
5
5
5
5
5
5
5
5
5
5
5
5
5
5
5
5
5
5
5
5
5
5
5
5
5
5
5
5
5
5
5
5
5
5
5
5
5
5
5
5
5
5
5
5
5
5
5
5
5
5
5
5
5
5
5
5
5
5
5
5
5
5
5
5
5
5
5
5
5
5
5
5
5
5
5
5
5
5
5
5
5
5
5
5
5
5
5
5
5
5
5
5
5
5
5
5
5
5
5
5
5
5
5
5
5
5
5
5
5
5
5
5
5
5
5
5
5
5
5
5
5
5
5
5
5
5
5
5
5
5
5
5
5
5
5
5
5
5
5
5
5
5
5
5
5
5
5
5
5
5
5
5
5
5
5
5
5
5
5
5
5
5
5
5
5
5
5
5
5
5
5
5
5
5
5
5
5
5
5
5
5
5
5
5
5
5
5
5
5
5
5
5
5
5
5
5
5
5
5
5
5
5
5
5
5
5
5
5
5
5
5
5
5
5
5
5
5
5
5
5
5
5
5
5
5
5
5
5
5
5
5
5
5
5
5
5
5
5
5
5
5
5
5
5
5
5
5
5
5
5
5
5
5
5
5
5
5
5
5
5
5
5
5
5
5
5
5
5
5
5
5
5
5
5
5
5
5
5
5
5
5
5
5
5
5
5
5
5
5
5
5
5
5
5
5
5
5
5
5
5
5
5
5
5
5
5
5
5
5
5
5
5
5
5
5
5
5
5
5
5
5
5
5
5
5
5
5
5
5
5
5
5
5
5
5
5
5
5
5
5
5
5
5
5
5
5
5
5
5
5
5
5
5
5
5
5
5
5
5
5
5
5
5
5
5
5
5
5
5
5
5
5
5
5
5
5
5
5
5
5
5
5
5
5
5
5
5
5
5
5
5
5
5
5
5
5
5
5
5
5
5
5
5
5
5
5
5
5
5
5
5
5
5
5
5
5
5
5
5
5
5
5
5
5
5
5
5
5
5
5
5
5
5
5
5
5
5
5
5
5
5
5
5
5
5
5
5
5
5
5
5
5
5
5
5
5
5
5
5
5
5
5
5
5
5
5
5
5
5
5
5
5
5
5
5
5
5
5
5
5
5
5
5
5
5
5
5
5
5
5
5
5
5
5
5
5
5
5
5
5
5
5
5
5
5
5
5
5
5
5
5
5
5
5
5
5
5
5
5
5
5
5
5
5
5
5
5
5
5
5
5
5
5
5
5
5
5
5
5
5
5
5
5
5
5
5
5
5
5
5
5
5
5
5
5
5
5
5
5
5
5
5
5
5
5
5
5
5
5
5
5
5
5
5
5
5
5
5
5
5
5
5
5
5
5
5
5
5
5
5
5
5
5
5
5
5
5
5
5
5
5
5
5
5
5
5
5
5
5
5
5
5
5
5
5
5
5
5
5
5
5
5
5
5
5
5
5
5
5
5
5
5
5
5
5
5
5
5
5
5
5
5
5
5
5
5
5
5
5
5
5
5
5
5
5
5
5
5
5
5
5
5
5
5
5
5
5
5
5
5
5
5
5
5
5
5
5
5
5
5
5
5
5
5
5
5
5
5
5
5
5
5
5
5
5
5
5
5
5
5
5
5
5
5
5
5
5
5
5
5
5
5
5
5
5
5
5
5
5
5
5
5
5
5
5
5
5
5
5
5
5
5
5
5
5
5
5
5
5
5
5
5
5
5
5
5
5
5
5
5
5
5
5
5
5
5
5
5
5
5
5
5
5
5
5
5
5
5
5
5
5
5
5
5
5
5
5
5
5
5
5
5
5
5
5
5
5
5
5
5
5
5
5
5
5
5
5
5
5
5
5
5
5
5
5
5
5
5
5
5
5
5
5
5
5
5
5
5
5
5
5
5
5
5
5
5
5
5
5
5
5
5
5
5
5
5
5
5
5
5
5
5
5
5
5
5
5
5
5
5
5
5
5
5
5
5
5
5
5
5
5
5
5
5
5
5
5
5
5
5
5
5
5
5
5
5
5
5
5
5
5
5
5
5
5
5
5
5
5
5
5
5
5
5
5
5
5
5
5
5
5
5
5
5
5
5
5
5
5
5
5
5
5
5
5
5
5
5
5
5
5
5
5
5
5
5
5
5
5
5
5
5
5
5
5
5
5
5
5
5
5
5
5
5
5
5
5
5
5
5
5
5
5
5
5
5
5
5
5
5
5
5
5
5
5
5
5
5
5
5
5
5
5
5
5
5
5
5
5
5
5
5
5
5
5
5
5
5
5
5
5
5
5
5
5
5
5
5
5
5
5
5
5
5
5
5
5
5
5
5
5
5
5
5
5
5
5
5
5
5
5
5
5
5
5
5
5
5
5
5
5
5
5
5
5
5
5
5
5
5
5
5
5
5
5
5
5
5
5
5
5
5
5
5
5
5
5
5
5
5
5
5
5
5
5
5
5
5
5
5
5
5
5
5
5
5
5
5
5
5
5
5
5
5
5
5
5
5
5
5
5
5
5
5
5
5
5
5
5
5
5
5
5
5
5
5
5
5
5
5
5
5
5
5
5
5
5
5
5
5
5
5
5
5
5
5
5
5
5
5
5
5
5
5
5
5
5
5
5
5
5
5
5
5
5
5
5
5
5
5
5
5
5
5
5
5
5
5
5
5
5
5
5
5
5
5
5
5
5
5
5
5
5
5
5
5
5
5
5
5
5
5
5
5
5
5
5
5
5
5
5
5
5
5
5
5
5
5
5
5
5
5
5
5
5
5
5
5
5
5
5
5
5
5
5
5
5
5
5
5
5
5
5
5
5
5
5
5
5
5
5
5
5
5
5
5
5
5
5
5
5
5
5
5
5
5
5
5
5
5
5
5
5
5
5
5
5
5
5
5
5
5
5
5
5
5
5
5
5
5
5
5
5
5
5
5
5
5
5
5
5
5
5
5
5
5
5
5
5
5
5
5
5
5
5
5
5
5
5
5
5
5
5
5
5
5
5
5
5
5
5
5
5
5
5
5
5
5
5
5
5
5
5
5
5
5
5
5
5
5
5
5
5
5
5
5
5
5
5
5
5
5
5
5
5
5
5
5
5
5
5
5
5
5
5
5
5
5
5
5
5
5
5
5
5
5
5
5
5
5
5
5
5
5
5
5
5
5
5
5
5
5
5
5
5
5
5
5
5
5
5
5
5
5
5
5
5
5
5
5
5
5
5
5
5
5
5
5
5
5
5
5
5
5
5
5
5
5
5
5
5
5
5
5
5
5
5
5
5
5
5
5
5
5
5
5
5
5
5
5
5
5
5
5
5
5
5
5
5
5
5
5
5
5
5
5
5
5
5
5
5
5
5
5
5
5
5
5
5
5
5
5
5
5
5
5
5
5
5
5
5
5
5
5
5
5
5
5
5
5
5
5
5
5
5
5
5
5
5
5
5
5
5
5
5
5
5
5
5
5
5
5
5
5
5
5
5
5
5
5
5
5
5
5
5
5
5
5
5
5
5
5
5
5
5
5
5
5
5
5
5
5
5
5
5
5
5
5
5
5
5
5
5
5
5
5
5
5
5
5
5
5
5
5
5
5
5
5
5
5
5
5
5
5
5
5
5
5
5
5
5
5
5
5
5
5
5
5
5
5
5
5
5
5
5
5
5
5
5
5
5
5
5
5
5
5
5
5
5
5
5
5
5
5
5
5
5
5
5
5
5
5
5
5
5
5
5
5
5
5
5
5
5
5
5
5
5
5
5
5
5
5
5
5
5
5
5
5
5
5
5
5
5
5
5
5
5
5
5
5
5
5
5
5
5
5
5
5
5
5
5
5
5
5
5
5
5
5
5
5
5
5
5
5
5
5
5
5
5
5
5
5
5
5
5
5
5
5
5
5
5
5
5
5
5
5
5
5
5
5
5
5
5
5
5
5
5
5
5
5
5
5
5
5
5
5
5
5
5
5
5
5
5
5
5
5
5
5
5
5
5
5
5
5
5
5
5
5
5
5
5
5
5
5
5
5
5
5
5
5
5
5
5
5
5
5
5
5
5
5
5
5
5
5
5
5
5
5
5
5
5
5
5
5
5
5
5
5
5
5
5
5
5
5
5
5
5
5
5
5
5
5
5
5
5
5
5
5
5
5
5
5
5
5
5
5
5
5
5
5
5
5
5
5
5
5
5
5
5
5
5
5
5
5
5
5
5
5
5
5
5
5
5
5
5
5
5
5
5
5
5
5
5
5
5
5
5
5
5
5
5
5
5
5
5
5
5
5
5
5
5
5
5
5
5
5
5
5
5
5
5
5
5
5
5
5
5
5
5
5
5
5
5
5
5
5
5
5
5
5
5
5
5
5
5
5
5
5
5
5
5
5
5
5
5
5
5
5
5
5
5
5
5
5
5
5
5
5
5
5
5
5
5
5
5
5
5
5
5
5
5
5
5
5
5
5
5
5
5
5
5
5
5
5
5
5
5
5
5
5
5
5
5
5
5
5
5
5
5
5
5
5
5
5
5
5
5
5
5
5
5
5
5
5
5
5
5
5
5
5
5
5
5
5
5
5
5
5
5
5
5
5
5
5
5
5
5
5
5
5
5
5
5
5
5
5
5
5
5
5
5
5
5
5
5
5
5
5
5
5
5
5
5
5
5
5
5
5
5
5
5
5
5
5
5
5
5
5
5
5
5
5
5
5
5
5
5
5
5
5
5
5
5
5
5
5
5
5
5
5
5
5
5
5
5
5
5
5
5
5
5
5
5
5
5
5
5
5
5
5
5
5
5
5
5
5
5
5
5
5
5
5
5
5
5
5
5
5
5
5
5
5
5
5
5
5
5
5
5
5
5
5
5
5
5
5
5
5
5
5
5
5
5
5
5
5
5
5
5
5
5
5
5
5
5
5
5
5
5
5
5
5
5
5
5
5
5
5
5
5
5
5
5
5
5
5
5
5
5
5
5
5
5
5
5
5
5
5
5
5
5
5
5
5
5
5
5
5
5
5
5
5
5
5
5
5
5
5
5
5
5
5
5
5
5
5
5
5
5
5
5
5
5
5
5
5
5
5
5
5
5
5
5
5
5
5
5
5
5
5
5
5
5
5
5
5
5
5
5
5
5
5
5
5
5
5
5
5
5
5
5
5
5
5
5
5
5
5
5
5
5
5
5
5
5
5
5
5
5
5
5
5
5
5
5
5
5
5
5
5
5
5
5
5
5
5
5
5
5
5
5
5
5
5
5
5
5
5
5
5
5
5
5
5
5
5
5
5
5
5
5
5
5
5
5
5
5
5
5
5
5
5
5
5
5
5
5
5
5
5
5
5
5
5
5
5
5
5
5
5
5
5
5
5
5
5
5
5
5
5
5
5
5
5
5
5
5
5
5
5
5
5
5
5
5
5
5
5
5
5
5
5
5
5
5
5
5
5
5
5
5
5
5
5
5
5
5
5
5
5
5
5
5
5
5
5
5
5
5
5
5
5
5
5
5
5
5
5
5
5
5
5
5
5
5
5
5
5
5
5
5
5
5
5
5
5
5
5
5
5
5
5
5
5
5
5
5
5
5
5
5
5
5
5
5
5
5
5
5
5
5
5
5
5
5
5
5
5
5
5
5
5
5
5
5
5
5
5
5
5
5
5
5
5
5
5
5
5
5
5
5
5
5
5
5
5
5
5
5
5
5
5
5
5
5
5
5
5
5
5
5
5
5
5
5
5
5
5
5
5
5
5
5
5
5
5
5
5
5
5
5
5
5
5
5
5
5
5
5
5
5
5
5
5
5
5
5
5
5
5
5
5
5
5
5
5
5
5
5
5
5
5
5
5
5
5
5
5
5
5
5
5
5
5
5
5
5
5
5
5
5
5
5
5
5
5
5
5
5
5
5
5
5
5
5
5
5
5
5
5
5
5
5
5
5
5
5
5
5
5
5
5
5
5
5
5
5
5
5
5
5
5
5
5
5
5
5
5
5
5
5
5
5
5
5
5
5
5
5
5
5
5
5
5
5
5
5
5
5
5
5
5
5
5
5
5
5
5
5
5
5
5
5
5
5
5
5
5
5
5
5
5
5
5
5
5
5
5
5
5
5
5
5
5
5
5
5
5
5
5
5
5
5
5
5
5
5
5
5
5
5
5
5
5
5
5
5
5
5
5
5
5
5
5
5
5
5
5
5
5
5
5
5
5
5
5
5
5
5
5
5
5
5
5
5
5
5
5
5
5
5
5
5
5
5
5
5
5
5
5
5
5
5
5
5
5
5
5
5
5
5
5
5
5
5
5
5
5
5
5
5
5
5
5
5
5
5
5
5
5
5
5
5
5
5
5
5
5
5
5
5
5
5
5
5
5
5
5
5
5
5
5
5
5
5
5
5
5
5
5
5
5
5
5
5
5
5
5
5
5
5
5
5
5
5
5
5
5
5
5
5
5
5
5
5
5
5
5
5
5
5
5
5
5
5
5
5
5
5
5
5
5
5
5
5
5
5
5
5
5
5
5
5
5
5
5
5
5
5
5
5
5
5
5
5
5
5
5
5
5
5
5
5
5
5
5
5
5
5
5
5
5
5
5
5
5
5
5
5
5
5
5
5
5
5
5
5
5
5
5
5
5
5
5
5
5
5
5
5
5
5
5
5
5
5
5
5
5
5
5
5
5
5
5
5
5
5
5
5
5
5
5
5
5
5
5
5
5
5
5
5
5
5
5
5
5
5
5
5
5
5
5
5
5
5
5
5
5
5
5
5
5
5
5
5
5
5
5
5
5
5
5
5
5
5
5
5
5
5
5
5
5
5
5
5
5
5
5
5
5
5
5
5
5
5
5
5
5
5
5
5
5
5
5
5
5
5
5
5
5
5
5
5
5
5
5
5
5
5
5
5
5
5
5
5
5
5
5
5
5
5
5
5
5
5
5
5
5
5
5
5
5
5
5
5
5
5
5
5
5
5
5
5
5
5
5
5
5
5
5
5
5
5
5
5
5
5
5
5
5
5
5
5
5
5
5
5
5
5
5
5
5
5
5
5
5
5
5
5
5
5
5
5
5
5
5
5
5
5
5
5
5
5
5
5
5
5
5
5
5
5
5
5
5
5
5
5
5
5
5
5
5
5
5
5
5
5
5
5
5
5
5
5
5
5
5
5
5
5
5
5
5
5
5
5
5
5
5
5
5
5
5
5
5
5
5
5
5
5
5
5
5
5
5
5
5
5
5
5
5
5
5
5
5
5
5
5
5
5
5
5
5
5
5
5
5
5
5
5
5
5
5
5
5
5
5
5
5
5
5
5
5
5
5
5
5
5
5
5
5
5
5
5
5
5
5
5
5
5
5
5
5
5
5
5
5
5
5
5
5
5
5
5
5
5
5
5
5
5
5
5
5
5
5
5
5
5
5
5
5
5
5
5
5
5
5
5
5
5
5
5
5
5
5
5
5
5
5
5
5
5
5
5
5
5
5
5
5
5
5
5
5
5
5
5
5
5
5
5
5
5
5
5
5
5
5
5
5
5
5
5
5
5
5
5
5
5
5
5
5
5
5
5
5
5
5
5
5
5
5
5
5
5
5
5
5
5
5
5
5
5
5
5
5
5
5
5
5
5
5
5
5
5
5
5
5
5
5
5
5
5
5
5
5
5
5
5
5
5
5
5
5
5
5
5
5
5
5
5
5
5
5
5
5
5
5
5
5
5
5
5
5
5
5
5
5
5
5
5
5
5
5
5
5
5
5
5
5
5
5
5
5
5
5
5
5
5
5
5
5
5
5
5
5
5
5
5
5
5
5
5
5
5
5
5
5
5
5
5
5
5
5
5
5
5
5
5
5
5
5
5
5
5
5
5
5
5
5
5
5
5
5
5
5
5
5
5
5
5
5
5
5
5
5
5
5
5
5
5
5
5
5
5
5
5
5
5
5
5
5
5
5
5
5
5
5
5
5
5
5
5
5
5
5
5
5
5
5
5
5
5
5
5
5
5
5
5
5
5
5
5
5
5
5
5
5
5
5
5
5
5
5
5
5
5
5
5
5
5
5
5
5
5
5
5
5
5
5
5
5
5
5
5
5
5
5
5
5
5
5
5
5
5
5
5
5
5
5
5
5
5
5
5
5
5
5
5
5
5
5
5
5
5
5
5
5
5
5
5
5
5
5
5
5
5
5
5
5
5
5
5
5
5
5
5
5
5
5
5
5
5
5
5
5
5
5
5
5
5
5
5
5
5
5
5
5
5
5
5
5
5
5
5
5
5
5
5
5
5
5
5
5
5
5
5
5
5
5
5
5
5
5
5
5
5
5
5
5
5
5
5
5
5
5
5
5
5
5
5
5
5
5
5
5
5
5
5
5
5
5
5
5
5
5
5
5
5
5
5
5
5
5
5
5
5
5
5
5
5
5
5
5
5
5
5
5
5
5
5
5
5
5
5
5
5
5
5
5
5
5
5
5
5
5
5
5
5
5
5
5
5
5
5
5
5
5
5
5
5
5
5
5
5
5
5
5
5
5
5
5
5
5
5
5
5
5
5
5
5
5
5
5
5
5
5
5
5
5
5
5
5
5
5
5
5
5
5
5
5
5
5
5
5
5
5
5
5
5
5
5
5
5
5
5
5
5
5
5
5
5
5
5
5
5
5
5
5
5
5
5
5
5
5
5
5
5
5
5
5
5
5
5
5
5
5
5
5
5
5
5
5
5
5
5
5
5
5
5
5
5
5
5
5
5
5
5
5
5
5
5
5
5
5
5
5
5
5
5
5
5
5
5
5
5
5
5
5
5
5
5
5
5
5
5
5
5
5
5
5
5
5
5
5
5
5
5
5
5
5
5
5
5
5
5
5
5
5
5
5
5
5
5
5
5
5
5
5
5
5
5
5
5
5
5
5
5
5
5
5
5
5
5
5
5
5
5
5
5
5
5
5
5
5
5
5
5
5
5
5
5
5
5
5
5
5
5
5
5
5
5
5
5
5
5
5
5
5
5
5
5
5
5
5
5
5
5
5
5
5
5
5
5
5
5
5
5
5
5
5
5
5
5
5
5
5
5
5
5
5
5
5
5
5
5
5
5
5
5
5
5
5
5
5
5
5
5
5
5
5
5
5
5
5
5
5
5
5
5
5
5
5
5
5
5
5
5
5
5
5
5
5
5
5
5
5
5
5
5
5
5
5
5
5
5
5
5
5
5
5
5
5
5
5
5
5
5
5
5
5
5
5
5
5
5
5
5
5
5
5
5
5
5
5
5
5
5
5
5
5
5
5
5
5
5
5
5
5
5
5
5
5
5
5
5
5
5
5
5
5
5
5
5
5
5
5
5
5
5
5
5
5
5
5
5
5
5
5
5
5
5
5
5
5
5
5
5
5
5
5
5
5
5
5
5
5
5
5
5
5
5
5
5
5
5
5
5
5
5
5
5
5
5
5
5
5
5
5
5
5
5
5
5
5
5
5
5
5
5
5
5
5
5
5
5
5
5
5
5
5
5
5
5
5
5
5
5
5
5
5
5
5
5
5
5
5
5
5
5
5
5
5
5
5
5
5
5
5
5
5
5
5
5
5
5
5
5
5
5
5
5
5
5
5
5
5
5
5
5
5
5
5
5
5
5
5
5
5
5
5
5
5
5
5
5
5
5
5
5
5
5
5
5
5
5
5
5
5
5
5
5
5
5
5
5
5
5
5
5
5
5
5
5
5
5
5
5
5
5
5
5
5
5
5
5
5
5
5
5
5
5
5
5
5
5
5
5
5
5
5
5
5
5
5
5
5
5
5
5
5
5
5
5
5
5
5
5
5
5
5
5
5
5
5
5
5
5
5
5
5
5
5
5
5
5
5
5
5
5
5
5
5
5
5
5
5
5
5
5
5
5
5
5
5
5
5
5
5
5
5
5
5
5
5
5
5
5
5
5
5
5
5
5
5
5
5
5
5
5
5
5
5
5
5
5
5
5
5
5
5
5
5
5
5
5
5
5
5
5
5
5
5
5
5
5
5
5
5
5
5
5
5
5
5
5
5
5
5
5
5
5
5
5
5
5
5
5
5
5
5
5
5
5
5
5
5
5
5
5
5
5
5
5
5
5
5
5
5
5
5
5
5
5
5
5
5
5
5
5
5
5
5
5
5
5
5
5
5
5
5
5
5
5
5
5
5
5
5
5
5
5
5
5
5
5
5
5
5
5
5
5
5
5
5
5
5
5
5
5
5
5
5
5
5
5
5
5
5
5
5
5
5
5
5
5
5
5
5
5
5
5
5
5
5
5
5
5
5
5
5
5
5
5
5
5
5
5
5
5
5
5
5
5
5
5
5
5
5
5
5
5
5
5
5
5
5
5
5
5
5
5
5
5
5
5
5
5
5
5
5
5
5
5
5
5
5
5
5
5
5
5
5
5
5
5
5
5
5
5
5
5
5
5
5
5
5
5
5
5
5
5
5
5
5
5
5
5
5
5
5
5
5
5
5
5
5
5
5
5
5
5
5
5
5
5
5
5
5
5
5
5
5
5
5
5
5
5
5
5
5
5
5
5
5
5
5
5
5
5
5
5
5
5
5
5
5
5
5
5
5
5
5
5
5
5
5
5
5
5
5
5
5
5
5
5
5
5
5
5
5
5
5
5
5
5
5
5
5
5
5
5
5
5
5
5
5
5
5
5
5
5
5
5
5
5
5
5
5
5
5
5
5
5
5
5
5
5
5
5
5
5
5
5
5
5
5
5
5
5
5
5
5
5
5
5
5
5
5
5
5
5
5
5
5
5
5
5
5
5
5
5
5
5
5
5
5
5
5
5
5
5
5
5
5
5
5
5
5
5
5
5
5
5
5
5
5
5
5
5
5
5
5
5
5
5
5
5
5
5
5
5
5
5
5
5
5
5
5
5
5
5
5
5
5
5
5
5
5
5
5
5
5
5
5
5
5
5
5
5
5
5
5
5
5
5
5
5
5
5
5
5
5
5
5
5
5
5
5
5
5
5
5
5
5
5
5
5
5
5
5
5
5
5
5
5
5
5
5
5
5
5
5
5
5
5
5
5
5
5
5
5
5
5
5
5
5
5
5
5
5
5
5
5
5
5
5
5
5
5
5
5
5
5
5
5
5
5
5
5
5
5
5
5
5
5
5
5
5
5
5
5
5
5
5
5
5
5
5
5
5
5
5
5
5
5
5
5
5
5
5
5
5
5
5
5
5
5
5
5
5
5
5
5
5
5
5
5
5
5
5
5
5
5
5
5
5
5
5
5
5
5
5
5
5
5
5
5
5
5
5
5
5
5
5
5
5
5
5
5
5
5
5
5
5
5
5
5
5
5
5
5
5
5
5
5
5
5
5
5
5
5
5
5
5
5
5
5
5
5
5
5
5
5
5
5
5
5
5
5
5
5
5
5
5
5
5
5
5
5
5
5
5
5
5
5
5
5
5
5
5
5
5
5
5
5
5
5
5
5
5
5
5
5
5
5
5
5
5
5
5
5
5
5
5
5
5
5
5
5
5
5
5
5
5
5
5
5
5
5
5
5
5
5
5
5
5
5
5
5
5
5
5
5
5
5
5
5
5
5
5
5
5
5
5
5
5
5
5
5
5
5
5
5
5
5
5
5
5
5
5
5
5
5
5
5
5
5
5
5
5
5
5
5
5
5
5
5
5
5
5
5
5
5
5
5
5
5
5
5
5
5
5
5
5
5
5
5
5
5
5
5
5
5
5
5
5
5
5
5
5
5
5
5
5
5
5
5
5
5
5
5
5
5
5
5
5
5
5
5
5
5
5
5
5
5
5
5
5
5
5
5
5
5
5
5
5
5
5
5
5
5
5
5
5
5
5
5
5
5
5
5
5
5
5
5
5
5
5
5
5
5
5
5
5
5
5
5
5
5
5
5
5
5
5
5
5
5
5
5
5
5
5
5
5
5
5
5
5
5
5
5
5
5
5
5
5
5
5
5
5
5
5
5
5
5
5
5
5
5
5
5
5
5
5
5
5
5
5
5
5
5
5
5
5
5
5
5
5
5
5
5
5
5
5
5
5
5
5
5
5
5
5
5
5
5
5
5
5
5
5
5
5
5
5
5
5
5
5
5
5
5
5
5
5
5
5
5
5
5
5
5
5
5
5
5
5
5
5
5
5
5
5
5
5
5
5
5
5
5
5
5
5
5
5
5
5
5
5
5
5
5
5
5
5
5
5
5
5
5
5
5
5
5
5
5
5
5
5
5
5
5
5
5
5
5
5
5
5
5
5
5
5
5
5
5
5
5
5
5
5
5
5
5
5
5
5
5
5
5
5
5
5
5
5
5
5
5
5
5
5
5
5
5
5
5
5
5
5
5
5
5
5
5
5
5
5
5
5
5
5
5
5
5
5
5
5
5
5
5
5
5
5
5
5
5
5
5
5
5
5
5
5
5
5
5
5
5
5
5
5
5
5
5
5
5
5
5
5
5
5
5
5
5
5
5
5
5
5
5
5
5
5
5
5
5
5
5
5
5
5
5
5
5
5
5
5
5
5
5
5
5
5
5
5
5
5
5
5
5
5
5
5
5
5
5
5
5
5
5
5
5
5
5
5
5
5
5
5
5
5
5
5
5
5
5
5
5
5
5
5
5
5
5
5
5
5
5
5
5
5
5
5
5
5
5
5
5
5
5
5
5
5
5
5
5
5
5
5
5
5
5
5
5
5
5
5
5
5
5
5
5
5
5
5
5
5
5
5
5
5
5
5
5
5
5
5
5
5
5
5
5
5
5
5
5
5
5
5
5
5
5
5
5
5
5
5
5
5
5
5
5
5
5
5
5
5
5
5
5
5
5
5
5
5
5
5
5
5
5
5
5
5
5
5
5
5
5
5
5
5
5
5
5
5
5
5
5
5
5
5
5
5
5
5
5
5
5
5
5
5
5
5
5
5
5
5
5
5
5
5
5
5
5
5
5
5
5
5
5
5
5
5
5
5
5
5
5
5
5
5
5
5
5
5
5
5
5
5
5
5
5
5
5
5
5
5
5
5
5
5
5
5
5
5
5
5
5
5
5
5
5
5
5
5
5
5
5
5
5
5
5
5
5
5
5
5
5
5
5
5
5
5
5
5
5
5
5
5
5
5
5
5
5
5
5
5
5
5
5
5
5
5
5
5
5
5
5
5
5
5
5
5
5
5
5
5
5
5
5
5
5
5
5
5
5
5
5
5
5
5
5
5
5
5
5
5
5
5
5
5
5
5
5
5
5
5
5
5
5
5
5
5
5
5
5
5
5
5
5
5
5
5
5
5
5
5
5
5
5
5
5
5
5
5
5
5
5
5
5
5
5
5
5
5
5
5
5
5
5
5
5
5
5
5
5
5
5
5
5
5
5
5
5
5
5
5
5
5
5
5
5
5
5
5
5
5
5
5
5
5
5
5
5
5
5
5
5
5
5
5
5
5
5
5
5
5
5
5
5
5
5
5
5
5
5
5
5
5
5
5
5
5
5
5
5
5
5
5
5
5
5
5
5
5
5
5
5
5
5
5
5
5
5
5
5
5
5
5
5
5
5
5
5
5
5
5
5
5
5
5
5
5
5
5
5
5
5
5
5
5
5
5
5
5
5
5
5
5
5
5
5
5
5
5
5
5
5
5
5
5
5
5
5
5
5
5
5
5
5
5
5
5
5
5
5
5
5
5
5
5
5
5
5
5
5
5
5
5
5
5
5
5
5
5
5
5
5
5
5
5
5
5
5
5
5
5
5
5
5
5
5
5
5
5
5
5
5
5
5
5
5
5
5
5
5
5
5
5
5
5
5
5
5
5
5
5
5
5
5
5
5
5
5
5
5
5
5
5
5
5
5
5
5
5
5
5
5
5
5
5
5
5
5
5
5
5
5
5
5
5
5
5
5
5
5
5
5
5
5
5
5
5
5
5
5
5
5
5
5
5
5
5
5
5
5
5
5
5
5
5
5
5
5
5
5
5
5
5
5
5
5
5
5
5
5
5
5
5
5
5
5
5
5
5
5
5
5
5
5
5
5
5
5
5
5
5
5
5
5
5
5
5
5
5
5
5
5
5
5
5
5
5
5
5
5
5
5
5
5
5
5
5
5
5
5
5
5
5
5
5
5
5
5
5
5
5
5
5
5
5
5
5
5
5
5
5
5
5
5
5
5
5
5
5
5
5
5
5
5
5
5
5
5
5
5
5
5
5
5
5
5
5
5
5
5
5
5
5
5
5
5
5
5
5
5
5
5
5
5
5
5
5
5
5
5
5
5
5
5
5
5
5
5
5
5
5
5
5
5
5
5
5
5
5
5
5
5
5
5
5
5
5
5
5
5
5
5
5
5
5
5
5
5
5
5
5
5
5
5
5
5
5
5
5
5
5
5
5
5
5
5
5
5
5
5
5
5
5
5
5
5
5
5
5
5
5
5
5
5
5
5
5
5
5
5
5
5
5
5
5
5
5
5
5
5
5
5
5
5
5
5
5
5
5
5
5
5
5
5
5
5
5
5
5
5
5
5
5
5
5
5
5
5
5
5
5
5
5
5
5
5
5
5
5
5
5
5
5
5
5
5
5
5
5
5
5
5
5
5
5
5
5
5
5
5
5
5
5
5
5
5
5
5
5
5
5
5
5
5
5
5
5
5
5
5
5
5
5
5
5
5
5
5
5
5
5
5
5
5
5
5
5
5
5
5
5
5
5
5
5
5
5
5
5
5
5
5
5
5
5
5
5
5
5
5
5
5
5
5
5
5
5
5
5
5
5
5
5
5
5
5
5
5
5
5
5
5
5
5
5
5
5
5
5
5
5
5
5
5
5
5
5
5
5
5
5
5
5
5
5
5
5
5
5
5
5
5
5
5
5
5
5
5
5
5
5
5
5
5
5
5
5
5
5
5
5
5
5
5
5
5
5
5
5
5
5
5
5
5
5
5
5
5
5
5
5
5
5
5
5
5
5
5
5
5
5
5
5
5
5
5
5
5
5
5
5
5
5
5
5
5
5
5
5
5
5
5
5
5
5
5
5
5
5
5
5
5
5
5
5
5
5
5
5
5
5
5
5
5
5
5
5
5
5
5
5
5
5
5
5
5
5
5
5
5
5
5
5
5
5
5
5
5
5
5
5
5
5
5
5
5
5
5
5
5
5
5
5
5
5
5
5
5
5
5
5
5
5
5
5
5
5
5
5
5
5
5
5
5
5
5
5
5
5
5
5
5
5
5
5
5
5
5
5
5
5
5
5
5
5
5
5
5
5
5
5
5
5
5
5
5
5
5
5
5
5
5
5
5
5
5
5
5
5
5
5
5
5
5
5
5
5
5
5
5
5
5
5
5
5
5
5
5
5
5
5
5
5
5
5
5
5
5
5
5
5
5
5
5
5
5
5
5
5
5
5
5
5
5
5
5
5
5
5
5
5
5
5
5
5
5
5
5
5
5
5
5
5
5
5
5
5
5
5
5
5
5
5
5
5
5
5
5
5
5
5
5
5
5
5
5
5
5
5
5
5
5
5
5
5
5
5
5
5
5
5
5
5
5
5
5
5
5
5
5
5
5
5
5
5
5
5
5
5
5
5
5
5
5
5
5
5
5
5
5
5
5
5
5
5
5
5
5
5
5
5
5
5
5
5
5
5
5
5
5
5
5
5
5
5
5
5
5
5
5
5
5
5
5
5
5
5
5
5
5
5
5
5
5
5
5
5
5
5
5
5
5
5
5
5
5
5
5
5
5
5
5
5
5
5
5
5
5
5
5
5
5
5
5
5
5
5
5
5
5
5
5
5
5
5
5
5
5
5
5
5
5
5
5
5
5
5
5
5
5
5
5
5
5
5
5
5
5
5
5
5
5
5
5
5
5
5
5
5
5
5
5
5
5
5
5
5
5
5
5
5
5
5
5
5
5
5
5
5
5
5
5
5
5
5
5
5
5
5
5
5
5
5
5
5
5
5
5
5
5
5
5
5
5
5
5
5
5
5
5
5
5
5
5
5
5
5
5
5
5
5
5
5
5
5
5
5
5
5
5
5
5
5
5
5
5
5
5
5
5
5
5
5
5
5
5
5
5
5
5
5
5
5
5
5
5
5
5
5
5
5
5
5
5
5
5
5
5
5
5
5
5
5
5
5
5
5
5
5
5
5
5
5
5
5
5
5
5
5
5
5
5
5
5
5
5
5
5
5
5
5
5
5
5
5
5
5
5
5
5
5
5
5
5
5
5
5
5
5
5
5
5
5
5
5
5
5
5
5
5
5
5
5
5
5
5
5
5
5
5
5
5
5
5
5
5
5
5
5
5
5
5
5
5
5
5
5
5
5
5
5
5
5
5
5
5
5
5
5
5
5
5
5
5
5
5
5
5
5
5
5
5
5
5
5
5
5
5
5
5
5
5
5
5
5
5
5
5
5
5
5
5
5
5
5
5
5
5
5
5
5
5
5
5
5
5
5
5
5
5
5
5
5
5
5
5
5
5
5
5
5
5
5
5
5
5
5
5
5
5
5
5
5
5
5
5
5
5
5
5
5
5
5
5
5
5
5
5
5
5
5
5
5
5
5
5
5
5
5
5
5
5
5
5
5
5
5
5
5
5
5
5
5
5
5
5
5
5
5
5
5
5
5
5
5
5
5
5
5
5
5
5
5
5
5
5
5
5
5
5
5
5
5
5
5
5
5
5
5
5
5
5
5
5
5
5
5
5
5
5
5
5
5
5
5
5
5
5
5
5
5
5
5
5
5
5
5
5
5
5
5
5
5
5
5
5
5
5
5
5
5
5
5
5
5
5
5
5
5
5
5
5
5
5
5
5
5
5
5
5
5
5
5
5
5
5
5
5
5
5
5
5
5
5
5
5
5
5
5
5
5
5
5
5
5
5
5
5
5
5
5
5
5
5
5
5
5
5
5
5
5
5
5
5
5
5
5
5
5
5
5
5
5
5
5
5
5
5
5
5
5
5
5
5
5
5
5
5
5
5
5
5
5
5
5
5
5
5
5
5
5
5
5
5
5
5
5
5
5
5
5
5
5
5
5
5
5
5
5
5
5
5
5
5
5
5
5
5
5
5
5
5
5
5
5
5
5
5
5
5
5
5
5
5
5
5
5
5
5
5
5
5
5
5
5
5
5
5
5
5
5
5
5
5
5
5
5
5
5
5
5
5
5
5
5
5
5
5
5
5
5
5
5
5
5
5
5
5
5
5
5
5
5
5
5
5
5
5
5
5
5
5
5
5
5
5
5
5
5
5
5
5
5
5
5
5
5
5
5
5
5
5
5
5
5
5
5
5
5
5
5
5
5
5
5
5
5
5
5
5
5
5
5
5
5
5
5
5
5
5
5
5
5
5
5
5
5
5
5
5
5
5
5
5
5
5
5
5
5
5
5
5
5
5
5
5
5
5
5
5
5
5
5
5
5
5
5
5
5
5
5
5
5
5
5
5
5
5
5
5
5
5
5
5
5
5
5
5
5
5
5
5
5
5
5
5
5
5
5
5
5
5
5
5
5
5
5
5
5
5
5
5
5
5
5
5
5
5
5
5
5
5
5
5
5
5
5
5
5
5
5
5
5
5
5
5
5
5
5
5
5
5
5
5
5
5
5
5
5
5
5
5
5
5
5
5
5
5
5
5
5
5
5
5
5
5
5
5
5
5
5
5
5
5
5
5
5
5
5
5
5
5
5
5
5
5
5
5
5
5
5
5
5
5
5
5
5
5
5
5
5
5
5
5
5
5
5
5
5
5
5
5
5
5
5
5
5
5
5
5
5
5
5
5
5
5
5
5
5
5
5
5
5
5
5
5
5
5
5
5
5
5
5
5
5
5
5
5
5
5
5
5
5
5
5
5
5
5
5
5
5
5
5
5
5
5
5
5
5
5
5
5
5
5
5
5
5
5
5
5
5
5
5
5
5
5
5
5
5
5
5
5
5
5
5
5
5
5
5
5
5
5
5
5
5
5
5
5
5
5
5
5
5
5
5
5
5
5
5
5
5
5
5
5
5
5
5
5
5
5
5
5
5
5
5
5
5
5
5
5
5
5
5
5
5
5
5
5
5
5
5
5
5
5
5
5
5
5
5
5
5
5
5
5
5
5
5
5
5
5
5
5
5
5
5
5
5
5
5
5
5
5
5
5
5
5
5
5
5
5
5
5
5
5
5
5
5
5
5
5
5
5
5
5
5
5
5
5
5
5
5
5
5
5
5
5
5
5
5
5
5
5
5
5
5
5
5
5
5
5
5
5
5
5
5
5
5
5
5
5
5
5
5
5
5
5
5
5
5
5
5
5
5
5
5
5
5
5
5
5
5
5
5
5
5
5
5
5
5
5
5
5
5
5
5
5
5
5
5
5
5
5
5
5
5
5
5
5
5
5
5
5
5
5
5
5
5
5
5
5
5
5
5
5
5
5
5
5
5
5
5
5
5
5
5
5
5
5
5
5
5
5
5
5
5
5
5
5
5
5
5
5
5
5
5
5
5
5
5
5
5
5
5
5
5
5
5
5
5
5
5
5
5
5
5
5
5
5
5
5
5
5
5
5
5
5
5
5
5
5
5
5
5
5
5
5
5
5
5
5
5
5
5
5
5
5
5
5
5
5
5
5
5
5
5
5
5
5
5
5
5
5
5
5
5
5
5
5
5
5
5
5
5
5
5
5
5
5
5
5
5
5
5
5
5
5
5
5
5
5
5
5
5
5
5
5
5
5
5
5
5
5
5
5
5
5
5
5
5
5
5
5
5
5
5
5
5
5
5
5
5
5
5
5
5
5
5
5
5
5
5
5
5
5
5
5
5
5
5
5
5
5
5
5
5
5
5
5
5
5
5
5
5
5
5
5
5
5
5
5
5
5
5
5
5
5
5
5
5
5
5
5
5
5
5
5
5
5
5
5
5
5
5
5
5
5
5
5
5
5
5
5
5
5
5
5
5
5
5
5
5
5
5
5
5
5
5
5
5
5
5
5
5
5
5
5
5
5
5
5
5
5
5
5
5
5
5
5
5
5
5
5
5
5
5
5
5
5
5
5
5
5
5
5
5
5
5
5
5
5
5
5
5
5
5
5
5
5
5
5
5
5
5
5
5
5
5
5
5
5
5
5
5
5
5
5
5
5
5
5
5
5
5
5
5
5
5
5
5
5
5
5
5
5
5
5
5
5
5
5
5
5
5
5
5
5
5
5
5
5
5
5
5
5
5
5
5
5
5
5
5
5
5
5
5
5
5
5
5
5
5
5
5
5
5
5
5
5
5
5
5
5
5
5
5
5
5
5
5
5
5
5
5
5
5
5
5
5
5
5
5
5
5
5
5
5
5
5
5
5
5
5
5
5
5
5
5
5
5
5
5
5
5
5
5
5
5
5
5
5
5
5
5
5
5
5
5
5
5
5
5
5
5
5
5
5
5
5
5
5
5
5
5
5
5
5
5
5
5
5
5
5
5
5
5
5
5
5
5
5
5
5
5
5
5
5
5
5
5
5
5
5
5
5
5
5
5
5
5
5
5
5
5
5
5
5
5
5
5
5
5
5
5
5
5
5
5
5
5
5
5
5
5
5
5
5
5
5
5
5
5
5
5
5
5
5
5
5
5
5
5
5
5
5
5
5
5
5
5
5
5
5
5
5
5
5
5
5
5
5
5
5
5
5
5
5
5
5
5
5
5
5
5
5
5
5
5
5
5
5
5
5
5
5
5
5
5
5
5
5
5
5
5
5
5
5
5
5
5
5
5
5
5
5
5
5
5
5
5
5
5
5
5
5
5
5
5
5
5
5
5
5
5
5
5
5
5
5
5
5
5
5
5
5
5
5
5
5
5
5
5
5
5
5
5
5
5
5
5
5
5
5
5
5
5
5
5
5
5
5
5
5
5
5
5
5
5
5
5
5
5
5
5
5
5
5
5
5
5
5
5
5
5
5
5
5
5
5
5
5
5
5
5
5
5
5
5
5
5
5
5
5
5
5
5
5
5
5
5
5
5
5
5
5
5
5
5
5
5
5
5
5
5
5
5
5
5
5
5
5
5
5
5
5
5
5
5
5
5
5
5
5
5
5
5
5
5
5
5
5
5
5
5
5
5
5
5
5
5
5
5
5
5
5
5
5
5
5
5
5
5
5
5
5
5
5
5
5
5
5
5
5
5
5
5
5
5
5
5
5
5
5
5
5
5
5
5
5
5
5
5
5
5
5
5
5
5
5
5
5
5
5
5
5
5
5
5
5
5
5
5
5
5
5
5
5
5
5
5
5
5
5
5
5
5
5
5
5
5
5
5
5
5
5
5
5
5
5
5
5
5
5
5
5
5
5
5
5
5
5
5
5
5
5
5
5
5
5
5
5
5
5
5
5
5
5
5
5
5
5
5
5
5
5
5
5
5
5
5
5
5
5
5
5
5
5
5
5
5
5
5
5
5
5
5
5
5
5
5
5
5
5
5
5
5
5
5
5
5
5
5
5
5
5
5
5
5
5
5
5
5
5
5
5
5
5
5
5
5
5
5
5
5
5
5
5
5
5
5
5
5
5
5
5
5
5
5
5
5
5
5
5
5
5
5
5
5
5
5
5
5
5
5
5
5
5
5
5
5
5
5
5
5
5
5
5
5
5
5
5
5
5
5
5
5
5
5
5
5
5
5
5
5
5
5
5
5
5
5
5
5
5
5
5
5
5
5
5
5
5
5
5
5
5
5
5
5
5
5
5
5
5
5
5
5
5
5
5
5
5
5
5
5
5
5
5
5
5
5
5
5
5
5
5
5
5
5
5
5
5
5
5
5
5
5
5
5
5
5
5
5
5
5
5
5
5
5
5
5
5
5
5
5
5
5
5
5
5
5
5
5
5
5
5
5
5
5
5
5
5
5
5
5
5
5
5
5
5
5
5
5
5
5
5
5
5
5
5
5
5
5
5
5
5
5
5
5
5
5
5
5
5
5
5
5
5
5
5
5
5
5
5
5
5
5
5
5
5
5
5
5
5
5
5
5
5
5
5
5
5
5
5
5
5
5
5
5
5
5
5
5
5
5
5
5
5
5
5
5
5
5
5
5
5
5
5
5
5
5
5
5
5
5
5
5
5
5
5
5
5
5
5
5
5
5
5
5
5
5
5
5
5
5
5
5
5
5
5
5
5
5
5
5
5
5
5
5
5
5
5
5
5
5
5
5
5
5
5
5
5
5
5
5
5
5
5
5
5
5
5
5
5
5
5
5
5
5
5
5
5
5
5
5
5
5
5
5
5
5
5
5
5
5
5
5
5
5
5
5
5
5
5
5
5
5
5
5
5
5
5
5
5
5
5
5
5
5
5
5
5
5
5
5
5
5
5
5
5
5
5
5
5
5
5
5
5
5
5
5
5
5
5
5
5
5
5
5
5
5
5
5
5
5
5
5
5
5
5
5
5
5
5
5
5
5
5
5
5
5
5
5
5
5
5
5
5
5
5
5
5
5
5
5
5
5
5
5
5
5
5
5
5
5
5
5
5
5
5
5
5
5
5
5
5
5
5
5
5
5
5
5
5
5
5
5
5
5
5
5
5
5
5
5
5
5
5
5
5
5
5
5
5
5
5
5
5
5
5
5
5
5
5
5
5
5
5
5
5
5
5
5
5
5
5
5
5
5
5
5
5
5
5
5
5
5
5
5
5
5
5
5
5
5
5
5
5
5
5
5
5
5
5
5
5
5
5
5
5
5
5
5
5
5
5
5
5
5
5
5
5
5
5
5
5
5
5
5
5
5
5
5
5
5
5
5
5
5
5
5
5
5
5
5
5
5
5
5
5
5
5
5
5
5
5
5
5
5
5
5
5
5
5
5
5
5
5
5
5
5
5
5
5
5
5
5
5
5
5
5
5
5
5
5
5
5
5
5
5
5
5
5
5
5
5
5
5
5
5
5
5
5
5
5
5
5
5
5
5
5
5
5
5
5
5
5
5
5
5
5
5
5
5
5
5
5
5
5
5
5
5
5
5
5
5
5
5
5
5
5
5
5
5
5
5
5
5
5
5
5
5
5
5
5
5
5
5
5
5
5
5
5
5
5
5
5
5
5
5
5
5
5
5
5
5
5
5
5
5
5
5
5
5
5
5
5
5
5
5
5
5
5
5
5
5
5
5
5
5
5
5
5
5
5
5
5
5
5
5
5
5
5
5
5
5
5
5
5
5
5
5
5
5
5
5
5
5
5
5
5
5
5
5
5
5
5
5
5
5
5
5
5
5
5
5
5
5
5
5
5
5
5
5
5
5
5
5
5
5
5
5
5
5
5
5
5
5
5
5
5
5
5
5
5
5
5
5
5
5
5
5
5
5
5
5
5
5
5
5
5
5
5
5
5
5
5
5
5
5
5
5
5
5
5
5
5
5
5
5
5
5
5
5
5
5
5
5
5
5
5
5
5
5
5
5
5
5
5
5
5
5
5
5
5
5
5
5
5
5
5
5
5
5
5
5
5
5
5
5
5
5
5
5
5
5
5
5
5
5
5
5
5
5
5
5
5
5
5
5
5
5
5
5
5
5
5
5
5
5
5
5
5
5
5
5
5
5
5
5
5
5
5
5
5
5
5
5
5
5
5
5
5
5
5
5
5
5
5
5
5
5
5
5
5
5
5
5
5
5
5
5
5
5
5
5
5
5
5
5
5
5
5
5
5
5
5
5
5
5
5
5
5
5
5
5
5
5
5
5
5
5
5
5
5
5
5
5
5
5
5
5
5
5
5
5
5
5
5
5
5
5
5
5
5
5
5
5
5
5
5
5
5
5
5
5
5
5
5
5
5
5
5
5
5
5
5
5
5
5
5
5
5
5
5
5
5
5
5
5
5
5
5
5
5
5
5
5
5
5
5
5
5
5
5
5
5
5
5
5
5
5
5
5
5
5
5
5
5
5
5
5
5
5
5
5
5
5
5
5
5
5
5
5
5
5
5
5
5
5
5
5
5
5
5
5
5
5
5
5
5
5
5
5
5
5
5
5
5
5
5
5
5
5
5
5
5
5
5
5
5
5
5
5
5
5
5
5
5
5
5
5
5
5
5
5
5
5
5
5
5
5
5
5
5
5
5
5
5
5
5
5
5
5
5
5
5
5
5
5
5
5
5
5
5
5
5
5
5
5
5
5
5
5
5
5
5
5
5
5
5
5
5
5
5
5
5
5
5
5
5
5
5
5
5
5
5
5
5
5
5
5
5
5
5
5
5
5
5
5
5
5
5
5
5
5
5
5
5
5
5
5
5
5
5
5
5
5
5
5
5
5
5
5
5
5
5
5
5
5
5
5
5
5
5
5
5
5
5
5
5
5
5
5
5
5
5
5
5
5
5
5
5
5
5
5
5
5
5
5
5
5
5
5
5
5
5
5
5
5
5
5
5
5
5
5
5
5
5
5
5
5
5
5
5
5
5
5
5
5
5
5
5
5
5
5
5
5
5
5
5
5
5
5
5
5
5
5
5
5
5
5
5
5
5
5
5
5
5
5
5
5
5
5
5
5
5
5
5
5
5
5
5
5
5
5
5
5
5
5
5
5
5
5
5
5
5
5
5
5
5
5
5
5
5
5
5
5
5
5
5
5
5
5
5
5
5
5
5
5
5
5
5
5
5
5
5
5
5
5
5
5
5
5
5
5
5
5
5
5
5
5
5
5
5
5
5
5
5
5
5
5
5
5
5
5
5
5
5
5
5
5
5
5
5
5
5
5
5
5
5
5
5
5
5
5
5
5
5
5
5
5
5
5
5
5
5
5
5
5
5
5
5
5
5
5
5
5
5
5
5
5
5
5
5
5
5
5
5
5
5
5
5
5
5
5
5
5
5
5
5
5
5
5
5
5
5
5
5
5
5
5
5
5
5
5
5
5
5
5
5
5
5
5
5
5
5
5
5
5
5
5
5
5
5
5
5
5
5
5
5
5
5
5
5
5
5
5
5
5
5
5
5
5

POINT_DATA 6802
VECTORS displacement float
-0.00221837 0.0141476 0
-0.00221882 0.0139388 0
-0.00221946 0 0
-0.00443893 0 0
-0.00503462 0.0180056 0
-0.00380713 0.018007 0
-0.00356727 0.0180066 0
-0.00437163 0.0334435 0
-0.00221976 0.0335667 0
-0.00222047 0.0220743 0
-0.00222092 0.021866 0
-0.000871217 0.0180056 0
-0.000631391 0.0180053 0
0.000595491 0.0180054 0
0 0 0
-6.79458e-05 0.0334433 0
-0.002218 0.0141315 0
-0.00221847 0.0141198 0
-0.0022185 0.0141119 0
-0.00221925 0.014106 0
-0.00221844 0.0141006 0
-0.00221848 0.0140953 0
-0.00221855 0.0140899 0
-0.00221856 0.014084 0
-0.00221857 0.0140774 0
-0.00221857 0.0140699 0
-0.00221863 0.0140615 0
-0.0022187 0.0140521 0
-0.00221864 0.0140417 0
-0.00221864 0.0140303 0
-0.0022187 0.0140178 0
-0.00221871 0.0140043 0
-0.00221872 0.0139896 0
-0.00221874 0.0139737 0
-0.00221877 0.0139568 0
-0.00221888 0.0139172 0
-0.00221892 0.0138784 0
-0.00221891 0.0137586 0
-0.0022187 0.013524 0
-0.0022195 0.0132606 0
-0.0022186 0.0129675 0
-0.00222048 0.0126554 0
-0.00221939 0.0123288 0
-0.00221961 0.01199 0
-0.00221968 0.0116417 0
-0.00221957 0.0112859 0
-0.00221959 0.0109236 0
-0.00221947 0.0105579 0
-0.00221959 0.0101875 0
-0.0022194 0.00981378 0
-0.00221945 0.00943671 0
-0.00221942 0.0090577 0
-0.00221946 0.00867603 0
-0.00221946 0.00829222 0
-0.00221937 0.00790654 0
-0.00221953 0.00751925 0
-0.0022194 0.00713065 0
-0.00221947 0.00674069 0
-0.00221943 0.00634975 0
-0.00221944 0.00595759 0
-0.00221945 0.00556441 0
-0.00221946 0.00517032 0
-0.00221948 0.0047754 0
-0.00221942 0.00437982 0
-0.00221946 0.00398356 0
-0.00221946 0.00358682 0
-0.00221946 0.00318954 0
-0.00221947 0.00279179 0
-0.00221947 0.00239365 0
-0.00221947 0.00199517 0
-0.00221946 0.00159646 0
-0.00221948 0.00119752 0
-0.00221946 0.000798447 0
-0.00221946 0.00039924 0
-0.00233433 0 0
-0.00244925 0 0
-0.00256428 0 0
-0.00267948 0 0
-0.00279486 0 0
-0.00291048 0 0
-0.00302638 0 0
-0.00314258 0 0
-0.00325907 0 0
-0.00337591 0 0
-0.00349314 0 0
-0.00361058 0 0
-0.00372837 0 0
-0.00384638 0 0
-0.00396466 0 0
-0.00408312 0 0
-0.00420172 0 0
-0.00432038 0 0
-0.0044388 0.000398334 0
-0.0044383 0.000796725 0
-0.00443753 0.00119518 0
-0.00443639 0.00159382 0
-0.00443492 0.00199265 0
-0.00443321 0.00239179 0
-0.00443118 0.00279124 0
-0.00442888 0.00319112 0
-0.00442639 0.00359148 0
-0.00442369 0.00399238 0
-0.00442082 0.00439394 0
-0.00441772 0.00479627 0
-0.00441484 0.00519941 0
-0.00441176 0.00560358 0
-0.0044088 0.00600849 0
-0.00440622 0.00641466 0
-0.00440394 0.00682212 0
-0.00440205 0.0072311 0
-0.00440099 0.00764156 0
-0.00440083 0.00805366 0
-0.00440184 0.00846748 0
-0.00440386 0.00888349 0
-0.00440803 0.00930102 0
-0.00441416 0.00972067 0
-0.00442254 0.0101425 0
-0.00443406 0.0105658 0
-0.00444905 0.0109922 0
-0.00446648 0.0114184 0
-0.00448853 0.0118465 0
-0.00451509 0.0122764 0
-0.00454566 0.0127063 0
-0.00458096 0.013135 0
-0.00462072 0.0135638 0
-0.00466442 0.0139899 0
-0.00471162 0.0144132 0
-0.00476084 0.0148325 0
-0.00481105 0.0152471 0
-0.00486119 0.0156564 0
-0.00490773 0.0160604 0
-0.00495055 0.0164578 0
-0.004987 0.0168503 0
-0.00501299 0.017237 0
-0.00502988 0.0176222 0
-0.0049192 0.0180055 0
-0.00479955 0.0180054 0
-0.00468096 0.0180054 0
-0.00456435 0.0180053 0
-0.00445178 0.0180057 0
-0.00434322 0.0180046 0
-0.00423987 0.0180047 0
-0.00414234 0.0180063 0
-0.00405385 0.0180059 0
-0.00397202 0.0180062 0
-0.00390515 0.0180064 0
-0.00384746 0.0180069 0
-0.00382059 0.018007 0
-0.0038121 0.018007 0
-0.00380273 0.018007 0
-0.00379886 0.0180071 0
-0.00379502 0.018007 0
-0.00379103 0.0180068 0
-0.00378697 0.0180068 0
-0.00378285 0.0180068 0
-0.00377849 0.0180068 0
-0.00377379 0.0180068 0
-0.00376853 0.0180068 0
-0.00376247 0.0180067 0
-0.00375539 0.0180067 0
-0.00374712 0.0180067 0
-0.00373728 0.0180067 0
-0.00372559 0.0180065 0
-0.00371135 0.0180065 0
-0.00369443 0.0180068 0
-0.00367339 0.0180066 0
-0.00364655 0.0180066 0
-0.00361215 0.0180067 0
-0.0035702 0.0178493 0
-0.00356887 0.0176935 0
-0.0035632 0.0175424 0
-0.00355218 0.0173924 0
-0.00354589 0.0172364 0
-0.00353413 0.0170831 0
-0.00351986 0.0169321 0
-0.00350337 0.016783 0
-0.00348476 0.0166361 0
-0.00346408 0.0164916 0
-0.0034414 0.0163496 0
-0.00341675 0.0162103 0
-0.00339016 0.0160739 0
-0.00336168 0.0159408 0
-0.00333135 0.015811 0
-0.00329922 0.0156848 0
-0.00326535 0.0155623 0
-0.00322977 0.0154437 0
-0.00319253 0.0153293 0
-0.00315369 0.0152193 0
-0.00311339 0.0151138 0
-0.00307172 0.0150131 0
-0.00302874 0.0149173 0
-0.00298446 0.0148264 0
-0.00293897 0.0147407 0
-0.00289234 0.0146602 0
-0.00284463 0.0145852 0
-0.00279589 0.0145157 0
-0.00274622 0.0144518 0
-0.00269569 0.0143938 0
-0.00264434 0.0143415 0
-0.00259226 0.0142953 0
-0.00253935 0.0142551 0
-0.00248544 0.0142213 0
-0.00243004 0.0141957 0
-0.00237913 0.0141721 0
-0.00232727 0.0141565 0
-0.00227316 0.0141481 0
-0.00503019 0.0183861 0
-0.00501374 0.0187684 0
-0.00498843 0.0191522 0
-0.00495315 0.0195415 0
-0.00491106 0.0199358 0
-0.00486573 0.0203365 0
-0.00481655 0.0207421 0
-0.00476655 0.0211533 0
-0.00471841 0.0215687 0
-0.00467152 0.0219879 0
-0.00462838 0.0224099 0
-0.00458894 0.0228346 0
-0.00455379 0.0232593 0
-0.00452291 0.0236849 0
-0.00449669 0.0241107 0
-0.00447426 0.0245342 0
-0.00445592 0.0249577 0
-0.00444088 0.0253788 0
-0.00442945 0.0257983 0
-0.0044199 0.0262151 0
-0.00441316 0.0266303 0
-0.00440842 0.0270434 0
-0.00440464 0.027454 0
-0.00440254 0.0278632 0
-0.00440123 0.0282701 0
-0.00440027 0.028675 0
-0.00440011 0.0290785 0
-0.00439975 0.0294802 0
-0.0043994 0.0298804 0
-0.00439865 0.0302793 0
-0.0043977 0.0306769 0
-0.00439601 0.0310736 0
-0.00439353 0.0314695 0
-0.00439052 0.0318648 0
-0.00438665 0.0322596 0
-0.00438201 0.0326542 0
-0.00437694 0.0330488 0
-0.00425318 0.0334487 0
-0.00413464 0.0334541 0
-0.00401604 0.0334601 0
-0.00389769 0.0334666 0
-0.00377976 0.0334741 0
-0.00366254 0.033482 0
-0.00354601 0.0334907 0
-0.00343045 0.0334995 0
-0.00331592 0.0335088 0
-0.00320238 0.0335178 0
-0.0030899 0.0335268 0
-0.00297849 0.0335351 0
-0.00286813 0.0335431 0
-0.00275868 0.0335497 0
-0.00264974 0.033556 0
-0.0025416 0.0335606 0
-0.00243422 0.0335642 0
-0.00232688 0.0335663 0
-0.0022198 0.0331714 0
-0.00221978 0.0327758 0
-0.00221975 0.0323802 0
-0.00221975 0.0319847 0
-0.00221978 0.0315896 0
-0.00221978 0.0311951 0
-0.0022198 0.0308012 0
-0.00221976 0.0304082 0
-0.00221975 0.0300161 0
-0.00221975 0.0296249 0
-0.00221974 0.0292348 0
-0.00221981 0.0288461 0
-0.00221982 0.0284587 0
-0.00221981 0.0280729 0
-0.00221978 0.0276887 0
-0.00221978 0.0273065 0
-0.00221979 0.0269262 0
-0.00221996 0.0265484 0
-0.00221979 0.0261734 0
-0.00221991 0.0258012 0
-0.00221951 0.0254327 0
-0.00221999 0.0250685 0
-0.00221898 0.0247094 0
-0.00221966 0.0243558 0
-0.00221949 0.0240099 0
-0.00221922 0.0236734 0
-0.00221952 0.0233474 0
-0.00222062 0.0230397 0
-0.00221997 0.0227479 0
-0.00222081 0.022485 0
-0.00222044 0.0222543 0
-0.00222038 0.0221345 0
-0.00222043 0.0220959 0
-0.00222051 0.0220564 0
-0.00222056 0.0220395 0
-0.0022206 0.0220235 0
-0.00222065 0.0220085 0
-0.0022207 0.0219949 0
-0.00222074 0.0219823 0
-0.00222078 0.0219709 0
-0.00222082 0.0219606 0
-0.00222084 0.0219512 0
-0.00222087 0.0219428 0
-0.00222089 0.0219354 0
-0.00222091 0.0219288 0
-0.00222094 0.0219228 0
-0.00222097 0.0219172 0
-0.00222097 0.0219118 0
-0.00222103 0.0219066 0
-0.00222072 0.0219001 0
-0.00222134 0.0218938 0
-0.00222155 0.021882 0
-0.00227475 0.0218656 0
-0.00232869 0.0218561 0
-0.00238187 0.0218379 0
-0.00243545 0.0218186 0
-0.0024894 0.0217907 0
-0.00254282 0.0217564 0
-0.00259554 0.021716 0
-0.00264755 0.0216696 0
-0.00269881 0.0216172 0
-0.00274926 0.0215589 0
-0.00279882 0.0214949 0
-0.00284741 0.0214252 0
-0.00289495 0.0213501 0
-0.00294136 0.0212696 0
-0.0029866 0.0211838 0
-0.00303063 0.021093 0
-0.0030734 0.0209972 0
-0.00311484 0.0208966 0
-0.00315489 0.0207912 0
-0.00319348 0.0206814 0
-0.00323053 0.0205671 0
-0.00326597 0.0204487 0
-0.00329972 0.0203263 0
-0.00333169 0.0202002 0
-0.00336186 0.0200706 0
-0.00339019 0.0199376 0
-0.00341664 0.0198015 0
-0.00344118 0.0196625 0
-0.00346377 0.0195206 0
-0.00348435 0.0193762 0
-0.00350286 0.0192294 0
-0.00351926 0.0190806 0
-0.00353357 0.0189297 0
-0.0035455 0.0187767 0
-0.00355185 0.0186207 0
-0.00356299 0.0184709 0
-0.00356876 0.0183197 0
-0.00357023 0.0181639 0
-0.000826506 0.0180048 0
-0.000791954 0.0180048 0
-0.000765393 0.0180053 0
-0.00074403 0.0180056 0
-0.00072733 0.0180058 0
-0.000713052 0.0180056 0
-0.000701387 0.0180055 0
-0.000691602 0.0180054 0
-0.0006833 0.0180054 0
-0.0006759 0.0180054 0
-0.000669722 0.0180054 0
-0.000664373 0.0180053 0
-0.000659848 0.0180053 0
-0.000655554 0.0180052 0
-0.000651485 0.0180052 0
-0.000647511 0.0180052 0
-0.000643481 0.0180052 0
-0.000639859 0.0180051 0
-0.000635706 0.0180053 0
-0.00062642 0.0180052 0
-0.000617905 0.0180052 0
-0.000590957 0.0180051 0
-0.000534783 0.0180056 0
-0.000466981 0.018005 0
-0.000386072 0.0180055 0
-0.000296976 0.0180051 0
-0.000199849 0.0180056 0
-9.6089e-05 0.0180046 0
1.27178e-05 0.0180055 0
0.000126265 0.0180053 0
0.000241713 0.0180048 0
0.000360293 0.0180053 0
0.000480051 0.0180053 0
0.000590736 0.017622 0
0.00057384 0.0172368 0
0.000547893 0.01685 0
0.000511585 0.0164576 0
0.000468476 0.0160603 0
0.00042208 0.0156565 0
0.000372112 0.0152471 0
0.000321744 0.0148324 0
0.000272596 0.014413 0
0.000225552 0.0139898 0
0.000181888 0.0135637 0
0.00014208 0.0131351 0
0.000106897 0.0127061 0
7.60449e-05 0.0122764 0
4.99835e-05 0.011847 0
2.77748e-05 0.0114187 0
9.75212e-06 0.0109916 0
-4.7549e-06 0.0105661 0
-1.62256e-05 0.0101425 0
-2.47013e-05 0.00972079 0
-3.08243e-05 0.00930128 0
-3.46135e-05 0.00888333 0
-3.72779e-05 0.00846767 0
-3.81008e-05 0.00805379 0
-3.78918e-05 0.00764165 0
-3.67441e-05 0.00723135 0
-3.50617e-05 0.0068223 0
-3.28047e-05 0.00641482 0
-3.01536e-05 0.00600855 0
-2.70855e-05 0.00560347 0
-2.41119e-05 0.00519942 0
-2.11733e-05 0.00479634 0
-1.81406e-05 0.00439396 0
-1.52792e-05 0.00399238 0
-1.25507e-05 0.00359149 0
-1.00649e-05 0.00319113 0
-7.77455e-06 0.00279126 0
-5.72967e-06 0.00239181 0
-4.03168e-06 0.00199266 0
-2.56789e-06 0.00159381 0
-1.41656e-06 0.00119517 0
-6.35552e-07 0.000796723 0
-1.40619e-07 0.000398334 0
-0.000118553 0 0
-0.000237217 0 0
-0.000355812 0 0
-0.000474273 0 0
-0.00059255 0 0
-0.000710596 0 0
-0.000828391 0 0
-0.000945863 0 0
-0.00106303 0 0
-0.00117986 0 0
-0.00129634 0 0
-0.00141252 0 0
-0.00152841 0 0
-0.00164409 0 0
-0.00175948 0 0
-0.00187466 0 0
-0.00198969 0 0
-0.00210459 0 0
-0.00216401 0.0141486 0
-0.00211099 0.0141573 0
-0.00205857 0.0141718 0
-0.00200502 0.0141936 0
-0.00195124 0.0142218 0
-0.00189803 0.0142563 0
-0.00184534 0.0142964 0
-0.00179328 0.0143426 0
-0.00174195 0.0143947 0
-0.00169145 0.0144528 0
-0.00164184 0.0145167 0
-0.00159323 0.0145863 0
-0.00154567 0.0146613 0
-0.00149921 0.0147417 0
-0.00145389 0.0148274 0
-0.00140974 0.0149182 0
-0.00136685 0.015014 0
-0.00132532 0.0151147 0
-0.00128519 0.0152199 0
-0.0012465 0.0153297 0
-0.00120931 0.0154439 0
-0.00117373 0.0155623 0
-0.00113986 0.0156847 0
-0.00110776 0.0158109 0
-0.00107746 0.0159405 0
-0.00104903 0.0160736 0
-0.00102249 0.0162098 0
-0.000997891 0.016349 0
-0.000975266 0.0164909 0
-0.00095467 0.0166354 0
-0.000936157 0.0167822 0
-0.000919755 0.0169311 0
-0.00090539 0.0170819 0
-0.000892697 0.0172343 0
-0.000882629 0.0173882 0
-0.000876185 0.0175423 0
-0.00087112 0.0176952 0
-0.000867778 0.0178489 0
-0.00211265 0.0335664 0
-0.00200535 0.0335642 0
-0.00189792 0.0335606 0
-0.00178987 0.0335559 0
-0.00168116 0.0335499 0
-0.00157151 0.033543 0
-0.00146113 0.033535 0
-0.00134969 0.0335267 0
-0.00123719 0.0335176 0
-0.00112357 0.0335085 0
-0.0010089 0.0334995 0
-0.000893508 0.0334906 0
-0.000777018 0.0334819 0
-0.000659688 0.0334739 0
-0.000541864 0.0334666 0
-0.000423536 0.03346 0
-0.000305021 0.033454 0
-0.000186395 0.0334485 0
-6.26189e-05 0.0330485 0
-5.75377e-05 0.032654 0
-5.28803e-05 0.0322594 0
-4.89629e-05 0.0318646 0
-4.59234e-05 0.0314694 0
-4.34873e-05 0.0310735 0
-4.18212e-05 0.0306769 0
-4.07509e-05 0.0302791 0
-3.99221e-05 0.0298802 0
-3.97631e-05 0.0294801 0
-3.93718e-05 0.0290785 0
-3.92158e-05 0.0286752 0
-3.83036e-05 0.0282703 0
-3.70155e-05 0.0278635 0
-3.49382e-05 0.0274546 0
-3.14774e-05 0.0270438 0
-2.64992e-05 0.0266308 0
-1.96045e-05 0.0262158 0
-1.08077e-05 0.0257981 0
1.1563e-06 0.0253791 0
1.60642e-05 0.0249579 0
3.43067e-05 0.0245348 0
5.65968e-05 0.0241105 0
8.30762e-05 0.0236851 0
0.000113846 0.0232594 0
0.000148982 0.0228346 0
0.00018841 0.0224096 0
0.0002318 0.0219874 0
0.000278488 0.0215679 0
0.000327172 0.0211524 0
0.000376766 0.0207414 0
0.000426203 0.0203358 0
0.000472005 0.0199352 0
0.000513949 0.0195413 0
0.000549618 0.0191522 0
0.000574852 0.0187684 0
0.000591208 0.0183858 0
-0.000868533 0.0181626 0
-0.000869827 0.0183183 0
-0.00087539 0.0184694 0
-0.000886354 0.0186194 0
-0.000892586 0.0187754 0
-0.000904315 0.0189288 0
-0.00091854 0.0190799 0
-0.000935018 0.019229 0
-0.000953642 0.0193759 0
-0.00097434 0.0195205 0
-0.00099705 0.0196626 0
-0.00102173 0.0198019 0
-0.00104834 0.0199382 0
-0.00107684 0.0200714 0
-0.00110719 0.0202012 0
-0.00113934 0.0203275 0
-0.00117325 0.02045 0
-0.00120889 0.0205686 0
-0.00124618 0.020683 0
-0.00128504 0.0207931 0
-0.00132535 0.0208985 0
-0.00136702 0.0209993 0
-0.00141004 0.0210952 0
-0.00145433 0.0211861 0
-0.00149984 0.0212718 0
-0.0015465 0.0213523 0
-0.00159426 0.0214274 0
-0.00164306 0.0214969 0
-0.00169282 0.0215608 0
-0.00174346 0.0216189 0
-0.00179491 0.021671 0
-0.0018471 0.0217172 0
-0.00189993 0.0217571 0
-0.00195323 0.0217913 0
-0.00200696 0.0218192 0
-0.0020608 0.0218406 0
-0.00211375 0.0218559 0
-0.00216672 0.0218653 0
-0.00230183 0.0140826 0
-0.00255935 0.0149354 0
-0.00281719 0.0154072 0
-0.0031149 0.0157838 0
-0.00337551 0.0160044 0
-0.0035882 0.0160825 0
-0.00379896 0.0162393 0
-0.00396038 0.0162015 0
-0.004148 0.016179 0
-0.00429872 0.0163242 0
-0.00441859 0.0163105 0
-0.00459832 0.0162403 0
-0.00476928 0.0162715 0
-0.00486498 0.0169184 0
-0.00467678 0.0169418 0
-0.0044863 0.0169212 0
-0.00434622 0.0168626 0
-0.004203 0.0168107 0
-0.00408318 0.0168313 0
-0.003905 0.0168303 0
-0.0037212 0.0166887 0
-0.00357564 0.0166708 0
-0.003387 0.0165331 0
-0.00314812 0.0162012 0
-0.00244932 0.0144126 0
-0.00269031 0.0147923 0
-0.0029605 0.0151298 0
-0.0032261 0.0153176 0
-0.00344634 0.0154597 0
-0.00365737 0.015487 0
-0.00384828 0.0155751 0
-0.00403435 0.0155882 0
-0.00424429 0.01561 0
-0.00438771 0.015708 0
-0.00455629 0.0158417 0
-0.00473947 0.0158768 0
-0.00232211 0.0134421 0
-0.00244895 0.013503 0
-0.00259388 0.0136068 0
-0.00280539 0.0138599 0
-0.00299577 0.0140743 0
-0.00326614 0.0142073 0
-0.00348372 0.0142837 0
-0.00365398 0.0143144 0
-0.00389974 0.0144467 0
-0.0040559 0.0144389 0
-0.00422624 0.0143701 0
-0.00436557 0.0144737 0
-0.00460661 0.0145713 0
-0.0045789 0.0151324 0
-0.00445637 0.0150897 0
-0.00431356 0.0150461 0
-0.00415545 0.0149703 0
-0.00393636 0.0150101 0
-0.00371517 0.0149427 0
-0.0035192 0.0148656 0
-0.00331068 0.0148449 0
-0.00310038 0.0146516 0
-0.00287079 0.0144266 0
-0.00263092 0.0142721 0
-0.00243289 0.0139772 0
-0.00231541 0.0137648 0
-0.00233012 0.0128064 0
-0.00245839 0.0129835 0
-0.00261644 0.0131897 0
-0.00279944 0.0132985 0
-0.00298994 0.0134695 0
-0.00318672 0.0136042 0
-0.00337802 0.0135835 0
-0.00359372 0.0137413 0
-0.0038273 0.0138669 0
-0.0039652 0.013971 0
-0.00419277 0.0139261 0
-0.00433263 0.0139328 0
-0.00444299 0.013943 0
-0.00235938 0.0125336 0
-0.00246965 0.0124951 0
-0.0026288 0.0126099 0
-0.00278666 0.0126925 0
-0.00296971 0.012816 0
-0.00316658 0.0129542 0
-0.00336065 0.0129964 0
-0.00352205 0.0130919 0
-0.00375088 0.0131884 0
-0.00386734 0.0131419 0
-0.004119 0.0132189 0
-0.00426703 0.0133066 0
-0.00438908 0.0133203 0
-0.00238079 0.0120111 0
-0.00246262 0.0120261 0
-0.00264302 0.0121294 0
-0.0027952 0.0120997 0
-0.00295018 0.0122402 0
-0.00313222 0.012288 0
-0.00332534 0.0124856 0
-0.00350559 0.0124551 0
-0.00370721 0.0125526 0
-0.00383656 0.0126956 0
-0.00408163 0.0127565 0
-0.00423202 0.0127668 0
-0.00440331 0.0129054 0
-0.00231312 0.0114902 0
-0.00249509 0.0115295 0
-0.0025963 0.0115799 0
-0.00277058 0.0116598 0
-0.00293402 0.0117102 0
-0.00312002 0.0117749 0
-0.00328775 0.0117786 0
-0.00346262 0.0118523 0
-0.00362426 0.012006 0
-0.00381935 0.0119686 0
-0.00403134 0.0120405 0
-0.00417985 0.0120898 0
-0.00433404 0.0120761 0
-0.00236042 0.0109617 0
-0.00247927 0.0110006 0
-0.00259015 0.0110497 0
-0.0027699 0.0111579 0
-0.00294201 0.0111751 0
-0.00310671 0.0112089 0
-0.00327768 0.0112558 0
-0.00348674 0.0113816 0
-0.00360542 0.0113162 0
-0.00379081 0.0115028 0
-0.00400349 0.0114403 0
-0.00414948 0.0114674 0
-0.00433061 0.0115079 0
-0.00234717 0.0103173 0
-0.0025005 0.0103584 0
-0.00262357 0.010477 0
-0.00275032 0.0104872 0
-0.00294437 0.0105691 0
-0.00309816 0.0107392 0
-0.00324913 0.0107106 0
-0.00345765 0.0107786 0
-0.00363112 0.010755 0
-0.0037962 0.0109231 0
-0.00395504 0.0109259 0
-0.00408588 0.0109213 0
-0.00429468 0.0109173 0
-0.00236736 0.00998045 0
-0.00252937 0.0100163 0
-0.00263498 0.00998889 0
-0.00275482 0.0100536 0
-0.00296241 0.0100855 0
-0.00307574 0.0101236 0
-0.00326983 0.0101371 0
-0.00340847 0.0102103 0
-0.00359261 0.0101893 0
-0.00378289 0.0102422 0
-0.00394123 0.0104067 0
-0.00409813 0.0103071 0
-0.00428244 0.010423 0
-0.00236603 0.00941295 0
-0.00250319 0.009335 0
-0.0026359 0.00938725 0
-0.0027638 0.00938868 0
-0.00294462 0.00946666 0
-0.00307194 0.00943734 0
-0.00325938 0.00951379 0
-0.00342377 0.00966842 0
-0.0035857 0.0097194 0
-0.00378867 0.00977204 0
-0.00393022 0.00975571 0
-0.00407595 0.00981762 0
-0.00419874 0.00974187 0
-0.0023192 0.00885204 0
-0.00250553 0.00897142 0
-0.00267044 0.00889711 0
-0.00278905 0.00892245 0
-0.00293385 0.00897001 0
-0.00306335 0.00902175 0
-0.00325133 0.00902531 0
-0.00345587 0.0091326 0
-0.00356588 0.00906809 0
-0.00378133 0.00905414 0
-0.00391486 0.00910581 0
-0.00403283 0.00906367 0
-0.0042689 0.00905505 0
-0.00241753 0.00833026 0
-0.00252375 0.00837394 0
-0.00264953 0.00839124 0
-0.00279241 0.00841979 0
-0.00293466 0.00839098 0
-0.00307056 0.00836521 0
-0.00326771 0.0084498 0
-0.00344821 0.00841577 0
-0.00356398 0.00852283 0
-0.00378075 0.00859813 0
-0.00391643 0.00858271 0
-0.00405 0.00867382 0
-0.00419297 0.00866081 0
-0.00241622 0.00775712 0
-0.0025364 0.00779917 0
-0.00265987 0.00782128 0
-0.00279135 0.00786105 0
-0.00293599 0.0077703 0
-0.0030939 0.00791214 0
-0.00326124 0.0078215 0
-0.00343523 0.00789677 0
-0.0035676 0.00790579 0
-0.00377889 0.00789561 0
-0.00392172 0.00793781 0
-0.00405691 0.00795743 0
-0.00417502 0.00800362 0
-0.00236944 0.00735921 0
-0.00252762 0.00726566 0
-0.00266159 0.00725089 0
-0.00278976 0.00726747 0
-0.00292483 0.00732266 0
-0.00313278 0.00732564 0
-0.00326293 0.0073246 0
-0.00343667 0.00736107 0
-0.00359819 0.00737727 0
-0.00375854 0.00739976 0
-0.00388711 0.00739872 0
-0.00406688 0.00730676 0
-0.00428176 0.00742801 0
-0.00237397 0.00667427 0
-0.00251697 0.0065768 0
-0.00266885 0.0065711 0
-0.00280327 0.00664412 0
-0.00293633 0.00664701 0
-0.00313994 0.00673228 0
-0.00327089 0.00679366 0
-0.00341951 0.00691489 0
-0.00363272 0.00678989 0
-0.00376777 0.00691064 0
-0.00391412 0.00687692 0
-0.00406371 0.00692421 0
-0.00419266 0.00685879 0
-0.00232386 0.0061333 0
-0.00251578 0.00623423 0
-0.00267572 0.00623892 0
-0.00284035 0.00615673 0
-0.00296521 0.00617117 0
-0.00312335 0.00620477 0
-0.00327748 0.0062463 0
-0.00341111 0.00620706 0
-0.00363244 0.00617023 0
-0.00377199 0.0062133 0
-0.00390991 0.006156 0
-0.00404887 0.00615245 0
-0.00429027 0.00625373 0
-0.00242266 0.00559904 0
-0.00253648 0.00561846 0
-0.00267573 0.00562622 0
-0.00281497 0.00562661 0
-0.00296858 0.00565177 0
-0.00312493 0.00561712 0
-0.00328528 0.00558936 0
-0.00344874 0.00563611 0
-0.00361746 0.00568082 0
-0.00377172 0.00567791 0
-0.00391465 0.00573746 0
-0.00407633 0.00573394 0
-0.00424113 0.00565501 0
-0.00235534 0.00491174 0
-0.00252844 0.00488156 0
-0.00268736 0.00489936 0
-0.00283401 0.00494522 0
-0.00297529 0.00506581 0
-0.0031249 0.00498897 0
-0.00329228 0.00506282 0
-0.0034281 0.00508687 0
-0.00364612 0.0050691 0
-0.00377436 0.00508401 0
-0.00389105 0.00502756 0
-0.00408034 0.00501767 0
-0.00428834 0.00496402 0
-0.00234691 0.00450983 0
-0.00253047 0.00453738 0
-0.00271606 0.0045475 0
-0.00284542 0.00455321 0
-0.00298587 0.00450502 0
-0.00313342 0.00457617 0
-0.00330522 0.0045668 0
-0.00346987 0.00457123 0
-0.00362875 0.00463815 0
-0.00377537 0.00458071 0
-0.00391558 0.00465669 0
-0.00407502 0.00467131 0
-0.00421686 0.00461125 0
-0.00237727 0.00392646 0
-0.0025272 0.00383499 0
-0.00268806 0.00380282 0
-0.00284144 0.00378393 0
-0.00299158 0.0037812 0
-0.00315291 0.00379704 0
-0.00331414 0.00393509 0
-0.00347561 0.00384676 0
-0.00363229 0.00390194 0
-0.00377988 0.00390651 0
-0.00393063 0.00391504 0
-0.00407865 0.00393435 0
-0.00420046 0.00397044 0
-0.00232731 0.00336518 0
-0.00252578 0.0034675 0
-0.0026888 0.00346386 0
-0.0028414 0.00346138 0
-0.00298717 0.00345849 0
-0.00315966 0.0033604 0
-0.00335132 0.00337814 0
-0.00347035 0.00335635 0
-0.00360199 0.00329026 0
-0.00377852 0.00328656 0
-0.00393672 0.00328793 0
-0.00410231 0.00329197 0
-0.00431034 0.00339508 0
-0.00242839 0.00282137 0
-0.00254581 0.00283861 0
-0.00269231 0.00283784 0
-0.00284275 0.00284762 0
-0.00298809 0.00286892 0
-0.0031557 0.00286385 0
-0.00331548 0.00286617 0
-0.00346704 0.00285151 0
-0.00362348 0.00293264 0
-0.00377799 0.00294503 0
-0.0039369 0.00293114 0
-0.00409807 0.00291325 0
-0.00422379 0.00283747 0
-0.00235781 0.00213187 0
-0.00253218 0.0021124 0
-0.00266124 0.00218242 0
-0.00287824 0.0021427 0
-0.00300425 0.00223662 0
-0.00315872 0.00227556 0
-0.00331461 0.00228238 0
-0.00346772 0.00227 0
-0.00363047 0.00219259 0
-0.00374884 0.00225849 0
-0.00393403 0.00215968 0
-0.00410372 0.00217598 0
-0.00430676 0.00216283 0
-0.0023475 0.00172498 0
-0.00253664 0.00174671 0
-0.0027244 0.00168553 0
-0.00286068 0.0016934 0
-0.00300827 0.00169708 0
-0.00316163 0.00171004 0
-0.00331592 0.00171743 0
-0.00346686 0.00171821 0
-0.00363727 0.00171728 0
-0.00378755 0.00172793 0
-0.00394155 0.00172698 0
-0.00410658 0.00180299 0
-0.00424456 0.00178138 0
-0.00237171 0.00114892 0
-0.0024989 0.00108635 0
-0.00272123 0.00108989 0
-0.00285619 0.0012007 0
-0.00300263 0.00108095 0
-0.00316433 0.00114406 0
-0.00331919 0.00114046 0
-0.00347504 0.00115736 0
-0.00363953 0.00122947 0
-0.00379091 0.00109626 0
-0.00394701 0.0011422 0
-0.00409032 0.00103845 0
-0.00430419 0.00108446 0
-0.00235633 0.000425586 0
-0.0025272 0.000653213 0
-0.00269286 0.00065934 0
-0.00285102 0.000446005 0
-0.00300792 0.000641909 0
-0.00316079 0.000641027 0
-0.00332712 0.000394381 0
-0.00349383 0.000573479 0
-0.00364201 0.000498184 0
-0.00379866 0.000656736 0
-0.00395112 0.000669729 0
-0.00412181 0.000521774 0
-0.00430386 0.000617775 0
-0.00489171 0.0173895 0
-0.00471725 0.0174663 0
-0.00453796 0.0173495 0
-0.00438797 0.0174764 0
-0.00424562 0.0173871 0
-0.00413717 0.0172718 0
-0.00398606 0.017338 0
-0.00389386 0.0174265 0
-0.00377596 0.0173934 0
-0.00366167 0.017246 0
-0.00224676 0.0141122 0
-0.00224015 0.0141065 0
-0.0022264 0.0140586 0
-0.00222701 0.0140676 0
-0.00375794 0.0179369 0
-0.00223282 0.0140948 0
-0.00223082 0.0140891 0
-0.00222926 0.0140828 0
-0.00222801 0.0140756 0
-0.00222569 0.0140487 0
-0.00222509 0.0140377 0
-0.00222496 0.0140258 0
-0.00222472 0.0140128 0
-0.00222461 0.0139986 0
-0.00222455 0.0139832 0
-0.00222462 0.0139663 0
-0.00365377 0.0178628 0
-0.00368255 0.0178899 0
-0.00370174 0.0179085 0
-0.00371781 0.017919 0
-0.00373047 0.0179259 0
-0.00374126 0.0179303 0
-0.00375031 0.0179338 0
-0.00376453 0.0179394 0
-0.00377019 0.0179413 0
-0.0037751 0.0179427 0
-0.00377964 0.0179438 0
-0.00378389 0.0179448 0
-0.00378796 0.0179457 0
-0.00379208 0.0179471 0
-0.00379599 0.0179486 0
-0.00380003 0.0179475 0
-0.00225817 0.0141222 0
-0.00223536 0.0141 0
-0.00339184 0.016215 0
-0.0033226 0.0159514 0
-0.00303618 0.0151221 0
-0.00247716 0.014235 0
-0.00357936 0.0173468 0
-0.00266672 0.0144381 0
-0.00354824 0.0170551 0
-0.00280718 0.0146546 0
-0.00342355 0.0163502 0
-0.00356549 0.017201 0
-0.00308022 0.0152289 0
-0.00257206 0.0143239 0
-0.00271383 0.0145044 0
-0.0034805 0.0166269 0
-0.00285351 0.0147381 0
-0.00289974 0.0148269 0
-0.00299134 0.0150193 0
-0.00352817 0.0169109 0
-0.00312333 0.0153401 0
-0.00243051 0.0142013 0
-0.00345313 0.0164875 0
-0.00324673 0.0156977 0
-0.00328541 0.0158232 0
-0.00261952 0.0143778 0
-0.0025247 0.0142762 0
-0.00276066 0.0145766 0
-0.00350554 0.0167681 0
-0.00316557 0.0154555 0
-0.00335816 0.016082 0
-0.00222663 0.0139325 0
-0.00380694 0.0179253 0
-0.0022301 0.0138994 0
-0.00381279 0.0178883 0
-0.00223593 0.0138353 0
-0.00382446 0.017835 0
-0.00376931 0.0178771 0
-0.00223183 0.0140374 0
-0.00224155 0.0140922 0
-0.00375791 0.0178695 0
-0.00223642 0.0140774 0
-0.00223084 0.0140108 0
-0.00223075 0.0139796 0
-0.00372077 0.0178398 0
-0.00374256 0.0178574 0
-0.00377848 0.0178802 0
-0.00378668 0.017885 0
-0.00379537 0.0178896 0
-0.0022498 0.014105 0
-0.00373264 0.0178495 0
-0.00223078 0.013996 0
-0.00223449 0.0140687 0
-0.00224511 0.0140987 0
-0.00223872 0.0140852 0
-0.00223126 0.0140248 0
-0.00370698 0.0178216 0
-0.00375089 0.017864 0
-0.00376422 0.0178742 0
-0.003774 0.0178783 0
-0.00378268 0.0178821 0
-0.00223177 0.0139589 0
-0.00379907 0.0178778 0
-0.00226733 0.0141335 0
-0.00320676 0.0155749 0
-0.00361593 0.0178489 0
-0.00294581 0.0149207 0
-0.0035952 0.0173087 0
-0.00296331 0.0151212 0
-0.00268592 0.0145615 0
-0.00251031 0.0143034 0
-0.00238017 0.0141794 0
-0.00282205 0.0148184 0
-0.00339982 0.0163456 0
-0.0030562 0.0153408 0
-0.00242439 0.0142136 0
-0.00343565 0.016479 0
-0.00336179 0.0162136 0
-0.00255371 0.0143582 0
-0.00328003 0.0159538 0
-0.00259749 0.0144196 0
-0.00355396 0.0170268 0
-0.00277602 0.0147272 0
-0.00323699 0.015826 0
-0.00352844 0.0168881 0
-0.00301004 0.0152297 0
-0.00357634 0.0171666 0
-0.0035001 0.0167504 0
-0.00273072 0.0146414 0
-0.00346911 0.0166139 0
-0.00332177 0.0160829 0
-0.00310186 0.0154564 0
-0.0024672 0.0142549 0
-0.00264157 0.0144874 0
-0.00361111 0.0174573 0
-0.00223725 0.013937 0
-0.0038003 0.0178186 0
-0.00224528 0.013904 0
-0.00380105 0.0177432 0
-0.00224946 0.0137264 0
-0.00384448 0.0177456 0
-0.0022779 0.0141241 0
-0.00224706 0.0140907 0
-0.00223902 0.0140603 0
-0.00226184 0.0141128 0
-0.00225097 0.0140986 0
-0.00224361 0.0140813 0
-0.0022558 0.0141059 0
-0.0037487 0.017798 0
-0.00374116 0.0177875 0
-0.00373217 0.0177768 0
-0.00372153 0.0177627 0
-0.0036952 0.0177265 0
-0.00377938 0.0178193 0
-0.00377493 0.0178152 0
-0.00377036 0.0178128 0
-0.00223708 0.0139974 0
-0.0022376 0.0140268 0
-0.00376549 0.0178119 0
-0.00223809 0.0140402 0
-0.00231221 0.0141424 0
-0.00365187 0.0176472 0
-0.00291616 0.0150159 0
-0.0031928 0.0157 0
-0.00314749 0.0155763 0
-0.00286897 0.0149147 0
-0.00237989 0.0141917 0
-0.00362268 0.0174058 0
-0.00241807 0.0142319 0
-0.00249727 0.0143357 0
-0.00253753 0.0143973 0
-0.00245747 0.0142802 0
-0.00360358 0.0172688 0
-0.00357979 0.0171322 0
-0.00352189 0.0168632 0
-0.00355246 0.0169973 0
-0.00348828 0.0167299 0
-0.00257838 0.0144656 0
-0.00345193 0.0165976 0
-0.00341297 0.0164665 0
-0.00261996 0.0145405 0
-0.00266239 0.0146217 0
-0.00299346 0.0153349 0
-0.002706 0.014709 0
-0.00294483 0.0152243 0
-0.0033715 0.0163361 0
-0.0030404 0.0154465 0
-0.00275121 0.014802 0
-0.00332775 0.0162062 0
-0.00323503 0.0159475 0
-0.00328212 0.0160766 0
-0.00224224 0.0139729 0
-0.00378941 0.0177808 0
-0.00225059 0.0139597 0
-0.00378452 0.0177017 0
-0.00225954 0.0138545 0
-0.00379817 0.0176268 0
-0.00224502 0.014059 0
-0.00378193 0.0177715 0
-0.00375566 0.0177476 0
-0.0037749 0.0177546 0
-0.00226506 0.0141165 0
-0.00225396 0.0140977 0
-0.00227258 0.0141244 0
-0.00225906 0.0141079 0
-0.00224929 0.0140848 0
-0.00372898 0.0177075 0
-0.00228303 0.0141325 0
-0.00229492 0.0141402 0
-0.0037373 0.0177228 0
-0.00374605 0.0177386 0
-0.00371834 0.0176889 0
-0.00370509 0.0176621 0
-0.00368864 0.017636 0
-0.0036697 0.0176346 0
-0.00376919 0.017748 0
-0.00224384 0.0140309 0
-0.00376435 0.0177451 0
-0.00375984 0.0177451 0
-0.00224465 0.0140464 0
-0.00362119 0.0176514 0
-0.00289529 0.0151122 0
-0.00308785 0.0155659 0
-0.00279812 0.0149004 0
-0.00318694 0.015819 0
-0.00338622 0.0164502 0
-0.00333962 0.0163216 0
-0.00234637 0.0141735 0
-0.00252349 0.01444 0
-0.00256204 0.0145147 0
-0.00350974 0.0168364 0
-0.00347142 0.0167071 0
-0.00244864 0.0143101 0
-0.00343025 0.0165785 0
-0.00248587 0.0143718 0
-0.00360574 0.0172316 0
-0.00357707 0.0170978 0
-0.00298763 0.0154281 0
-0.00354506 0.0169666 0
-0.00293796 0.0153331 0
-0.00260176 0.0145961 0
-0.00237528 0.0142067 0
-0.0036464 0.0174893 0
-0.00241154 0.0142543 0
-0.00264315 0.0146842 0
-0.00363076 0.0173704 0
-0.00268687 0.0147785 0
-0.00324004 0.0160624 0
-0.00329073 0.0161924 0
-0.00313759 0.0156912 0
-0.00284635 0.0150039 0
-0.00232317 0.014148 0
-0.00230641 0.0141415 0
-0.00224555 0.0140046 0
-0.0022538 0.014002 0
-0.00377363 0.0176856 0
-0.00226416 0.0139453 0
-0.00377388 0.0175954 0
-0.00228462 0.0137944 0
-0.00225248 0.0140829 0
-0.00374244 0.017686 0
-0.00376617 0.0176793 0
-0.00225256 0.014071 0
-0.00374684 0.0176798 0
-0.00376003 0.017675 0
-0.00226571 0.0141188 0
-0.00225904 0.0141038 0
-0.00228195 0.0141402 0
-0.00227298 0.0141304 0
-0.0037125 0.0176207 0
-0.00369962 0.0175904 0
-0.00368418 0.0175508 0
-0.00229368 0.0141502 0
-0.00230811 0.0141607 0
-0.0022494 0.0140329 0
-0.00375504 0.0176734 0
-0.00375069 0.017675 0
-0.00225143 0.0140541 0
-0.00302722 0.0155406 0
-0.00288372 0.0152112 0
-0.00273314 0.0148786 0
-0.00318832 0.0159319 0
-0.00340509 0.0165564 0
-0.00313533 0.0158013 0
-0.00335653 0.01643 0
-0.0025483 0.0145654 0
-0.00247616 0.0144112 0
-0.00251154 0.0144847 0
-0.0034507 0.0166823 0
-0.00353282 0.0169348 0
-0.00349333 0.0168083 0
-0.00356928 0.017063 0
-0.00360289 0.0171953 0
-0.00258702 0.0146532 0
-0.00244119 0.0143436 0
-0.00240593 0.0142816 0
-0.00237059 0.0142257 0
-0.00283184 0.0150947 0
-0.00363362 0.0173345 0
-0.00366216 0.0174925 0
-0.0026287 0.0147482 0
-0.00308133 0.015671 0
-0.00278167 0.0149842 0
-0.00330512 0.0163019 0
-0.00325136 0.0161714 0
-0.00233296 0.0141748 0
-0.00226516 0.014004 0
-0.00376008 0.0175877 0
-0.00228858 0.013938 0
-0.00231883 0.0139028 0
-0.00226378 0.0141109 0
-0.00226239 0.014101 0
-0.00372525 0.0176031 0
-0.00373336 0.0176219 0
-0.00374642 0.0175934 0
-0.00371916 0.0175993 0
-0.00370673 0.0175625 0
-0.00369207 0.0175223 0
-0.0022893 0.014159 0
-0.00227924 0.0141454 0
-0.00227078 0.0141292 0
-0.00368061 0.0174969 0
-0.00231389 0.0141788 0
-0.00373452 0.0176064 0
-0.00226067 0.0140845 0
-0.00374195 0.0175965 0
-0.0037379 0.0175998 0
-0.00225864 0.0140626 0
-0.00288205 0.0153145 0
-0.00267373 0.0148498 0
-0.0034272 0.0166556 0
-0.00313999 0.0159068 0
-0.00337763 0.0165318 0
-0.00319606 0.0160391 0
-0.00246789 0.0144518 0
-0.00250148 0.0145302 0
-0.00282592 0.0151876 0
-0.00347357 0.0167787 0
-0.00308335 0.0157747 0
-0.00302474 0.0156399 0
-0.00355763 0.0170289 0
-0.00243497 0.0143795 0
-0.00351715 0.0169032 0
-0.00359559 0.0171586 0
-0.00272185 0.0149571 0
-0.00253721 0.0146165 0
-0.00240174 0.0143126 0
-0.0023369 0.0142 0
-0.00363085 0.0172941 0
-0.00236757 0.0142515 0
-0.00366076 0.0174275 0
-0.00277275 0.0150697 0
-0.00332464 0.0164055 0
-0.00257637 0.0147113 0
-0.00326843 0.0162752 0
-0.00226559 0.0140423 0
-0.00225619 0.0140351 0
-0.00375193 0.0175894 0
-0.00228326 0.014021 0
-0.00373653 0.0174631 0
-0.00236151 0.0138765 0
-0.00232287 0.0140279 0
-0.00371394 0.0175343 0
-0.00227491 0.0141382 0
-0.00370256 0.0175171 0
-0.00227185 0.0141219 0
-0.00228422 0.0141604 0
-0.00368494 0.0174685 0
-0.00229442 0.0141766 0
-0.0023089 0.0141939 0
-0.00372484 0.0175161 0
-0.00371748 0.017525 0
-0.00226937 0.0140999 0
-0.00372191 0.0175234 0
-0.00288059 0.0153963 0
-0.00226696 0.0140727 0
-0.00261963 0.014814 0
-0.00246087 0.014492 0
-0.00340214 0.0166277 0
-0.00345186 0.0167484 0
-0.00242955 0.0144157 0
-0.00282719 0.0152788 0
-0.00349833 0.0168696 0
-0.00298028 0.0156201 0
-0.0030916 0.0158734 0
-0.00354245 0.0169936 0
-0.00303357 0.0157414 0
-0.0024934 0.0145752 0
-0.00320998 0.0161417 0
-0.0035842 0.017121 0
-0.00277136 0.0151563 0
-0.00239835 0.0143452 0
-0.00362246 0.017249 0
-0.00233226 0.0142192 0
-0.00236745 0.0142812 0
-0.00266685 0.0149233 0
-0.00334854 0.0165039 0
-0.00271766 0.0150377 0
-0.00366185 0.0173968 0
-0.00315065 0.016007 0
-0.00252959 0.0146681 0
-0.00329075 0.0163747 0
-0.00372683 0.0175016 0
-0.00227819 0.0140612 0
-0.00373033 0.0174843 0
-0.00375077 0.0174449 0
-0.00230263 0.0140385 0
-0.00235644 0.0140264 0
-0.00234128 0.013668 0
-0.00368043 0.0174176 0
-0.00229206 0.0141835 0
-0.00367677 0.0174229 0
-0.00229843 0.0141929 0
-0.002312 0.0142149 0
-0.00369202 0.0174396 0
-0.00228217 0.0141452 0
-0.00370633 0.0174584 0
-0.00369943 0.0174485 0
-0.002425 0.0144509 0
-0.00283789 0.0153727 0
-0.0024551 0.0145305 0
-0.00342935 0.0167182 0
-0.00347772 0.0168342 0
-0.00352316 0.0169537 0
-0.00257055 0.0147709 0
-0.00298359 0.015695 0
-0.00239452 0.0143766 0
-0.00304329 0.0158303 0
-0.00277781 0.0152444 0
-0.00356747 0.0170764 0
-0.00337606 0.0165977 0
-0.00322964 0.0162403 0
-0.00310438 0.015966 0
-0.00227624 0.0140845 0
-0.00236581 0.0143097 0
-0.00272052 0.01512 0
-0.00266652 0.014999 0
-0.00248812 0.0146197 0
-0.0026164 0.0148819 0
-0.00331767 0.0164703 0
-0.00316696 0.0161031 0
-0.00228585 0.0141664 0
-0.0022795 0.0141177 0
-0.00369895 0.0173953 0
-0.00229271 0.0140878 0
-0.00232516 0.0141287 0
-0.00369427 0.0172981 0
-0.00235837 0.0141476 0
-0.00239396 0.0137722 0
-0.00228189 0.0136064 0
-0.00364978 0.017318 0
-0.00231327 0.0142342 0
-0.00364701 0.0173176 0
-0.00233619 0.0142666 0
-0.00367169 0.0173628 0
-0.00368292 0.0173827 0
-0.00364256 0.0173123 0
-0.00234465 0.0142602 0
-0.00230384 0.0142194 0
-0.00291105 0.0155312 0
-0.00295084 0.0154779 0
-0.00242188 0.0144842 0
-0.00239328 0.0144094 0
-0.00345833 0.0168041 0
-0.00350051 0.016904 0
-0.00354585 0.0170244 0
-0.00340643 0.0166877 0
-0.00279224 0.0153357 0
-0.00299429 0.0157765 0
-0.0023618 0.0143347 0
-0.00325467 0.0163357 0
-0.00245161 0.0145679 0
-0.00252623 0.0147208 0
-0.00305711 0.015915 0
-0.00273095 0.0152053 0
-0.0022935 0.0141361 0
-0.00267306 0.0150771 0
-0.00229766 0.014199 0
-0.00334836 0.0165626 0
-0.00312245 0.0160554 0
-0.00261916 0.0149522 0
-0.0025701 0.0148324 0
-0.00318893 0.0161963 0
-0.00231019 0.0141451 0
-0.00284882 0.01545 0
-0.00369884 0.0173623 0
-0.00370186 0.0174283 0
-0.00366184 0.0173453 0
-0.00229494 0.0141752 0
-0.00371205 0.0172816 0
-0.00236195 0.0142472 0
-0.00239722 0.0141668 0
-0.00245941 0.013776 0
-0.00238683 0.0135749 0
-0.00232986 0.0142889 0
-0.00361295 0.0172114 0
-0.00361037 0.0172054 0
-0.00364902 0.0172861 0
-0.00231639 0.014259 0
-0.0023947 0.0144412 0
-0.00363 0.0172537 0
-0.00242032 0.014515 0
-0.00294182 0.0156537 0
-0.00349161 0.0168938 0
-0.00237042 0.014379 0
-0.00343948 0.0167761 0
-0.0032845 0.0164286 0
-0.00248642 0.0146647 0
-0.00300818 0.0158531 0
-0.00274913 0.0152954 0
-0.00338227 0.0166528 0
-0.00268663 0.0151584 0
-0.00307668 0.0159983 0
-0.00262855 0.0150253 0
-0.00363869 0.0172697 0
-0.00257519 0.0148963 0
-0.00314642 0.0161434 0
-0.00252773 0.0147751 0
-0.0032164 0.0162876 0
-0.00358918 0.0171445 0
-0.0028204 0.0154471 0
-0.00362203 0.0172357 0
-0.00231221 0.0142398 0
-0.00366531 0.0173124 0
-0.00231273 0.0142229 0
-0.00232085 0.0142172 0
-0.00240274 0.014297 0
-0.00233663 0.0142255 0
-0.00365149 0.017133 0
-0.00363113 0.0171383 0
-0.0023951 0.0140435 0
-0.00250851 0.0140313 0
-0.00234918 0.014329 0
-0.00239484 0.0144646 0
-0.00288727 0.0155605 0
-0.00237661 0.0144099 0
-0.00356415 0.0170781 0
-0.00233525 0.014289 0
-0.00360308 0.0171758 0
-0.00331853 0.0165199 0
-0.00245081 0.0146037 0
-0.00361038 0.0171863 0
-0.00293605 0.0156964 0
-0.0034192 0.0167427 0
-0.00270638 0.0152416 0
-0.00303201 0.0159374 0
-0.0026445 0.0151015 0
-0.00310391 0.0160846 0
-0.00352516 0.0169809 0
-0.00258621 0.014963 0
-0.00233538 0.0143153 0
-0.00347443 0.0168635 0
-0.00248846 0.0147096 0
-0.00324921 0.0163784 0
-0.00359564 0.0171605 0
-0.00317715 0.0162327 0
-0.00277077 0.0153831 0
-0.00253376 0.0148306 0
-0.00233061 0.0143014 0
-0.00236665 0.0143242 0
-0.00362042 0.0171975 0
-0.00361576 0.0171433 0
-0.00366315 0.017279 0
-0.00239722 0.0143701 0
-0.00234713 0.0142992 0
-0.00358289 0.0169865 0
-0.00368103 0.0171275 0
-0.00254865 0.0139194 0
-0.00249611 0.0141895 0
-0.00237324 0.0144162 0
-0.00235315 0.0143657 0
-0.00355999 0.0170671 0
-0.00241921 0.0145393 0
-0.00357665 0.0171046 0
-0.00335666 0.0166116 0
-0.00296283 0.0157936 0
-0.00345778 0.016831 0
-0.00233005 0.0142918 0
-0.00283409 0.0155218 0
-0.00363137 0.0172083 0
-0.0026673 0.0151809 0
-0.00306427 0.0160248 0
-0.00245153 0.0146352 0
-0.00234724 0.0143528 0
-0.00273081 0.0153236 0
-0.00260384 0.0150332 0
-0.0032872 0.01647 0
-0.00237246 0.014379 0
-0.00313922 0.0161746 0
-0.00350893 0.0169456 0
-0.00254426 0.0148863 0
-0.00321423 0.0163238 0
-0.00249337 0.0147518 0
-0.00236094 0.0143682 0
-0.00356907 0.0170763 0
-0.00239885 0.0144344 0
-0.00243163 0.0144256 0
-0.00357022 0.0170065 0
-0.00359887 0.016952 0
-0.00244084 0.0141723 0
-0.00256182 0.0142357 0
-0.00252637 0.0136821 0
-0.00239408 0.0144789 0
-0.00289643 0.0156551 0
-0.003398 0.0167034 0
-0.00234934 0.0143575 0
-0.00358798 0.0171029 0
-0.00279366 0.0154616 0
-0.00239768 0.0144773 0
-0.00299247 0.0158796 0
-0.00241445 0.0145469 0
-0.00234876 0.0143469 0
-0.00332882 0.016561 0
-0.00349249 0.0169075 0
-0.00269644 0.0152617 0
-0.00263191 0.0151137 0
-0.00310402 0.0161142 0
-0.00287386 0.0155769 0
-0.002373 0.014431 0
-0.00245537 0.0146636 0
-0.00325565 0.0164142 0
-0.00318057 0.0162655 0
-0.00256273 0.0149478 0
-0.00355285 0.017 0
-0.00250195 0.0147906 0
-0.00351511 0.016858 0
-0.00248204 0.0145547 0
-0.0024364 0.0145 0
-0.00352207 0.0168132 0
-0.00361606 0.0168846 0
-0.0024438 0.0143108 0
-0.00249472 0.0143432 0
-0.00255581 0.014387 0
-0.00251741 0.0134365 0
-0.00322538 0.0163539 0
-0.00292273 0.0157363 0
-0.00344463 0.016801 0
-0.00275757 0.0153974 0
-0.00337204 0.0166487 0
-0.00302858 0.0159642 0
-0.00285635 0.0155967 0
-0.00352989 0.0169715 0
-0.00242722 0.0145881 0
-0.00266842 0.0151998 0
-0.00330062 0.0165037 0
-0.00353674 0.0170084 0
-0.00239957 0.0145087 0
-0.00246043 0.0146812 0
-0.00307195 0.0160504 0
-0.00249399 0.014471 0
-0.00244033 0.0145695 0
-0.00351484 0.0168942 0
-0.00255459 0.0145323 0
-0.00237508 0.0144334 0
-0.00344768 0.0166877 0
-0.00248748 0.0146536 0
-0.00352893 0.0167491 0
-0.00262403 0.0144358 0
-0.00350753 0.0169353 0
-0.0028167 0.0155261 0
-0.00319619 0.0162867 0
-0.00340797 0.0167167 0
-0.00295347 0.0158127 0
-0.00273074 0.0153412 0
-0.00348681 0.0168584 0
-0.00251488 0.0148254 0
-0.00260744 0.0150552 0
-0.00312008 0.0161355 0
-0.00334773 0.0165912 0
-0.00241543 0.0145506 0
-0.0032731 0.0164401 0
-0.00299303 0.0158926 0
-0.00336275 0.0165402 0
-0.00254193 0.0147419 0
-0.00344366 0.016736 0
-0.00249646 0.0147382 0
-0.002447 0.0146261 0
-0.00262037 0.0145869 0
-0.00345021 0.0166253 0
-0.00257375 0.0141069 0
-0.00255806 0.014677 0
-0.00346457 0.0168323 0
-0.0025871 0.0149921 0
-0.00278279 0.0154556 0
-0.0028811 0.0156632 0
-0.00316701 0.0162085 0
-0.00248837 0.0147457 0
-0.00304243 0.0159793 0
-0.00324647 0.0163678 0
-0.00271131 0.0152885 0
-0.0026467 0.0151367 0
-0.0025326 0.0148576 0
-0.00340664 0.0166963 0
-0.00332366 0.0165245 0
-0.00291056 0.0157252 0
-0.00254424 0.0148155 0
-0.00331034 0.0163854 0
-0.00336136 0.0164128 0
-0.00345054 0.016539 0
-0.00262146 0.0147261 0
-0.0033676 0.0165908 0
-0.0026929 0.0146462 0
-0.00260592 0.014864 0
-0.00262738 0.0140831 0
-0.00322131 0.0162854 0
-0.00277844 0.0154412 0
-0.00269213 0.0152195 0
-0.00262512 0.0150591 0
-0.00309465 0.0160663 0
-0.00330056 0.0164498 0
-0.00283531 0.0155689 0
-0.00295559 0.0158027 0
-0.00256251 0.014905 0
-0.00269105 0.0149205 0
-0.00258649 0.0148801 0
-0.00263087 0.0148433 0
-0.00270076 0.0144875 0
-0.003371 0.0163291 0
-0.00325615 0.0162188 0
-0.00276856 0.0148653 0
-0.00271547 0.0143046 0
-0.00266961 0.0151262 0
-0.00302147 0.0159066 0
-0.00276634 0.0153934 0
-0.00328091 0.0163755 0
-0.00260298 0.0149665 0
-0.00264318 0.0150102 0
-0.00285401 0.0155936 0
-0.00320982 0.0162067 0
-0.00276563 0.0150033 0
-0.00312512 0.01609 0
-0.00329557 0.0162223 0
-0.00346257 0.0164439 0
-0.00277236 0.0147108 0
-0.00269729 0.0140493 0
-0.00274704 0.0153082 0
-0.00320088 0.0160221 0
-0.00328929 0.0161179 0
-0.00292145 0.0157021 0
-0.00283248 0.0155054 0
-0.00272127 0.0151898 0
-0.00336766 0.0162234 0
-0.00276743 0.0151286 0
-0.00304596 0.0159034 0
-0.00284606 0.015085 0
-0.00285967 0.0149487 0
-0.00278409 0.0145617 0
-0.00268806 0.0150307 0
-0.00278346 0.0142376 0
-0.00352787 0.0164451 0
-0.00297369 0.0157751 0
-0.00311978 0.0160236 0
-0.00330169 0.0159997 0
-0.00315655 0.016035 0
-0.00277987 0.0152511 0
-0.00284692 0.0152222 0
-0.00290393 0.0156168 0
-0.00284329 0.0147621 0
-0.0036392 0.016678 0
-0.00276539 0.0140217 0
-0.00280571 0.0144393 0
-0.0029796 0.015735 0
-0.00290674 0.0155567 0
-0.00309267 0.0158445 0
-0.00284711 0.0153299 0
-0.00306257 0.0158702 0
-0.00288318 0.0146668 0
-0.00320394 0.015897 0
-0.00292833 0.0153032 0
-0.00291711 0.0151601 0
-0.00359305 0.0164307 0
-0.00368054 0.0169116 0
-0.00285684 0.0141708 0
-0.00269136 0.0137864 0
-0.00312665 0.0156996 0
-0.00299615 0.0153306 0
-0.00293809 0.0154633 0
-0.00303232 0.0156622 0
-0.00371146 0.0171069 0
-0.00296269 0.0146307 0
-0.00298641 0.0156626 0
-0.00285016 0.0154074 0
-0.00261132 0.0138542 0
-0.003735 0.0169123 0
-0.00348147 0.0162164 0
-0.00265273 0.0134936 0
-0.00352738 0.0166592 0
-0.00290458 0.0154846 0
-0.00303046 0.0155413 0
-0.00305491 0.0153133 0
-0.00294633 0.0144016 0
-0.00300997 0.0149189 0
-0.00379124 0.0172058 0
-0.00341959 0.0162251 0
-0.00353452 0.0161666 0
-0.00383536 0.0170636 0
-0.00257927 0.0133846 0
-0.0030127 0.0151086 0
-0.00294572 0.0142127 0
-0.00306246 0.0147894 0
-0.00364972 0.0163716 0
-0.00326914 0.0157708 0
-0.00252403 0.0131946 0
-0.00292591 0.0149241 0
-0.00311651 0.0152563 0
-0.00319112 0.0157382 0
-0.0033522 0.0158 0
-0.00289981 0.0140249 0
-0.00345572 0.0158657 0
-0.00371085 0.016299 0
-0.00315928 0.0155267 0
-0.00309165 0.0155268 0
-0.00289769 0.0138049 0
-0.00352161 0.0157682 0
-0.00365176 0.0159732 0
-0.00357478 0.0155904 0
-0.00341565 0.0156026 0
-0.00332343 0.0153256 0
-0.00333493 0.015578 0
-0.00324188 0.0155438 0
-0.00337053 0.0151583 0
-0.00343993 0.0160123 0
-0.00313126 0.0150533 0
-0.0034762 0.0152718 0
-0.00326274 0.0150195 0
-0.00316182 0.0149 0
-0.00322067 0.0151243 0
-0.00341243 0.0150315 0
-0.00340913 0.0148131 0
-0.00319972 0.0147544 0
-0.00314008 0.0145049 0
-0.00349514 0.01508 0
-0.00330241 0.0145561 0
-0.00359645 0.0151754 0
-0.00303266 0.0143857 0
-0.00322793 0.0146045 0
-0.0031901 0.0143651 0
-0.00302001 0.0145723 0
-0.00311566 0.0140425 0
-0.00341719 0.0145087 0
-0.00318793 0.0138949 0
-0.00362573 0.0149888 0
-0.00382673 0.0167965 0
-0.0024484 0.0132433 0
-0.00280654 0.0135796 0
-0.00371728 0.015836 0
-0.00273304 0.0136184 0
-0.00299577 0.0137698 0
-0.00386661 0.0175893 0
-0.00374715 0.0165447 0
-0.00237688 0.0133144 0
-0.0030944 0.0142749 0
-0.00253656 0.0129251 0
-0.00382184 0.0165585 0
-0.00271687 0.0133766 0
-0.00423696 0.000284882 0
-0.00261534 0.000312106 0
-0.00272669 0.000283459 0
-0.00308442 0.000305956 0
-0.00355985 0.000267888 0
-0.00388583 0.000312595 0
-0.00400134 0.000300814 0
-0.00432705 0.00147045 0
-0.00429205 0.00423675 0
-0.00428865 0.0066459 0
-0.00428791 0.00952239 0
-0.0044142 0.0124837 0
-0.00450553 0.0137029 0
-0.00470528 0.0153889 0
-0.00485864 0.0165497 0
-0.00426837 0.00828795 0
-0.00430427 0.00534096 0
-0.00431584 0.00260998 0
-0.00231781 0.00973308 0
-0.0023142 0.0106863 0
-0.00231122 0.0122175 0
-0.00232688 0.00697426 0
-0.0023377 0.00260511 0
-0.00232173 0.00143052 0
-0.00233479 0.00538158 0
-0.00232319 0.0042152 0
-0.00229582 0.0131225 0
-0.00233895 0.00807741 0
-0.00407919 0.0175729 0
-0.00419131 0.0176582 0
-0.00451087 0.017708 0
-0.00460404 0.0177072 0
-0.00226576 0.013389 0
-0.00483297 0.0177172 0
-0.00384441 0.0160282 0
-0.00270526 0.0130855 0
-0.00391798 0.0170729 0
-0.00393549 0.016624 0
-0.00328512 0.0139143 0
-0.00309063 0.0137038 0
-0.00289494 0.0135254 0
-0.00372782 0.0153079 0
-0.0035757 0.0146537 0
-0.00238334 0.0130374 0
-0.00247057 0.0127223 0
-0.00392771 0.0177333 0
-0.00261993 0.0128647 0
-0.00375193 0.000244572 0
-0.00297603 0.000278806 0
-0.00250248 0.000278188 0
-0.00430677 0.00867134 0
-0.00435001 0.00180027 0
-0.00431931 0.00300146 0
-0.00432715 0.00460062 0
-0.00430719 0.00591262 0
-0.00441587 0.0119264 0
-0.00449887 0.0133252 0
-0.00465964 0.0149866 0
-0.00484662 0.0162432 0
-0.00429857 0.00993397 0
-0.0042902 0.00703107 0
-0.00430476 0.00379728 0
-0.004371 0.000923544 0
-0.00230532 0.0111912 0
-0.00228442 0.0125587 0
-0.00231263 0.0077236 0
-0.00232821 0.00576392 0
-0.00228537 0.00464426 0
-0.00231317 0.00368623 0
-0.00231663 0.000880467 0
-0.00231046 0.00644636 0
-0.00233148 0.00299108 0
-0.00228609 0.00186215 0
-0.00229435 0.0100062 0
-0.00230607 0.00916439 0
-0.00428299 0.0177066 0
-0.00420197 0.000925419 0
-0.00402757 0.000843029 0
-0.00358838 0.000865761 0
-0.00308388 0.000876962 0
-0.00261132 0.00098218 0
-0.00477785 0.0170577 0
-0.00459727 0.0170508 0
-0.00419093 0.0170855 0
-0.00401161 0.0170799 0
-0.0038719 0.000891235 0
-0.00280461 0.000848331 0
-0.00444109 0.0171528 0
-0.00456249 0.0141512 0
-0.00232543 0.0084834 0
-0.00230945 0.0118395 0
-0.00427858 0.00783969 0
-0.00494035 0.0170984 0
-0.00412125 0.00831224 0
-0.00247043 0.0080697 0
-0.00472526 0.0165859 0
-0.00457872 0.0154553 0
-0.0024142 0.0123032 0
-0.0042814 0.0124558 0
-0.00242464 0.0106742 0
-0.00244149 0.00975079 0
-0.0041414 0.00937023 0
-0.00245122 0.00696397 0
-0.00416482 0.00527517 0
-0.002464 0.00527631 0
-0.00414386 0.00428585 0
-0.00245158 0.00427405 0
-0.00417957 0.00246306 0
-0.00246912 0.00249959 0
-0.00419015 0.00136034 0
-0.0024484 0.00148627 0
-0.00415066 0.00648642 0
-0.00436098 0.0136334 0
-0.00319478 0.000268231 0
-0.00398306 0.0176297 0
-0.00279245 0.013001 0
-0.00240253 0.0127717 0
-0.00378287 0.0156872 0
-0.00227064 0.0128212 0
-0.00289076 0.0132291 0
-0.0025442 0.0126085 0
-0.003927 0.0173083 0
-0.0030759 0.0134367 0
-0.00355976 0.0153219 0
-0.00423056 0.013596 0
-0.00413569 0.0124163 0
-0.00250478 0.012308 0
-0.00387924 0.0152861 0
-0.00270255 0.0127823 0
-0.00358937 0.0143831 0
-0.00337064 0.0141688 0
-0.00368458 0.0145948 0
-0.00330107 0.0136758 0
-0.0039071 0.0163164 0
-0.00414536 0.00761742 0
-0.00418829 0.00207731 0
-0.00240609 0.00906802 0
-0.00241492 0.00633543 0
-0.00244249 0.00462291 0
-0.00242118 0.00357565 0
-0.00244448 0.00184046 0
-0.00241415 0.000838922 0
-0.00420489 0.00317266 0
-0.00416506 0.00490806 0
-0.00418566 0.00603278 0
-0.00417316 0.00719472 0
-0.00419 0.0100449 0
-0.00429781 0.0130636 0
-0.00444518 0.0142894 0
-0.00467914 0.0161633 0
-0.00455333 0.0165905 0
-0.00409239 0.0164416 0
-0.0044939 0.0147544 0
-0.00241264 0.0117095 0
-0.00421658 0.0117805 0
-0.00243697 0.0100846 0
-0.00413685 0.00896506 0
-0.00248971 0.00754322 0
-0.00244866 0.00595324 0
-0.00417368 0.00358753 0
-0.00245606 0.00318156 0
-0.00261658 0.00142113 0
-0.00305821 0.00141077 0
-0.00355464 0.00145561 0
-0.00405513 0.00141425 0
-0.00427725 0.0171253 0
-0.00442168 0.016602 0
-0.00275577 0.0014181 0
-0.00384139 0.00142673 0
-0.003986 0.0082872 0
-0.00243957 0.00868339 0
-0.00259209 0.00809325 0
-0.00443013 0.0154135 0
-0.00241374 0.0113077 0
-0.00254877 0.0107305 0
-0.00257234 0.00969661 0
-0.00399123 0.00942198 0
-0.0025926 0.00692886 0
-0.00399483 0.00529938 0
-0.00260686 0.00526323 0
-0.00399905 0.00428916 0
-0.00261382 0.0042601 0
-0.00401798 0.00245634 0
-0.00261144 0.00248381 0
-0.00369189 0.000869304 0
-0.00337667 0.000820156 0
-0.00326959 0.000828023 0
-0.00290445 0.000843596 0
-0.00398808 0.00652226 0
-0.00355415 0.0140728 0
-0.00377095 0.0144461 0
-0.00399704 0.0164838 0
-0.00288315 0.0129179 0
-0.00269335 0.012448 0
-0.00299662 0.0131568 0
-0.00242304 0.0125637 0
-0.00312205 0.0132474 0
-0.0032556 0.0133465 0
-0.00271304 0.00811724 0
-0.00428383 0.0153435 0
-0.00269155 0.00970776 0
-0.00385414 0.00825823 0
-0.00385831 0.00941927 0
-0.00390367 0.0158778 0
-0.00267674 0.0108394 0
-0.00431257 0.0141982 0
-0.00419921 0.0130224 0
-0.00251898 0.0117972 0
-0.00409634 0.0117595 0
-0.00253236 0.011292 0
-0.00340613 0.0139247 0
-0.00411404 0.0135645 0
-0.00401722 0.0123843 0
-0.00395638 0.00885253 0
-0.00398548 0.0100658 0
-0.00259984 0.00753766 0
-0.00259536 0.00632246 0
-0.0025976 0.00907201 0
-0.00261518 0.00462519 0
-0.00260854 0.00355634 0
-0.0026377 0.00185958 0
-0.00401765 0.00319463 0
-0.00399132 0.00493464 0
-0.00398727 0.00594496 0
-0.00396278 0.00720819 0
-0.00416483 0.0107247 0
-0.00447684 0.0161114 0
-0.00421927 0.0165249 0
-0.00434593 0.0147415 0
-0.0025915 0.0102167 0
-0.00418239 0.0111192 0
-0.00398639 0.00758207 0
-0.00259921 0.00599591 0
-0.00401375 0.00353576 0
-0.00261204 0.0032233 0
-0.0040208 0.00206442 0
-0.00305864 0.00197523 0
-0.00355053 0.00197454 0
-0.00295714 0.00141658 0
-0.00326586 0.00142991 0
-0.0033685 0.0014327 0
-0.0037393 0.00143956 0
-0.00433521 0.0159884 0
-0.00275502 0.00199931 0
-0.00383182 0.00205836 0
-0.002729 0.00693931 0
-0.00258278 0.00872066 0
-0.00384306 0.00536695 0
-0.00275044 0.00527883 0
-0.0038509 0.0042682 0
-0.00276987 0.00418636 0
-0.00384987 0.00248193 0
-0.00276618 0.00242935 0
-0.00384274 0.00653336 0
-0.00395998 0.0157108 0
-0.00393216 0.0125413 0
-0.00399368 0.013357 0
-0.00403897 0.0137404 0
-0.00391491 0.0121605 0
-0.00368081 0.0140978 0
-0.00347978 0.0137637 0
-0.00306089 0.0129764 0
-0.00259319 0.0123612 0
-0.00402335 0.0160499 0
-0.00381008 0.0148315 0
-0.00287592 0.0126084 0
-0.0028854 0.00531761 0
-0.00371306 0.00537216 0
-0.00285733 0.00696958 0
-0.00370748 0.00651941 0
-0.00404859 0.0106574 0
-0.00385783 0.00715902 0
-0.00269083 0.00913323 0
-0.00388499 0.0100486 0
-0.00267029 0.0102443 0
-0.0033656 0.0132818 0
-0.00421991 0.0147138 0
-0.00386953 0.00883874 0
-0.00386614 0.00764298 0
-0.00269643 0.00866988 0
-0.003282 0.0130663 0
-0.00417936 0.0158647 0
-0.00407473 0.0111749 0
-0.00279273 0.00812631 0
-0.00374589 0.00824477 0
-0.00417089 0.0153088 0
-0.00279107 0.00973071 0
-0.00375019 0.00940771 0
-0.00262012 0.0113028 0
-0.0040065 0.0117422 0
-0.00304578 0.00255142 0
-0.003578 0.00256205 0
-0.00296197 0.00194899 0
-0.00326353 0.00199729 0
-0.00336564 0.00199707 0
-0.00372715 0.00199096 0
-0.00385739 0.00319754 0
-0.00277063 0.00473642 0
-0.00276541 0.00354606 0
-0.0027227 0.00754856 0
-0.00381718 0.00483729 0
-0.00381799 0.00594522 0
-0.00276604 0.00633038 0
-0.0027481 0.0059839 0
-0.00385711 0.00352456 0
-0.00276527 0.00322935 0
-0.00370136 0.00256221 0
-0.00370348 0.00425695 0
-0.00291608 0.00416488 0
-0.0029208 0.00251272 0
-0.00436426 0.0107243 0
-0.00326474 0.0127463 0
-0.00347095 0.0134901 0
-0.00345293 0.0131919 0
-0.0038824 0.0147048 0
-0.00305657 0.0126981 0
-0.0040622 0.0151421 0
-0.0027042 0.0114525 0
-0.00287423 0.00991494 0
-0.00366611 0.00958103 0
-0.00365822 0.00840624 0
-0.00365908 0.00806202 0
-0.00366028 0.00922036 0
-0.00287351 0.00958243 0
-0.00389961 0.0117339 0
-0.00411594 0.01547 0
-0.00296091 0.0125048 0
-0.00279064 0.012391 0
-0.00372065 0.0138764 0
-0.00255309 0.0120819 0
-0.00395457 0.0129483 0
-0.0040958 0.0140896 0
-0.00355235 0.00424231 0
-0.00372824 0.00484188 0
-0.00372209 0.00593754 0
-0.00286199 0.00638985 0
-0.00283258 0.00755371 0
-0.00286724 0.00591797 0
-0.00406966 0.0158793 0
-0.00297121 0.00534075 0
-0.00362603 0.00535408 0
-0.0029617 0.006992 0
-0.00360024 0.0065002 0
-0.00400569 0.0153 0
-0.00380008 0.0122934 0
-0.00387775 0.0135434 0
-0.00293381 0.00476993 0
-0.00291523 0.00354223 0
-0.00365999 0.00710275 0
-0.00370333 0.00352997 0
-0.00369705 0.00319695 0
-0.00291215 0.00323221 0
-0.00304479 0.00321864 0
-0.00354062 0.00310772 0
-0.00326196 0.00257169 0
-0.00336526 0.00256837 0
-0.00383669 0.0106214 0
-0.00306515 0.00417406 0
-0.00356028 0.0133668 0
-0.00287544 0.0123062 0
-0.00355479 0.00820151 0
-0.00355614 0.00940956 0
-0.00399899 0.0147862 0
-0.00260253 0.0118876 0
-0.00304378 0.00717259 0
-0.00351795 0.00668493 0
-0.00351005 0.00634704 0
-0.0030484 0.00684705 0
-0.0028712 0.00811272 0
-0.00336383 0.0127544 0
-0.00380078 0.0141506 0
-0.00385905 0.0129217 0
-0.00267189 0.0111598 0
-0.00270288 0.0118549 0
-0.0028771 0.0103049 0
-0.0038602 0.0112899 0
-0.00321326 0.00421516 0
-0.0030305 0.00478117 0
-0.00354375 0.00703868 0
-0.00371267 0.0106056 0
-0.00357659 0.00358515 0
-0.00314609 0.0125706 0
-0.0027244 0.012184 0
-0.00340426 0.0042341 0
-0.00298903 0.00973314 0
-0.00364559 0.00880776 0
-0.00288063 0.00926664 0
-0.00306714 0.00352321 0
-0.00351729 0.00491591 0
-0.00364967 0.00771538 0
-0.00366047 0.00996707 0
-0.00327065 0.00319412 0
-0.00337486 0.00312929 0
-0.00288929 0.00867628 0
-0.00370686 0.0135343 0
-0.00390992 0.0141754 0
-0.00340075 0.00653238 0
-0.00305663 0.00533015 0
-0.00279945 0.0118574 0
-0.00372291 0.0112145 0
-0.00344362 0.012914 0
-0.00304403 0.0123388 0
-0.00298086 0.00811019 0
-0.00299806 0.00868605 0
-0.00340234 0.00484078 0
-0.00353705 0.00765132 0
-0.00351228 0.00878639 0
-0.00298159 0.0092731 0
-0.00321997 0.0123791 0
-0.00279338 0.0114645 0
-0.0033093 0.00423777 0
-0.00314933 0.00703253 0
-0.00278583 0.010833 0
-0.00327063 0.00354854 0
-0.00352563 0.00529647 0
-0.00304811 0.00751414 0
-0.00306407 0.00651539 0
-0.00349758 0.00599511 0
-0.00321383 0.00479865 0
-0.00337627 0.00361297 0
-0.0030747 0.00591119 0
-0.00353993 0.0128162 0
-0.00317396 0.012066 0
-0.00298645 0.012013 0
-0.00288263 0.0119862 0
-0.00286645 0.0110139 0
-0.00286345 0.0106788 0
-0.00317657 0.00531762 0
-0.00319417 0.00591428 0
-0.00317481 0.00649842 0
-0.00336658 0.00593189 0
-0.00315931 0.00757948 0
-0.00362304 0.0131452 0
-0.00339572 0.00533442 0
-0.0030985 0.00869955 0
-0.00334715 0.00709848 0
-0.00332605 0.00821962 0
-0.00342892 0.0126191 0
-0.00295956 0.0108826 0
-0.002875 0.0113765 0
-0.00317632 0.00887919 0
-0.00284174 0.0116755 0
-0.00360156 0.0125941 0
-0.00308046 0.012038 0
-0.00299606 0.010369 0
-0.0032 0.00822019 0
-0.00366633 0.0128663 0
-0.00328094 0.00592043 0
-0.00334859 0.00760095 0
-0.00359134 0.0122679 0
-0.00297809 0.0114435 0
-0.0031819 0.00855908 0
-0.00302741 0.0117422 0
-0.0033992 0.0122813 0
-0.00318104 0.00923725 0
-0.00378058 0.0128945 0
-0.00334366 0.00851994 0
-0.00368639 0.0122086 0
-0.00347884 0.0121159 0
-0.00328379 0.0120987 0
-0.00327901 0.00875014 0
-0.00371382 0.0119222 0
-0.00321009 0.0117908 0
-0.00337868 0.0118998 0
-0.00354092 0.0119369 0
-0.00359476 0.011688 0
-0.00315634 0.0115003 0
-0.00332843 0.0115615 0
-0.00342055 0.0116147 0
-0.00350077 0.0116949 0
-0.00378427 0.0117378 0
-0.00306758 0.0114744 0
-0.0032416 0.0115193 0
-0.00370129 0.0115638 0
-0.0031911 0.0112319 0
-0.0030181 0.0111836 0
-0.00337225 0.0112975 0
-0.00322327 0.0109672 0
-0.00305805 0.0109348 0
-0.00341396 0.0110026 0
-0.00314064 0.0109628 0
-0.00316673 0.0107088 0
-0.00331274 0.0109633 0
-0.00352067 0.0110423 0
-0.00302456 0.0106634 0
-0.00309263 0.0104988 0
-0.00334541 0.0105434 0
-0.00319578 0.0103942 0
-0.0031763 0.0100486 0
-0.00322236 0.00981386 0
-0.00311724 0.00978439 0
-0.00334179 0.00985901 0
-0.00317003 0.0095571 0
-0.00299684 0.00947755 0
-0.00327865 0.00924605 0
-0.00336487 0.00941766 0
-0.00333733 0.00905702 0
-0.00346054 0.00946384 0
-0.00350393 0.00969272 0
-0.00339558 0.00877705 0
-0.00354985 0.00995522 0
-0.00345521 0.00993522 0
-0.00366673 0.0102988 0
-0.00334124 0.0101875 0
-0.00351025 0.0102153 0
-0.00347514 0.0105013 0
-0.00359 0.0104768 0
-0.00354826 0.0107595 0
-0.00369585 0.0109006 0
-0.00362024 0.0109981 0
-0.00489043 0.018611 0
-0.00471416 0.0185317 0
-0.00454161 0.0186941 0
-0.00440061 0.018686 0
-0.00427006 0.0184258 0
-0.00414156 0.0186222 0
-0.00400115 0.0186222 0
-0.0038674 0.018615 0
-0.00378976 0.0185743 0
-0.00367049 0.0187373 0
-0.00356413 0.0189372 0
-0.00486457 0.0190655 0
-0.00465408 0.0190558 0
-0.00450413 0.0191692 0
-0.00434735 0.0192036 0
-0.00419672 0.0192632 0
-0.00406801 0.0191885 0
-0.00392957 0.0191836 0
-0.00373981 0.0192538 0
-0.00360683 0.0192584 0
-0.00338307 0.019472 0
-0.00316562 0.0197768 0
-0.00292755 0.0205032 0
-0.0047371 0.0197316 0
-0.00463967 0.0196893 0
-0.00444182 0.0196354 0
-0.004286 0.0197215 0
-0.00413942 0.0196824 0
-0.00397126 0.019771 0
-0.00377359 0.0198379 0
-0.00360328 0.0198418 0
-0.00340483 0.0199384 0
-0.00312711 0.0202377 0
-0.00287973 0.0204426 0
-0.0025655 0.0210623 0
-0.00236161 0.0216523 0
-0.00472837 0.0201527 0
-0.0045497 0.0202461 0
-0.00442671 0.0202612 0
-0.00420467 0.0202137 0
-0.00404272 0.0203703 0
-0.00388315 0.0203322 0
-0.00365181 0.0205309 0
-0.0034717 0.0203938 0
-0.0032627 0.0205557 0
-0.00293782 0.0209137 0
-0.0026985 0.021144 0
-0.00245717 0.0215632 0
-0.00230745 0.0219035 0
-0.00457435 0.0209449 0
-0.00444443 0.0208927 0
-0.0043022 0.0208767 0
-0.00415108 0.0208865 0
-0.00399837 0.0209113 0
-0.00374504 0.0211048 0
-0.00353498 0.0212286 0
-0.00333572 0.0210782 0
-0.00313113 0.0212309 0
-0.00284866 0.0215579 0
-0.00266431 0.0216582 0
-0.00244447 0.0219632 0
-0.00230618 0.0222443 0
-0.00455804 0.0214177 0
-0.00437009 0.0214573 0
-0.00421808 0.021485 0
-0.00406167 0.0215126 0
-0.00388697 0.021554 0
-0.00365915 0.0218862 0
-0.00343523 0.0218767 0
-0.00321297 0.0218206 0
-0.00296895 0.0220282 0
-0.00279314 0.022042 0
-0.00264229 0.0222074 0
-0.00243687 0.022437 0
-0.0023175 0.0225684 0
-0.00445065 0.0219218 0
-0.00430001 0.0220191 0
-0.00415119 0.0220697 0
-0.00399596 0.0221175 0
-0.00382102 0.022201 0
-0.00361283 0.0224978 0
-0.00340255 0.0224578 0
-0.0031937 0.022455 0
-0.00297772 0.0225192 0
-0.00277833 0.0225656 0
-0.00262908 0.0227455 0
-0.0024299 0.0229373 0
-0.00233115 0.0230693 0
-0.00438003 0.022631 0
-0.00424199 0.0226299 0
-0.00410134 0.0226635 0
-0.00396573 0.0227029 0
-0.0037347 0.0228677 0
-0.00353576 0.0230237 0
-0.0033731 0.023056 0
-0.00318621 0.0230002 0
-0.00300156 0.0230188 0
-0.00278058 0.0231557 0
-0.00261151 0.0232925 0
-0.00248009 0.0233503 0
-0.00233636 0.0234799 0
-0.00439484 0.0230654 0
-0.00420637 0.0231982 0
-0.00405452 0.0232478 0
-0.00389877 0.0232755 0
-0.00366266 0.0233606 0
-0.00350952 0.0234876 0
-0.00332368 0.023626 0
-0.00317245 0.0235068 0
-0.00302322 0.02346 0
-0.00274 0.0237561 0
-0.0026002 0.0238389 0
-0.00248784 0.0238798 0
-0.00238172 0.0238596 0
-0.0042836 0.0238804 0
-0.00415033 0.0238349 0
-0.00400937 0.0238516 0
-0.00385527 0.023905 0
-0.00362155 0.0239951 0
-0.00347191 0.0240573 0
-0.0032957 0.0241635 0
-0.00313205 0.0240433 0
-0.00298593 0.0241335 0
-0.00274351 0.0242381 0
-0.00260903 0.0243518 0
-0.00248997 0.0244242 0
-0.00235221 0.0245413 0
-0.00429845 0.0243602 0
-0.00411508 0.0243946 0
-0.00397421 0.0244252 0
-0.0038442 0.0244586 0
-0.00363375 0.0244638 0
-0.00342498 0.0246102 0
-0.00327617 0.0246409 0
-0.00314187 0.0245396 0
-0.00290828 0.024745 0
-0.00273861 0.0248039 0
-0.00262613 0.0248696 0
-0.00251182 0.0249152 0
-0.00240034 0.024915 0
-0.00422503 0.0248646 0
-0.00408128 0.0249543 0
-0.0039386 0.0250019 0
-0.00379355 0.0250461 0
-0.00363975 0.0251042 0
-0.003487 0.0250719 0
-0.00330114 0.0251235 0
-0.00314915 0.0249899 0
-0.00290447 0.0252364 0
-0.00276977 0.0253297 0
-0.0026425 0.0253983 0
-0.00252225 0.0254539 0
-0.00240896 0.0255342 0
-0.00420424 0.0255697 0
-0.00406217 0.0255579 0
-0.00391845 0.0255866 0
-0.00377094 0.02563 0
-0.00361714 0.0256912 0
-0.00346526 0.0256235 0
-0.00326799 0.0256987 0
-0.00312252 0.0257502 0
-0.00291656 0.0258386 0
-0.00277859 0.0258894 0
-0.00264991 0.0259282 0
-0.0025253 0.025957 0
-0.00237278 0.0259802 0
-0.00424749 0.0260027 0
-0.00406244 0.0261179 0
-0.0039105 0.0261601 0
-0.00376476 0.0261977 0
-0.00361798 0.026261 0
-0.00345108 0.0261807 0
-0.0032567 0.0262566 0
-0.00311789 0.0263241 0
-0.00291892 0.026398 0
-0.00278253 0.0264328 0
-0.00265415 0.026456 0
-0.00253212 0.0264625 0
-0.00241542 0.0264198 0
-0.00418477 0.0267967 0
-0.00404481 0.0267407 0
-0.00390235 0.0267412 0
-0.00376197 0.0267513 0
-0.00362495 0.0267483 0
-0.00340813 0.0266532 0
-0.00326218 0.0267817 0
-0.00313294 0.0268992 0
-0.00292382 0.0269634 0
-0.0027865 0.0269766 0
-0.00265797 0.0269968 0
-0.00253444 0.027016 0
-0.00241588 0.0270595 0
-0.00422457 0.027264 0
-0.00404127 0.0272854 0
-0.00389736 0.0273045 0
-0.00375713 0.0273262 0
-0.00361222 0.0273603 0
-0.00340425 0.0274097 0
-0.00329277 0.0274357 0
-0.00310139 0.0274133 0
-0.00290773 0.0274975 0
-0.00278926 0.0275163 0
-0.00266076 0.0275316 0
-0.00252838 0.027531 0
-0.00237192 0.0274633 0
-0.00417739 0.0277395 0
-0.00403793 0.0278277 0
-0.00389481 0.0278643 0
-0.00375625 0.0278877 0
-0.00363375 0.0279015 0
-0.00344877 0.027898 0
-0.00325778 0.0279311 0
-0.0030503 0.0280661 0
-0.00292286 0.0280479 0
-0.00279795 0.0280616 0
-0.00266568 0.0280781 0
-0.00253436 0.028089 0
-0.0024259 0.02809 0
-0.00422931 0.0285064 0
-0.00404633 0.0284388 0
-0.00389258 0.0284429 0
-0.00374685 0.0284564 0
-0.00361092 0.0284589 0
-0.00347964 0.0284365 0
-0.00326434 0.0284181 0
-0.0030576 0.0284968 0
-0.00293265 0.0285689 0
-0.00280581 0.0285996 0
-0.00267035 0.0286217 0
-0.00253058 0.0286434 0
-0.00236607 0.0287028 0
-0.00417553 0.0289442 0
-0.00403638 0.0290032 0
-0.0038905 0.0290322 0
-0.00374298 0.0290515 0
-0.00360284 0.0290609 0
-0.0034783 0.0290499 0
-0.00325521 0.0288747 0
-0.00307023 0.0290593 0
-0.00294996 0.0291143 0
-0.00281606 0.0291435 0
-0.00267716 0.0291613 0
-0.00253797 0.0291711 0
-0.00238662 0.0291412 0
-0.0041779 0.0295681 0
-0.00405316 0.0296794 0
-0.00389834 0.0297207 0
-0.00374321 0.0297409 0
-0.00358761 0.0297507 0
-0.00344117 0.0296914 0
-0.00327663 0.0296596 0
-0.00310832 0.0296643 0
-0.00296385 0.029694 0
-0.00282174 0.0297012 0
-0.00268142 0.0297143 0
-0.00254692 0.0297344 0
-0.00242154 0.029788 0
-0.00426667 0.0301559 0
-0.00405854 0.0300073 0
-0.00390026 0.0300311 0
-0.00374596 0.030052 0
-0.00358579 0.0300935 0
-0.00343329 0.030206 0
-0.0032585 0.030121 0
-0.00314035 0.0302862 0
-0.00293081 0.0302353 0
-0.00281563 0.0302489 0
-0.00267937 0.0302612 0
-0.00253936 0.0302567 0
-0.00237652 0.0301851 0
-0.00419274 0.0305505 0
-0.00404945 0.0305938 0
-0.00390152 0.0306125 0
-0.00375743 0.0306417 0
-0.00363343 0.0306636 0
-0.00340523 0.0307924 0
-0.00327951 0.0307341 0
-0.00312891 0.0307584 0
-0.00296395 0.0307919 0
-0.0028222 0.0308408 0
-0.00267919 0.0308676 0
-0.00253856 0.0308698 0
-0.00242499 0.0308476 0
-0.00422854 0.0313085 0
-0.00405112 0.0312395 0
-0.00390807 0.0312318 0
-0.0037921 0.0312357 0
-0.0035737 0.0313423 0
-0.00342128 0.0312862 0
-0.0032775 0.0312901 0
-0.00313522 0.0313202 0
-0.00299437 0.0314254 0
-0.00282545 0.0313571 0
-0.00268021 0.0314788 0
-0.00251685 0.0314701 0
-0.00232489 0.0313703 0
-0.00417789 0.0317428 0
-0.00403965 0.0318182 0
-0.00389738 0.0318176 0
-0.0037574 0.0317933 0
-0.00359478 0.0318079 0
-0.00342248 0.0318186 0
-0.00327798 0.031828 0
-0.00313527 0.0318462 0
-0.00297107 0.0318607 0
-0.00282229 0.0318443 0
-0.00267392 0.0318696 0
-0.00251362 0.0318139 0
-0.00237335 0.0319029 0
-0.00424306 0.032396 0
-0.00404944 0.0324279 0
-0.00385995 0.0324402 0
-0.00373951 0.0323781 0
-0.00359152 0.0323442 0
-0.00342205 0.03235 0
-0.00327519 0.032375 0
-0.00312946 0.0323744 0
-0.00296344 0.0323933 0
-0.00281528 0.0324252 0
-0.00266472 0.0324343 0
-0.00251422 0.032462 0
-0.00237541 0.0325373 0
-0.00421787 0.0328883 0
-0.0040426 0.0327801 0
-0.00388475 0.032823 0
-0.00372824 0.0330374 0
-0.00357619 0.0328343 0
-0.00342521 0.0328428 0
-0.00326719 0.0330654 0
-0.00311595 0.0328698 0
-0.00296636 0.0328934 0
-0.00280606 0.0331561 0
-0.00264748 0.0329866 0
-0.0025142 0.0330252 0
-0.00235532 0.0330977 0
-0.00223029 0.0219371 0
-0.00222599 0.0220464 0
-0.00222705 0.0219868 0
-0.00222739 0.0219748 0
-0.00222931 0.021945 0
-0.00223521 0.0219178 0
-0.00223771 0.0219122 0
-0.0037645 0.0180739 0
-0.00377015 0.0180721 0
-0.00365282 0.0181499 0
-0.00368153 0.0181225 0
-0.00370061 0.0181043 0
-0.00371766 0.0180933 0
-0.00373058 0.0180872 0
-0.00374122 0.0180829 0
-0.00375026 0.0180793 0
-0.00375789 0.0180765 0
-0.00377506 0.0180707 0
-0.00377961 0.0180697 0
-0.00378386 0.0180687 0
-0.00378795 0.0180677 0
-0.00379202 0.0180668 0
-0.00379594 0.0180663 0
-0.00380003 0.0180671 0
-0.00222658 0.0220142 0
-0.00222678 0.0219999 0
-0.00222782 0.0219639 0
-0.00222855 0.021954 0
-0.0022316 0.02193 0
-0.00223322 0.0219236 0
-0.0022408 0.0219064 0
-0.00224774 0.0219001 0
-0.00335811 0.0199289 0
-0.0035475 0.018958 0
-0.0028101 0.0213558 0
-0.00316664 0.0205557 0
-0.00308185 0.0207814 0
-0.00356477 0.0188124 0
-0.00271699 0.0215063 0
-0.00348014 0.0193856 0
-0.00252768 0.0217352 0
-0.00290191 0.0211835 0
-0.00342343 0.0196615 0
-0.00276377 0.0214339 0
-0.0026227 0.0216331 0
-0.00352755 0.019102 0
-0.00257537 0.0216873 0
-0.00312485 0.0206706 0
-0.00242731 0.0218138 0
-0.00236787 0.0218461 0
-0.0034529 0.0195247 0
-0.0024788 0.0217773 0
-0.00328552 0.0201882 0
-0.00339181 0.0197962 0
-0.00303789 0.0208884 0
-0.00320743 0.0204368 0
-0.00267001 0.0215728 0
-0.00332259 0.0200596 0
-0.00285612 0.0212722 0
-0.00294757 0.0210898 0
-0.00350506 0.0192447 0
-0.0035784 0.0186672 0
-0.00222813 0.0220795 0
-0.00380699 0.0180887 0
-0.00223188 0.0221116 0
-0.00381297 0.0181247 0
-0.0022387 0.0221722 0
-0.00382517 0.0181746 0
-0.00376926 0.0181361 0
-0.00223874 0.0219354 0
-0.00223389 0.0219756 0
-0.00225183 0.0219085 0
-0.00374229 0.0181556 0
-0.00372088 0.018173 0
-0.00375787 0.0181435 0
-0.00377845 0.0181331 0
-0.00378672 0.0181292 0
-0.00379477 0.0181286 0
-0.00223277 0.0220023 0
-0.00223569 0.0219535 0
-0.00224386 0.0219206 0
-0.00227596 0.0218907 0
-0.0037909 0.0181275 0
-0.00376416 0.0181389 0
-0.00373257 0.0181632 0
-0.00375078 0.0181489 0
-0.00377395 0.0181349 0
-0.00378267 0.0181314 0
-0.00223243 0.0220179 0
-0.00223329 0.0219882 0
-0.0022345 0.0219642 0
-0.00223718 0.021944 0
-0.00224101 0.0219276 0
-0.00224743 0.0219143 0
-0.0022577 0.0219026 0
-0.00223327 0.0220513 0
-0.0037992 0.0181378 0
-0.0036155 0.0181641 0
-0.00299306 0.0209913 0
-0.00324709 0.0203142 0
-0.00282406 0.0211918 0
-0.00332143 0.0199275 0
-0.00305848 0.0206697 0
-0.002645 0.0215233 0
-0.00273375 0.021369 0
-0.00357547 0.0188464 0
-0.00246962 0.0217564 0
-0.00343562 0.0195325 0
-0.00314888 0.0204355 0
-0.00301212 0.0207815 0
-0.00355319 0.0189863 0
-0.00339988 0.0196651 0
-0.00352787 0.019125 0
-0.00349969 0.0192625 0
-0.00251343 0.0217078 0
-0.0026009 0.0215913 0
-0.00237335 0.0218373 0
-0.0026893 0.0214493 0
-0.0025571 0.0216528 0
-0.00346891 0.0193984 0
-0.00242354 0.0217994 0
-0.00310405 0.0205546 0
-0.00359424 0.0187046 0
-0.00336172 0.0197966 0
-0.00327963 0.0200576 0
-0.00287044 0.0210956 0
-0.00360979 0.0185559 0
-0.00277853 0.0212831 0
-0.00229226 0.021874 0
-0.00223909 0.0220731 0
-0.00380057 0.0181959 0
-0.00224742 0.0221033 0
-0.00380192 0.0182695 0
-0.00225777 0.0222767 0
-0.00384567 0.0182552 0
-0.00224941 0.0219217 0
-0.00226381 0.0219005 0
-0.00225321 0.021914 0
-0.00225796 0.021907 0
-0.00374901 0.0182133 0
-0.00374065 0.0182243 0
-0.00373182 0.0182348 0
-0.00372081 0.0182482 0
-0.00369526 0.0182797 0
-0.0022716 0.021894 0
-0.00228306 0.0218865 0
-0.00223892 0.0220027 0
-0.00223956 0.021987 0
-0.00377939 0.0181941 0
-0.00223869 0.0220223 0
-0.00224635 0.0219301 0
-0.00377493 0.0181978 0
-0.00377032 0.0182001 0
-0.00378771 0.0181873 0
-0.00224043 0.0219729 0
-0.00224153 0.0219604 0
-0.00376545 0.0182009 0
-0.00365154 0.018362 0
-0.00291763 0.0209949 0
-0.00319315 0.0203126 0
-0.00323677 0.0201863 0
-0.00296508 0.0208901 0
-0.00362146 0.0186099 0
-0.00360228 0.0187459 0
-0.00357886 0.0188817 0
-0.0023787 0.0218194 0
-0.00348809 0.0192827 0
-0.00345207 0.0194138 0
-0.00352145 0.01915 0
-0.00355181 0.0190163 0
-0.00250073 0.0216752 0
-0.0025412 0.0216135 0
-0.00246084 0.0217301 0
-0.00258217 0.0215452 0
-0.00242035 0.0217781 0
-0.00262351 0.0214703 0
-0.00266541 0.0213891 0
-0.00270827 0.0213015 0
-0.00275268 0.0212081 0
-0.00279906 0.0211095 0
-0.00299473 0.0206773 0
-0.00304313 0.020562 0
-0.0034133 0.0195436 0
-0.00309112 0.0204434 0
-0.0033717 0.019673 0
-0.00328122 0.019934 0
-0.00332748 0.0198031 0
-0.00224409 0.0220365 0
-0.00378963 0.018236 0
-0.00225217 0.0220495 0
-0.00378475 0.018314 0
-0.00226235 0.0221431 0
-0.00380124 0.0183792 0
-0.00378242 0.0182497 0
-0.0037557 0.0182636 0
-0.00377446 0.0182561 0
-0.00225665 0.0219136 0
-0.00226707 0.0218962 0
-0.00226136 0.0219044 0
-0.00227413 0.0218889 0
-0.0023131 0.0218654 0
-0.00372942 0.0183006 0
-0.00371867 0.0183195 0
-0.00370573 0.0183433 0
-0.00374652 0.0182686 0
-0.00225003 0.0219347 0
-0.0022458 0.0219834 0
-0.00228298 0.0218819 0
-0.00229561 0.0218737 0
-0.00376914 0.0182638 0
-0.00224816 0.0219537 0
-0.00376433 0.0182671 0
-0.00375983 0.0182668 0
-0.00224711 0.0219674 0
-0.00233543 0.0218541 0
-0.00313881 0.0203208 0
-0.00294567 0.0207901 0
-0.00323399 0.020065 0
-0.00284722 0.0210066 0
-0.00343095 0.0194311 0
-0.00338715 0.0195573 0
-0.00264504 0.021327 0
-0.00303486 0.0204594 0
-0.00364836 0.0185279 0
-0.00256575 0.0214963 0
-0.00350954 0.0191766 0
-0.00347172 0.0193044 0
-0.00241614 0.0217528 0
-0.00260465 0.0214152 0
-0.00245269 0.0216994 0
-0.00248977 0.0216386 0
-0.00252747 0.0215709 0
-0.00354455 0.0190473 0
-0.00360415 0.018787 0
-0.00357627 0.0189169 0
-0.00298446 0.0205772 0
-0.0023796 0.0217983 0
-0.00268758 0.0212321 0
-0.0027332 0.0211311 0
-0.00318641 0.0201944 0
-0.00333998 0.0196854 0
-0.00328991 0.0198166 0
-0.00289635 0.0208999 0
-0.00362069 0.0183609 0
-0.00367079 0.0183688 0
-0.0023135 0.0218714 0
-0.00224838 0.0220062 0
-0.00225496 0.02201 0
-0.00377419 0.0183277 0
-0.00226524 0.0220609 0
-0.00377378 0.0184244 0
-0.00234556 0.0218353 0
-0.00374293 0.0183212 0
-0.00376884 0.0183188 0
-0.0022622 0.0219063 0
-0.00225604 0.0219317 0
-0.0022681 0.0218933 0
-0.00374683 0.0183311 0
-0.00376091 0.018332 0
-0.00227492 0.0218826 0
-0.00228288 0.0218735 0
-0.00372632 0.0183583 0
-0.0037143 0.0183859 0
-0.00370084 0.018417 0
-0.0036862 0.0184538 0
-0.00229308 0.0218652 0
-0.00225189 0.0219817 0
-0.00225538 0.0219436 0
-0.00375549 0.0183364 0
-0.00225411 0.0219604 0
-0.00375082 0.0183363 0
-0.0029338 0.0206935 0
-0.00308484 0.0203383 0
-0.00323822 0.0199498 0
-0.00340701 0.0194491 0
-0.0034519 0.0193266 0
-0.00318634 0.0200823 0
-0.00258849 0.0213592 0
-0.00262849 0.021264 0
-0.00278167 0.0210256 0
-0.00283198 0.020917 0
-0.00251539 0.0215262 0
-0.00255114 0.0214466 0
-0.00364712 0.0185894 0
-0.0031351 0.0202124 0
-0.00244565 0.0216656 0
-0.00349362 0.0192034 0
-0.00298143 0.0204818 0
-0.00353257 0.0190784 0
-0.00248015 0.0215995 0
-0.00356874 0.0189509 0
-0.00241152 0.0217245 0
-0.00362798 0.0186964 0
-0.00360109 0.0188226 0
-0.00237822 0.0217759 0
-0.00335823 0.019574 0
-0.00288285 0.0208068 0
-0.00267264 0.0211609 0
-0.00330523 0.0197045 0
-0.0036688 0.0184812 0
-0.00226594 0.0220062 0
-0.00375956 0.0184302 0
-0.0022862 0.0220656 0
-0.00375016 0.018584 0
-0.00226461 0.0219058 0
-0.00372385 0.0184069 0
-0.00373245 0.018391 0
-0.00227329 0.0218828 0
-0.00374893 0.0184083 0
-0.0022815 0.0218675 0
-0.00370771 0.018449 0
-0.00369343 0.0184834 0
-0.00229023 0.0218559 0
-0.00232533 0.0218344 0
-0.00226412 0.0219157 0
-0.00230108 0.0218457 0
-0.00373408 0.0184074 0
-0.00226366 0.0219295 0
-0.00374396 0.0184078 0
-0.00226237 0.0219529 0
-0.00373861 0.0184102 0
-0.00292882 0.0206004 0
-0.00303334 0.0203643 0
-0.00343034 0.0193476 0
-0.0034755 0.0192284 0
-0.00253837 0.0213973 0
-0.00277178 0.0209404 0
-0.00319268 0.0199757 0
-0.00250439 0.0214819 0
-0.00308381 0.0202408 0
-0.00257522 0.0213036 0
-0.00338122 0.0194685 0
-0.00324942 0.0198395 0
-0.00313717 0.0201104 0
-0.00247147 0.0215594 0
-0.0028773 0.0207164 0
-0.00351782 0.0191072 0
-0.00355793 0.0189822 0
-0.00243901 0.0216301 0
-0.00365744 0.018587 0
-0.00240728 0.021693 0
-0.00359526 0.0188542 0
-0.00237603 0.0217486 0
-0.00362768 0.0187258 0
-0.00282465 0.0208276 0
-0.00225637 0.0219851 0
-0.0027208 0.0210522 0
-0.00261716 0.0211996 0
-0.00332664 0.0195969 0
-0.0022648 0.021973 0
-0.00375337 0.0184178 0
-0.00228484 0.0219841 0
-0.00373059 0.0185751 0
-0.00228379 0.0221623 0
-0.00369166 0.0188312 0
-0.00370955 0.018495 0
-0.00227911 0.0218682 0
-0.00227316 0.0218875 0
-0.00369608 0.01852 0
-0.0022956 0.0218376 0
-0.00368274 0.0185509 0
-0.00367342 0.0185705 0
-0.00230746 0.0218242 0
-0.0023231 0.0218116 0
-0.00227393 0.0218932 0
-0.00373118 0.0184737 0
-0.00234351 0.0218004 0
-0.00371718 0.0184901 0
-0.00227395 0.0219077 0
-0.00372353 0.0184866 0
-0.00345697 0.0192496 0
-0.00340814 0.0193676 0
-0.00249435 0.0214399 0
-0.00246324 0.0215208 0
-0.00303237 0.0202832 0
-0.00350227 0.019132 0
-0.00288 0.0206339 0
-0.00252764 0.0213501 0
-0.00308627 0.0201514 0
-0.00314492 0.0200134 0
-0.00277025 0.0208519 0
-0.00282768 0.0207327 0
-0.0035451 0.0190108 0
-0.00243251 0.0215952 0
-0.00240399 0.0216603 0
-0.00358739 0.0188806 0
-0.00237654 0.0217164 0
-0.00365403 0.0186364 0
-0.00362473 0.0187526 0
-0.0027158 0.0209702 0
-0.00326744 0.0197328 0
-0.00266443 0.0210873 0
-0.0025666 0.0212473 0
-0.00335329 0.0194931 0
-0.00320608 0.0198729 0
-0.0029892 0.020396 0
-0.00373 0.0184991 0
-0.00373068 0.0185273 0
-0.00227512 0.0219274 0
-0.0022776 0.021952 0
-0.00232127 0.0220607 0
-0.00231107 0.0219654 0
-0.00369387 0.0187324 0
-0.00371697 0.0189015 0
-0.00368046 0.018602 0
-0.00229381 0.0218311 0
-0.00367651 0.0186047 0
-0.00229922 0.0218229 0
-0.00366354 0.0186339 0
-0.00228598 0.0218517 0
-0.00231146 0.0218027 0
-0.00234899 0.0217674 0
-0.00232823 0.0217835 0
-0.00369095 0.0185797 0
-0.00228596 0.0218614 0
-0.00370577 0.0185684 0
-0.00369772 0.0185736 0
-0.0034378 0.0192714 0
-0.00297393 0.0203553 0
-0.00245526 0.0214866 0
-0.00348662 0.0191535 0
-0.00242621 0.0215633 0
-0.00248541 0.0214019 0
-0.00303037 0.0202114 0
-0.0035313 0.0190382 0
-0.00284989 0.0206106 0
-0.00309383 0.0200649 0
-0.00277972 0.0207539 0
-0.00357344 0.0189192 0
-0.00239866 0.0216324 0
-0.00338394 0.0193932 0
-0.00271928 0.0208834 0
-0.00237828 0.021685 0
-0.00329205 0.0196287 0
-0.00315958 0.0199182 0
-0.00261219 0.0211326 0
-0.00252088 0.021303 0
-0.00266352 0.0210099 0
-0.00228697 0.0218763 0
-0.00322655 0.0197718 0
-0.00370248 0.0186058 0
-0.00228928 0.0218962 0
-0.0023303 0.0218689 0
-0.00229244 0.0219195 0
-0.00380218 0.0186962 0
-0.00236232 0.0221391 0
-0.00234749 0.0218924 0
-0.00365128 0.018691 0
-0.00231207 0.0217859 0
-0.0028511 0.0205401 0
-0.00366092 0.0186718 0
-0.00233247 0.0217531 0
-0.00235362 0.0217319 0
-0.00230038 0.0218114 0
-0.00366807 0.0186625 0
-0.0034683 0.019182 0
-0.00365467 0.0186513 0
-0.00242087 0.021537 0
-0.00230063 0.0218215 0
-0.00244787 0.0214583 0
-0.00290715 0.0204544 0
-0.00341694 0.0192983 0
-0.00303925 0.020129 0
-0.00355691 0.0189616 0
-0.0027318 0.0207912 0
-0.00247951 0.0213653 0
-0.00332237 0.0195266 0
-0.00256388 0.0211884 0
-0.00311021 0.0199755 0
-0.00267056 0.0209279 0
-0.00367199 0.0186853 0
-0.00318236 0.0198222 0
-0.00296286 0.0202964 0
-0.00261421 0.0210618 0
-0.00325413 0.0196713 0
-0.00230368 0.0218003 0
-0.00370013 0.0186423 0
-0.00230676 0.0218582 0
-0.00230297 0.0218357 0
-0.00367288 0.0186633 0
-0.00233251 0.0217999 0
-0.00236137 0.0217701 0
-0.00238265 0.0219247 0
-0.00233813 0.0223572 0
-0.00233594 0.021724 0
-0.00231646 0.0217638 0
-0.0035194 0.019056 0
-0.00363727 0.0187478 0
-0.00362134 0.0187729 0
-0.00241418 0.0215181 0
-0.00361691 0.0187892 0
-0.00349148 0.0191171 0
-0.00345011 0.0192108 0
-0.00231727 0.0217588 0
-0.00232018 0.0217561 0
-0.00244223 0.0214322 0
-0.00237686 0.0216323 0
-0.00335713 0.0194269 0
-0.00251904 0.0212538 0
-0.00298917 0.0201893 0
-0.00279604 0.0206558 0
-0.00306061 0.0200399 0
-0.00369089 0.018698 0
-0.0026875 0.0208382 0
-0.00231878 0.0217705 0
-0.00366927 0.0187169 0
-0.00364177 0.0187468 0
-0.00364613 0.0187477 0
-0.00313515 0.0198844 0
-0.00362792 0.0187658 0
-0.00262429 0.0209853 0
-0.00328793 0.0195709 0
-0.00256784 0.021125 0
-0.00321256 0.0197256 0
-0.00288808 0.02043 0
-0.00232321 0.0217825 0
-0.00236965 0.0216788 0
-0.00239738 0.0217515 0
-0.00352945 0.0190214 0
-0.00233504 0.0217038 0
-0.00238363 0.0215798 0
-0.00348448 0.0191259 0
-0.00240966 0.0214998 0
-0.00282358 0.0205512 0
-0.00360867 0.018816 0
-0.00357021 0.0189186 0
-0.00360939 0.0188285 0
-0.0036096 0.0188206 0
-0.00339489 0.0193299 0
-0.00247739 0.0213276 0
-0.00301668 0.0201038 0
-0.00361288 0.018832 0
-0.0036352 0.018825 0
-0.00308428 0.0199608 0
-0.0033272 0.0194703 0
-0.00264514 0.0208979 0
-0.00316746 0.0197924 0
-0.00252367 0.0211997 0
-0.00258092 0.021053 0
-0.00324998 0.0196268 0
-0.00292847 0.0203171 0
-0.00365493 0.0188062 0
-0.00233681 0.0217028 0
-0.0027559 0.0206894 0
-0.002342 0.0217044 0
-0.00362908 0.0188108 0
-0.00234685 0.0217168 0
-0.00240633 0.021625 0
-0.00355328 0.0189614 0
-0.00236427 0.0216788 0
-0.00238162 0.0215672 0
-0.0027943 0.0205698 0
-0.00343459 0.0192353 0
-0.00357837 0.0189023 0
-0.00244071 0.0214071 0
-0.00286955 0.0204221 0
-0.00357233 0.0189262 0
-0.00235774 0.0216345 0
-0.00358338 0.0189435 0
-0.00337058 0.0193697 0
-0.00301791 0.0200764 0
-0.00271758 0.0207328 0
-0.00247921 0.0212924 0
-0.00311787 0.0198758 0
-0.00237439 0.0216137 0
-0.00260527 0.0209706 0
-0.00329402 0.0195253 0
-0.00236239 0.0216266 0
-0.00320876 0.0196953 0
-0.00253924 0.0211342 0
-0.00294054 0.0202529 0
-0.00363239 0.0189117 0
-0.00359957 0.0189425 0
-0.00357515 0.0189364 0
-0.00241209 0.0215364 0
-0.00246041 0.0214492 0
-0.0024503 0.0217295 0
-0.00228127 0.022433 0
-0.00240295 0.0222571 0
-0.00386331 0.0184025 0
-0.00375596 0.0190001 0
-0.00352856 0.0190233 0
-0.00347655 0.0191401 0
-0.00341734 0.0192683 0
-0.00235736 0.0216416 0
-0.00233641 0.0217069 0
-0.00351478 0.0190533 0
-0.00238534 0.0215521 0
-0.00353148 0.0190875 0
-0.00243999 0.021396 0
-0.00285232 0.0204233 0
-0.00267751 0.0208007 0
-0.00334381 0.0194209 0
-0.00352297 0.0190701 0
-0.0026443 0.0208727 0
-0.00352259 0.0190486 0
-0.00306965 0.0199667 0
-0.0032588 0.0195921 0
-0.00276253 0.0206088 0
-0.00241726 0.0214784 0
-0.00292377 0.0202634 0
-0.00250089 0.0212267 0
-0.00246222 0.0213753 0
-0.00355276 0.0190925 0
-0.0025244 0.0213482 0
-0.00252225 0.0214963 0
-0.00359029 0.0190777 0
-0.00237271 0.0224701 0
-0.00248709 0.0221462 0
-0.00346863 0.019161 0
-0.0023906 0.0215446 0
-0.00245856 0.0213427 0
-0.00345763 0.0192288 0
-0.003592 0.0188634 0
-0.00271148 0.0207179 0
-0.00339933 0.0193113 0
-0.00298784 0.0201316 0
-0.00260989 0.0209719 0
-0.00322337 0.0196718 0
-0.00241095 0.0214789 0
-0.0031201 0.0198768 0
-0.00346 0.0191941 0
-0.00284056 0.020436 0
-0.00246109 0.0213441 0
-0.00331715 0.0194823 0
-0.00252367 0.0211881 0
-0.0034657 0.0192609 0
-0.00252255 0.0212557 0
-0.00260437 0.0212448 0
-0.00362897 0.0190691 0
-0.00252201 0.0216766 0
-0.00348935 0.0192822 0
-0.00242112 0.0214485 0
-0.00338415 0.0193619 0
-0.00277023 0.0205888 0
-0.00318442 0.0197766 0
-0.00329218 0.0195577 0
-0.00337547 0.0194196 0
-0.0029194 0.0202743 0
-0.00340612 0.0195192 0
-0.00301416 0.0200861 0
-0.00260809 0.0210952 0
-0.0027198 0.020713 0
-0.00258136 0.0210821 0
-0.00352925 0.0192906 0
-0.00260151 0.0214193 0
-0.00283088 0.0204658 0
-0.00266001 0.0209007 0
-0.00293096 0.0202769 0
-0.00306442 0.0200145 0
-0.0032645 0.0196686 0
-0.00344639 0.0195639 0
-0.00269073 0.0213621 0
-0.0032844 0.0197186 0
-0.00270207 0.0209728 0
-0.00254719 0.0218424 0
-0.00237471 0.0227129 0
-0.00313201 0.0199287 0
-0.00276327 0.0206807 0
-0.0030063 0.0201797 0
-0.00329364 0.0198179 0
-0.0028085 0.0210419 0
-0.00281431 0.0208303 0
-0.00259197 0.02201 0
-0.00349517 0.0196306 0
-0.00282255 0.0205135 0
-0.00270795 0.0208616 0
-0.00318689 0.019876 0
-0.00308408 0.020089 0
-0.0033342 0.0199049 0
-0.00282011 0.0206575 0
-0.00280257 0.0213222 0
-0.00296309 0.0203456 0
-0.00363461 0.0194004 0
-0.00294449 0.020679 0
-0.00260114 0.0215919 0
-0.00271172 0.0218451 0
-0.00353526 0.0197423 0
-0.00247551 0.0226427 0
-0.00317076 0.0199902 0
-0.00295177 0.0204891 0
-0.00306449 0.0205684 0
-0.0032399 0.0202873 0
-0.00342047 0.0201189 0
-0.00275413 0.0215935 0
-0.00305705 0.0202274 0
-0.00309123 0.0207347 0
-0.00365633 0.0195303 0
-0.00253045 0.0223353 0
-0.00386856 0.0189242 0
-0.00296041 0.0211328 0
-0.00485383 0.019436 0
-0.0042842 0.0264857 0
-0.00256726 0.0332865 0
-0.00427263 0.0280259 0
-0.00303775 0.0332223 0
-0.00426447 0.0292796 0
-0.00427587 0.030839 0
-0.00349471 0.0331816 0
-0.00427071 0.0320139 0
-0.00396151 0.0331436 0
-0.00430771 0.0251968 0
-0.00440132 0.0235528 0
-0.00450887 0.0222466 0
-0.00470836 0.0206237 0
-0.00233803 0.0295145 0
-0.00233992 0.0306329 0
-0.00232727 0.0321959 0
-0.00233643 0.0267407 0
-0.00228544 0.0227994 0
-0.00226382 0.0226102 0
-0.00233927 0.0279017 0
-0.00232984 0.0252376 0
-0.00231449 0.024132 0
-0.00376607 0.0194227 0
-0.0031156 0.0209662 0
-0.00300349 0.0213016 0
-0.00257637 0.0225391 0
-0.00432504 0.0255888 0
-0.00429616 0.0276689 0
-0.0042939 0.0288964 0
-0.00483837 0.0197602 0
-0.00468514 0.0209772 0
-0.00458064 0.021829 0
-0.00449916 0.0226378 0
-0.00439935 0.0239178 0
-0.00435125 0.0247823 0
-0.00430646 0.0305 0
-0.00429245 0.0316798 0
-0.00430234 0.0268436 0
-0.0049405 0.0188996 0
-0.00314282 0.0332406 0
-0.0036017 0.0332051 0
-0.00407462 0.0331451 0
-0.0023126 0.0270997 0
-0.00230983 0.0255981 0
-0.00230443 0.0248955 0
-0.00229489 0.0238326 0
-0.00229269 0.0326979 0
-0.0022981 0.0289814 0
-0.00231303 0.026373 0
-0.00227405 0.0232331 0
-0.00391845 0.0182859 0
-0.00408066 0.0184123 0
-0.00449486 0.0183328 0
-0.00460119 0.0183137 0
-0.00483184 0.0182879 0
-0.00297233 0.0216195 0
-0.00267925 0.022422 0
-0.002523 0.0228404 0
-0.00395788 0.0184061 0
-0.00326368 0.0208423 0
-0.00439392 0.018291 0
-0.00256171 0.0230537 0
-0.0031204 0.0215553 0
-0.00266721 0.0229647 0
-0.00404872 0.0188033 0
-0.00428453 0.0188922 0
-0.00460487 0.0188616 0
-0.00477294 0.0189233 0
-0.00240915 0.023186 0
-0.002543 0.0235953 0
-0.00413673 0.0325277 0
-0.00396085 0.0325289 0
-0.00368339 0.0326503 0
-0.00350378 0.0325928 0
-0.00322223 0.032669 0
-0.00304384 0.0326328 0
-0.00256135 0.0327344 0
-0.00444953 0.0189377 0
-0.00233005 0.0310056 0
-0.00233868 0.0282656 0
-0.0042785 0.0297097 0
-0.00231092 0.0316833 0
-0.00430746 0.0325495 0
-0.00231502 0.029826 0
-0.00248937 0.0272688 0
-0.00473153 0.0193413 0
-0.00463498 0.0199488 0
-0.00246581 0.0278151 0
-0.00248558 0.0289117 0
-0.00247319 0.0294663 0
-0.00247124 0.0305575 0
-0.00244478 0.0321767 0
-0.00246404 0.0327716 0
-0.00445562 0.0211802 0
-0.0043874 0.0217148 0
-0.00434641 0.0222999 0
-0.0024443 0.0236334 0
-0.00427386 0.0228922 0
-0.00242688 0.0241647 0
-0.00425625 0.0235107 0
-0.00246284 0.0246887 0
-0.00418095 0.0241188 0
-0.00245726 0.0252055 0
-0.0041481 0.0246533 0
-0.00248261 0.0257237 0
-0.00414617 0.0252358 0
-0.00247068 0.0267404 0
-0.00413332 0.02643 0
-0.00409255 0.0270208 0
-0.00408912 0.0275371 0
-0.00412196 0.0281125 0
-0.00409031 0.0287225 0
-0.00411296 0.0293009 0
-0.0041177 0.0302436 0
-0.0040935 0.0315253 0
-0.0041265 0.0321569 0
-0.00457333 0.0205733 0
-0.00248698 0.0262047 0
-0.00411177 0.0258202 0
-0.00412923 0.0309108 0
-0.00385047 0.0331887 0
-0.00338687 0.0332195 0
-0.00293153 0.0332701 0
-0.00248265 0.0333072 0
-0.00247915 0.0230757 0
-0.0026518 0.0235309 0
-0.00246586 0.028359 0
-0.00249948 0.0299914 0
-0.00245063 0.0311938 0
-0.00415871 0.0298937 0
-0.00458319 0.0194687 0
-0.00424307 0.0194666 0
-0.00393797 0.0194917 0
-0.00254193 0.0241244 0
-0.00241509 0.0315727 0
-0.00396482 0.0321848 0
-0.00370049 0.0320858 0
-0.0035078 0.0320801 0
-0.00322864 0.0321034 0
-0.0030499 0.0321188 0
-0.00256222 0.0321516 0
-0.00332249 0.0326604 0
-0.0028625 0.0327216 0
-0.00439632 0.0194316 0
-0.00377926 0.0326657 0
-0.00419596 0.018876 0
-0.00259439 0.0267322 0
-0.00452068 0.0199017 0
-0.00259892 0.027267 0
-0.00259747 0.0278077 0
-0.00260759 0.0288991 0
-0.00261124 0.0294467 0
-0.00260979 0.0305589 0
-0.00275934 0.0327451 0
-0.004329 0.0211824 0
-0.00425557 0.0217569 0
-0.00419844 0.0223453 0
-0.0041474 0.0229338 0
-0.00410574 0.0235347 0
-0.00256186 0.0246404 0
-0.00405854 0.0241299 0
-0.00257562 0.0251592 0
-0.00402288 0.0246928 0
-0.00258826 0.0256855 0
-0.00399948 0.0252748 0
-0.00398061 0.0264413 0
-0.00396736 0.0270202 0
-0.00396386 0.0275686 0
-0.00396861 0.0281409 0
-0.00396166 0.0287289 0
-0.00396796 0.0293493 0
-0.00397578 0.0302428 0
-0.00397073 0.0315227 0
-0.00443053 0.0205603 0
-0.00259348 0.026199 0
-0.00398365 0.0258551 0
-0.0039785 0.0309238 0
-0.00267457 0.0245778 0
-0.00392488 0.0241646 0
-0.00401016 0.0229655 0
-0.00396033 0.0235689 0
-0.00264474 0.0240635 0
-0.00260062 0.0283563 0
-0.00261639 0.02999 0
-0.00260249 0.0312354 0
-0.00397718 0.0299362 0
-0.00409518 0.0194748 0
-0.00414315 0.0200043 0
-0.00370647 0.0314529 0
-0.00350305 0.0315637 0
-0.00323039 0.0315675 0
-0.00305897 0.0316132 0
-0.00259742 0.0315737 0
-0.00332522 0.032095 0
-0.00286817 0.0321326 0
-0.00436146 0.0200398 0
-0.00381994 0.0321164 0
-0.00276885 0.0321414 0
-0.00271994 0.0267151 0
-0.00272335 0.0272548 0
-0.00272831 0.0277962 0
-0.00274265 0.0288813 0
-0.00274983 0.0294306 0
-0.00274898 0.0305472 0
-0.00418261 0.0211932 0
-0.00410504 0.0217955 0
-0.0040525 0.0223907 0
-0.00269563 0.0250942 0
-0.00388618 0.0247303 0
-0.00271043 0.0256384 0
-0.00385406 0.0253169 0
-0.00383587 0.0264615 0
-0.00382919 0.0270313 0
-0.00382649 0.027595 0
-0.00382299 0.0281614 0
-0.00381731 0.0287434 0
-0.00381812 0.0293783 0
-0.00382525 0.0302632 0
-0.00383866 0.0315087 0
-0.00271636 0.0261763 0
-0.00428548 0.0204909 0
-0.00384001 0.0258941 0
-0.00383719 0.0309463 0
-0.00284629 0.0272433 0
-0.00284665 0.0266927 0
-0.00411638 0.0205875 0
-0.00284285 0.0261425 0
-0.0036951 0.0276231 0
-0.00283683 0.0255781 0
-0.00369386 0.0270435 0
-0.00403254 0.0212118 0
-0.00282149 0.024986 0
-0.00370295 0.026487 0
-0.00394652 0.0218446 0
-0.00369748 0.0259433 0
-0.00371002 0.025368 0
-0.00390537 0.0224601 0
-0.00375202 0.0247586 0
-0.0040374 0.0200303 0
-0.00277145 0.0245478 0
-0.00389723 0.0229656 0
-0.00381134 0.0242289 0
-0.00384104 0.0236013 0
-0.00369112 0.0310291 0
-0.00353966 0.0309215 0
-0.00322861 0.0310246 0
-0.00302359 0.0310923 0
-0.00332586 0.0315581 0
-0.00288028 0.0315324 0
-0.00273446 0.0283406 0
-0.00275091 0.0299824 0
-0.00275385 0.0312127 0
-0.00382255 0.0299615 0
-0.00277268 0.0315494 0
-0.00285408 0.0277794 0
-0.0028753 0.0288565 0
-0.00288852 0.0294111 0
-0.00288334 0.030515 0
-0.00368791 0.0281715 0
-0.00367653 0.0287548 0
-0.00366971 0.0293925 0
-0.00367525 0.0303013 0
-0.00287472 0.0243941 0
-0.00377564 0.023114 0
-0.00370667 0.0241657 0
-0.00373404 0.0238017 0
-0.00375606 0.0234717 0
-0.00299744 0.028818 0
-0.0035476 0.0287565 0
-0.00356869 0.028161 0
-0.0029717 0.0277568 0
-0.00294762 0.0272585 0
-0.00295115 0.02667 0
-0.00401405 0.0206518 0
-0.0035917 0.0276728 0
-0.00294761 0.0261098 0
-0.00294374 0.0255194 0
-0.00358381 0.02705 0
-0.00391378 0.0212212 0
-0.00361956 0.0265081 0
-0.00291036 0.0249684 0
-0.00380732 0.0219151 0
-0.00358124 0.0259898 0
-0.00359405 0.0254194 0
-0.0037612 0.0225975 0
-0.00362984 0.0247505 0
-0.00286096 0.0283207 0
-0.00288615 0.0299822 0
-0.00289471 0.0311792 0
-0.0036675 0.0299877 0
-0.00390046 0.0207428 0
-0.0035146 0.0304222 0
-0.00323268 0.0304567 0
-0.00301364 0.0304362 0
-0.00332235 0.0310255 0
-0.00302534 0.0293699 0
-0.0028939 0.0239 0
-0.00352881 0.0293806 0
-0.00362518 0.0236954 0
-0.00349307 0.0275981 0
-0.00304781 0.0271393 0
-0.00350181 0.02688 0
-0.00303149 0.0265008 0
-0.00303021 0.0259342 0
-0.00302961 0.0252871 0
-0.00378384 0.0213833 0
-0.00300528 0.0248923 0
-0.00353673 0.0265386 0
-0.00352822 0.0258715 0
-0.00372523 0.0221248 0
-0.00303688 0.0267951 0
-0.00354603 0.0253049 0
-0.00302969 0.0262185 0
-0.00354734 0.0246417 0
-0.00365793 0.0228153 0
-0.00303097 0.025627 0
-0.00349435 0.0272275 0
-0.00282203 0.0246959 0
-0.00372905 0.0244709 0
-0.00383951 0.0227845 0
-0.00339764 0.029334 0
-0.00316889 0.029258 0
-0.00304034 0.0238091 0
-0.00374488 0.0207853 0
-0.00296459 0.0283003 0
-0.00309039 0.0287924 0
-0.00344707 0.02877 0
-0.00348066 0.0281097 0
-0.00307777 0.0276987 0
-0.00302962 0.0300356 0
-0.00348963 0.0300286 0
-0.00316249 0.0299536 0
-0.00335696 0.0303914 0
-0.0038231 0.0201157 0
-0.00364519 0.0231111 0
-0.00300598 0.0244587 0
-0.00313878 0.0265933 0
-0.00313639 0.0260308 0
-0.00336525 0.0286086 0
-0.00316415 0.0286287 0
-0.00338145 0.0281624 0
-0.00317703 0.0275969 0
-0.00386822 0.0210714 0
-0.00353589 0.0278901 0
-0.00300867 0.0274608 0
-0.00288418 0.0234607 0
-0.0033765 0.0270723 0
-0.00314902 0.025413 0
-0.003567 0.0243221 0
-0.00329349 0.0292227 0
-0.00337588 0.0300163 0
-0.00318378 0.027198 0
-0.00314497 0.0279084 0
-0.00337269 0.0289766 0
-0.00314974 0.0289228 0
-0.00363184 0.0214947 0
-0.00337933 0.0277393 0
-0.00327888 0.027122 0
-0.00334382 0.0264683 0
-0.00315606 0.0282418 0
-0.00339884 0.0238338 0
-0.00335933 0.0259398 0
-0.00343482 0.0232986 0
-0.00336629 0.0243685 0
-0.00337936 0.0253797 0
-0.00337689 0.0215197 0
-0.00213577 0.014087 0
0.000450828 0.0173929 0
0.00027496 0.0174799 0
9.98606e-05 0.0173607 0
-4.465e-05 0.0175422 0
-0.000194127 0.0173122 0
-0.000304712 0.0172622 0
-0.000412735 0.0175083 0
-0.000571146 0.0173841 0
-0.000648762 0.0174369 0
-0.000781528 0.0172342 0
-0.000885366 0.0170452 0
0.000424406 0.0169274 0
0.000211047 0.0169364 0
5.55083e-05 0.0168405 0
-0.000104053 0.0167659 0
-0.000230377 0.0168725 0
-0.000380389 0.0168016 0
-0.000556926 0.0167274 0
-0.000680225 0.0167388 0
-0.000828412 0.0167432 0
-0.0010722 0.0164749 0
-0.00129705 0.0161888 0
0.000301988 0.0162128 0
0.000174031 0.0161774 0
-1.37827e-05 0.0163848 0
-0.000151969 0.0163432 0
-0.000313124 0.0162084 0
-0.000447846 0.016292 0
-0.000610443 0.0162092 0
-0.000837473 0.0161325 0
-0.00106215 0.0160343 0
-0.00133578 0.0157306 0
-0.00159782 0.0154829 0
-0.00187597 0.0149477 0
0.000318437 0.0158434 0
7.69759e-05 0.0157854 0
-7.28608e-05 0.0157032 0
-0.000226684 0.0156428 0
-0.000393016 0.0155959 0
-0.00055204 0.0155599 0
-0.000808815 0.0154436 0
-0.00103024 0.015331 0
-0.00121203 0.0153688 0
-0.00148855 0.0151117 0
-0.00173859 0.0148581 0
-0.00198451 0.014427 0
0.000147943 0.0151257 0
3.80814e-06 0.0150078 0
-0.000151873 0.0149967 0
-0.000323013 0.0148825 0
-0.000506286 0.0149051 0
-0.000662226 0.0149003 0
-0.000996503 0.0147157 0
-0.00119104 0.0147792 0
-0.00138426 0.0145705 0
-0.00158396 0.0144372 0
-0.00181812 0.014169 0
-0.00199735 0.013944 0
-0.00212123 0.0137523 0
0.00017316 0.0145761 0
-3.9581e-05 0.014614 0
-0.000237937 0.0144541 0
-0.000362908 0.0144023 0
-0.000613362 0.0144335 0
-0.000768461 0.0143094 0
-0.000973356 0.0141929 0
-0.00122608 0.0141538 0
-0.00142938 0.0141476 0
-0.00159832 0.0139451 0
-0.00182043 0.0136968 0
-0.00199138 0.0135464 0
-0.00212226 0.0134232 0
-7.35827e-06 0.0139365 0
-0.000128291 0.0139364 0
-0.000270569 0.0139086 0
-0.000421401 0.0139099 0
-0.000687536 0.0137721 0
-0.000848256 0.0135704 0
-0.00104736 0.0134775 0
-0.00125394 0.0135491 0
-0.00146189 0.0135848 0
-0.00160644 0.013451 0
-0.00183006 0.0130321 0
-0.0020114 0.013018 0
-0.00211829 0.0128442 0
-5.6516e-05 0.0132734 0
-0.000211749 0.0131934 0
-0.0003475 0.0132293 0
-0.000498225 0.0131572 0
-0.000743982 0.0130976 0
-0.000892453 0.0130428 0
-0.00108485 0.012901 0
-0.00127771 0.0129492 0
-0.00148592 0.012991 0
-0.00164198 0.0128208 0
-0.00185424 0.0126518 0
-0.00197281 0.0125538 0
-0.00207084 0.012516 0
-1.27291e-05 0.0129169 0
-0.000265885 0.0127882 0
-0.000397127 0.0126911 0
-0.000537552 0.012687 0
-0.000781307 0.0125882 0
-0.000928321 0.0124961 0
-0.00109149 0.012453 0
-0.00127526 0.0123799 0
-0.00147434 0.012425 0
-0.00163772 0.0121181 0
-0.00185085 0.0120938 0
-0.00196112 0.01201 0
-0.0020531 0.0119947 0
-0.000108436 0.0121752 0
-0.000285295 0.0120432 0
-0.000434766 0.012052 0
-0.000584055 0.011967 0
-0.000818281 0.0119222 0
-0.000954525 0.0119054 0
-0.00110407 0.0117956 0
-0.0013457 0.0118278 0
-0.00149805 0.0117298 0
-0.00165455 0.011651 0
-0.00178613 0.0116009 0
-0.00195439 0.0114324 0
-0.0021298 0.0114879 0
-8.64397e-05 0.0115653 0
-0.000334409 0.0115955 0
-0.000468424 0.0114989 0
-0.000607983 0.0114979 0
-0.000841425 0.0114133 0
-0.000981363 0.0113598 0
-0.00113979 0.0114107 0
-0.00137075 0.011139 0
-0.00151356 0.0111243 0
-0.00166448 0.0111221 0
-0.00181141 0.0110773 0
-0.0019494 0.0110775 0
-0.00208264 0.0109696 0
-0.000210757 0.010916 0
-0.000344297 0.0108179 0
-0.000490979 0.0108289 0
-0.000635141 0.0107575 0
-0.000865846 0.0107403 0
-0.00100948 0.0107521 0
-0.00117817 0.0107264 0
-0.00134426 0.0106631 0
-0.00148108 0.0105985 0
-0.00168955 0.0105166 0
-0.0018074 0.0104964 0
-0.00191109 0.0104134 0
-0.00211096 0.0103437 0
-0.000134624 0.0103454 0
-0.00035215 0.0104258 0
-0.00052983 0.0102927 0
-0.000644553 0.0102664 0
-0.000885288 0.0102113 0
-0.00102236 0.0101673 0
-0.0011913 0.010063 0
-0.00132755 0.010205 0
-0.00153816 0.010044 0
-0.00167255 0.0101014 0
-0.0018008 0.0100202 0
-0.00192382 0.0100613 0
-0.00204843 0.0100283 0
-0.000255594 0.00973586 0
-0.000375846 0.00975818 0
-0.00051114 0.00975131 0
-0.000653161 0.00977449 0
-0.000880969 0.00969456 0
-0.00101824 0.00961452 0
-0.00119333 0.00955035 0
-0.0013239 0.00948509 0
-0.00153604 0.00940416 0
-0.00166892 0.00941456 0
-0.0017972 0.00938837 0
-0.00193172 0.00938389 0
-0.00206589 0.00941261 0
-0.000244795 0.00907553 0
-0.000390791 0.00903082 0
-0.000524534 0.0090903 0
-0.000660314 0.00904299 0
-0.000881256 0.00903463 0
-0.00101608 0.00904038 0
-0.00118745 0.00900714 0
-0.00131269 0.00898319 0
-0.00153322 0.00893593 0
-0.00163653 0.00891088 0
-0.00178498 0.00879287 0
-0.00193521 0.00877671 0
-0.00211962 0.00885121 0
-0.000174159 0.00869389 0
-0.000412058 0.0086353 0
-0.000529723 0.00856588 0
-0.000661475 0.00858726 0
-0.000880075 0.00853318 0
-0.00101331 0.00848105 0
-0.00118708 0.00845623 0
-0.00131658 0.00847703 0
-0.00152724 0.00847544 0
-0.00165551 0.00842992 0
-0.0017848 0.00847398 0
-0.00192447 0.00845484 0
-0.00203222 0.00836949 0
-0.000253778 0.00799429 0
-0.00037772 0.00788655 0
-0.000521082 0.00792481 0
-0.000660192 0.00787604 0
-0.00087369 0.007901 0
-0.00100696 0.00790554 0
-0.00118186 0.00788176 0
-0.00131095 0.00783218 0
-0.00152272 0.0077811 0
-0.00165787 0.00781599 0
-0.00178444 0.00781267 0
-0.00191501 0.00778782 0
-0.00206971 0.00769636 0
-0.000177537 0.00733051 0
-0.000366565 0.00734052 0
-0.00052147 0.00733869 0
-0.000674587 0.00734691 0
-0.000841251 0.00734508 0
-0.00100055 0.00734116 0
-0.00117597 0.00732849 0
-0.00130562 0.00734286 0
-0.00151859 0.00733471 0
-0.00165316 0.00726873 0
-0.0017788 0.00725017 0
-0.00190318 0.00725391 0
-0.00202294 0.00730121 0
-0.000171858 0.00686895 0
-0.000370613 0.00684762 0
-0.00055031 0.00683015 0
-0.0006581 0.00682893 0
-0.000871384 0.00679925 0
-0.00100036 0.00679918 0
-0.00117176 0.00677815 0
-0.00130024 0.00673476 0
-0.0015051 0.00665667 0
-0.00164275 0.00666139 0
-0.0017759 0.00664061 0
-0.00191561 0.00664916 0
-0.00205595 0.00669597 0
-0.000169441 0.00632299 0
-0.000366153 0.00641252 0
-0.000519145 0.00634015 0
-0.000665 0.00636708 0
-0.000826947 0.00620402 0
-0.000997805 0.0063092 0
-0.00116569 0.00626275 0
-0.00131779 0.00621151 0
-0.00147543 0.00617345 0
-0.00160038 0.00614974 0
-0.00176415 0.00604355 0
-0.00192176 0.00603967 0
-0.00211459 0.00613036 0
-0.000200513 0.00575917 0
-0.000366064 0.0056985 0
-0.000514147 0.00568443 0
-0.000654169 0.00568845 0
-0.000801754 0.00572376 0
-0.00102517 0.00566647 0
-0.00115796 0.00560255 0
-0.00131482 0.00560878 0
-0.00147279 0.00564457 0
-0.00162373 0.00565206 0
-0.00176356 0.00571828 0
-0.00191101 0.00571123 0
-0.0020242 0.00563202 0
-0.000175979 0.00494059 0
-0.000360768 0.00495838 0
-0.000518636 0.00498782 0
-0.000659111 0.00506154 0
-0.0007983 0.00504284 0
-0.0010138 0.00506602 0
-0.00114777 0.00507992 0
-0.00128072 0.00507318 0
-0.00149649 0.00502941 0
-0.00163334 0.00505196 0
-0.00176585 0.00505144 0
-0.00190503 0.00503323 0
-0.00207118 0.00495409 0
-0.000198029 0.00455018 0
-0.00038964 0.00459668 0
-0.000523738 0.00459649 0
-0.00066479 0.00454074 0
-0.000812849 0.00459977 0
-0.000978124 0.0044898 0
-0.00114595 0.00458268 0
-0.00130864 0.004504 0
-0.00147267 0.00459144 0
-0.00162128 0.00450505 0
-0.00175878 0.00448037 0
-0.00189831 0.00447933 0
-0.00205104 0.00451553 0
-0.000228328 0.00396454 0
-0.000352875 0.00386108 0
-0.000509737 0.00382519 0
-0.000666622 0.00382786 0
-0.000810338 0.00389545 0
-0.000950846 0.0038861 0
-0.00117821 0.00393758 0
-0.00130896 0.00390432 0
-0.00146381 0.00389487 0
-0.00160684 0.00386636 0
-0.00175437 0.00385448 0
-0.00190407 0.00386779 0
-0.00205115 0.00391286 0
-0.000129301 0.00340086 0
-0.000340635 0.00349991 0
-0.000506184 0.00349121 0
-0.000669247 0.00348771 0
-0.000843521 0.00338995 0
-0.000973635 0.0033859 0
-0.00114258 0.0033379 0
-0.00129458 0.00343509 0
-0.00142034 0.00329403 0
-0.00159787 0.00325946 0
-0.00175183 0.00325446 0
-0.00191168 0.0032603 0
-0.00211114 0.00335959 0
-0.000227481 0.00284003 0
-0.000350249 0.00286127 0
-0.000502178 0.0028596 0
-0.000658428 0.00285792 0
-0.000806315 0.00285686 0
-0.000969749 0.00285152 0
-0.00113823 0.00290302 0
-0.00128893 0.0027663 0
-0.00143918 0.0029062 0
-0.00159561 0.00292628 0
-0.00175073 0.00292952 0
-0.00190274 0.00292732 0
-0.00201936 0.00285276 0
-0.000155739 0.00212806 0
-0.000332834 0.00211807 0
-0.000464968 0.0021937 0
-0.000686866 0.00215129 0
-0.000815537 0.00224329 0
-0.000970849 0.00227678 0
-0.00112842 0.00227622 0
-0.00128202 0.00224663 0
-0.00144537 0.00217023 0
-0.00157103 0.00224003 0
-0.00178297 0.00223832 0
-0.00190857 0.00222541 0
-0.00207304 0.00216643 0
-0.000168948 0.0017291 0
-0.000336925 0.00173014 0
-0.000527696 0.0016805 0
-0.000666856 0.0016861 0
-0.000816496 0.0017043 0
-0.000969668 0.00171741 0
-0.00112432 0.00171727 0
-0.00127548 0.00170632 0
-0.00144712 0.00168876 0
-0.00159568 0.00168711 0
-0.00172397 0.00160844 0
-0.00193896 0.00169085 0
-0.00206122 0.0017249 0
-0.000131425 0.00109621 0
-0.000323906 0.00104928 0
-0.000518506 0.00106303 0
-0.000663176 0.00111902 0
-0.00081278 0.00114912 0
-0.000966435 0.00116186 0
-0.00112175 0.00115312 0
-0.00127402 0.0011605 0
-0.00144689 0.00115174 0
-0.00159644 0.0011518 0
-0.00174771 0.00115466 0
-0.00190945 0.00113384 0
-0.00205674 0.00104711 0
-0.000132826 0.000622994 0
-0.000312275 0.000533104 0
-0.000490524 0.000642241 0
-0.000657523 0.000514185 0
-0.000817547 0.000581824 0
-0.00095971 0.00064552 0
-0.00112 0.000446434 0
-0.00127805 0.000647203 0
-0.00144261 0.000590057 0
-0.00160641 0.000598737 0
-0.00175243 0.000673105 0
-0.00189825 0.00057261 0
-0.00207401 0.000479664 0
-0.0021992 0.0141062 0
-0.000650604 0.0179452 0
-0.000663158 0.0179423 0
-0.000673845 0.0179385 0
-0.00220917 0.0140757 0
-0.000646715 0.0179474 0
-0.000654609 0.017944 0
-0.000658777 0.017943 0
-0.000667852 0.0179405 0
-0.000680763 0.0179354 0
-0.00068846 0.0179328 0
-0.000697411 0.0179295 0
-0.000708101 0.0179255 0
-0.000721077 0.0179199 0
-0.000737394 0.0179102 0
-0.000756496 0.017894 0
-0.000783786 0.0178765 0
-0.00220434 0.0140949 0
-0.00220634 0.0140891 0
-0.00220791 0.0140828 0
-0.00221017 0.0140677 0
-0.00221092 0.0140586 0
-0.00221171 0.0140485 0
-0.00221217 0.0140377 0
-0.00221244 0.0140259 0
-0.00221269 0.0140129 0
-0.00221284 0.0139987 0
-0.0022129 0.0139832 0
-0.00221288 0.0139663 0
-0.00220187 0.0141004 0
-0.000911427 0.0169098 0
-0.00104734 0.0162145 0
-0.00111653 0.0159511 0
-0.00144688 0.0150193 0
-0.000856643 0.0173537 0
-0.00177082 0.014439 0
-0.00163064 0.0146557 0
-0.00127339 0.0154554 0
-0.00186541 0.0143249 0
-0.000873405 0.0172024 0
-0.00206346 0.0141709 0
-0.00101568 0.0163495 0
-0.000843863 0.0175068 0
-0.00158431 0.0147392 0
-0.00196211 0.0142359 0
-0.000958878 0.016626 0
-0.00135835 0.015229 0
-0.00191325 0.0142773 0
-0.00153814 0.0148277 0
-0.00211462 0.0141487 0
-0.000836407 0.017656 0
-0.0013154 0.0153401 0
-0.00201292 0.0141995 0
-0.00172377 0.0145054 0
-0.000986163 0.0164866 0
-0.00119233 0.0156973 0
-0.00216719 0.0141349 0
-0.00167708 0.0145777 0
-0.00181796 0.0143788 0
-0.00149227 0.0149211 0
-0.00140214 0.015122 0
-0.00115369 0.0158229 0
-0.000820209 0.0178341 0
-0.000933934 0.016767 0
-0.00108099 0.0160817 0
-0.000891368 0.0170547 0
-0.0022111 0.0139326 0
-0.000631903 0.0179249 0
-0.00220771 0.0138994 0
-0.000625763 0.0178879 0
-0.00220202 0.013835 0
-0.000613566 0.017837 0
-0.0022008 0.0140776 0
-0.00220565 0.0140378 0
-0.00217595 0.0141149 0
-0.00219574 0.0140921 0
-0.0022066 0.0140109 0
-0.00220661 0.0139796 0
-0.000651451 0.017886 0
-0.000642496 0.0179031 0
-0.000660086 0.0178808 0
-0.000664621 0.0178797 0
-0.000655727 0.0178824 0
-0.000688104 0.0178636 0
-0.000696137 0.0178571 0
-0.000705896 0.0178495 0
-0.000717749 0.0178401 0
-0.000732187 0.0178249 0
-0.00218214 0.0141097 0
-0.00218773 0.0141042 0
-0.0021922 0.0140984 0
-0.00220671 0.0139961 0
-0.00219854 0.0140852 0
-0.00220275 0.0140691 0
-0.00220611 0.014025 0
-0.00220593 0.013959 0
-0.000639171 0.0178813 0
-0.00123225 0.0155745 0
-0.000841027 0.0173172 0
-0.00152206 0.0150155 0
-0.000911067 0.0168868 0
-0.00166195 0.0147286 0
-0.00081992 0.0174714 0
-0.00103931 0.0163451 0
-0.00197177 0.0142561 0
-0.00100354 0.0164781 0
-0.00170724 0.0146427 0
-0.00183989 0.0144205 0
-0.00120215 0.0158254 0
-0.00107733 0.0162132 0
-0.00133645 0.015457 0
-0.00138235 0.0153418 0
-0.000885585 0.017026 0
-0.000939313 0.0167491 0
-0.00206438 0.0141768 0
-0.00142857 0.01523 0
-0.00179589 0.0144883 0
-0.00115914 0.0159532 0
-0.00188356 0.0143591 0
-0.00192733 0.0143044 0
-0.00201892 0.0142143 0
-0.00161584 0.0148197 0
-0.00175176 0.0145624 0
-0.000970181 0.0166127 0
-0.00156908 0.0149154 0
-0.00111738 0.0160826 0
-0.00147511 0.0151209 0
-0.000862472 0.0171688 0
-0.00220046 0.0139371 0
-0.000638085 0.0178188 0
-0.0021926 0.0139039 0
-0.000636704 0.0177435 0
-0.00218849 0.0137243 0
-0.000593392 0.0177553 0
-0.00215676 0.0141254 0
-0.000730925 0.0177476 0
-0.00218644 0.0140986 0
-0.00219663 0.0140705 0
-0.00219026 0.0140907 0
-0.000681684 0.0178114 0
-0.000688726 0.0177999 0
-0.000696895 0.0177889 0
-0.000706305 0.0177773 0
-0.000717452 0.0177634 0
-0.00217568 0.0141123 0
-0.00218172 0.0141057 0
-0.00219354 0.0140811 0
-0.00216732 0.014119 0
-0.000745223 0.0177268 0
-0.00064757 0.0178406 0
-0.000653391 0.0178259 0
-0.000671561 0.0178192 0
-0.0022005 0.0139976 0
-0.000658628 0.0178197 0
-0.00219987 0.014027 0
-0.00219899 0.0140508 0
-0.000667819 0.0178178 0
-0.000663331 0.0178174 0
-0.00219926 0.0140401 0
-0.00129096 0.0155764 0
-0.00124614 0.0156994 0
-0.00213617 0.0141362 0
-0.000834273 0.01727 0
-0.00201914 0.0142349 0
-0.000917556 0.0168615 0
-0.000887002 0.0169957 0
-0.000859319 0.0171318 0
-0.000951025 0.0167283 0
-0.00193971 0.0143366 0
-0.00189949 0.0143982 0
-0.00197948 0.0142824 0
-0.00185887 0.0144664 0
-0.00181777 0.0145413 0
-0.000987214 0.0165965 0
-0.00177579 0.0146228 0
-0.00173232 0.0147106 0
-0.00102607 0.0164659 0
-0.00168706 0.0148041 0
-0.00164017 0.0149022 0
-0.00159218 0.0150044 0
-0.00144775 0.0153389 0
-0.00139807 0.0154536 0
-0.0015439 0.0151117 0
-0.00149622 0.0152249 0
-0.00106754 0.0163358 0
-0.00111139 0.0162059 0
-0.00120429 0.0159467 0
-0.00115716 0.0160761 0
-0.00216779 0.014124 0
-0.000786766 0.0176844 0
-0.00219531 0.013973 0
-0.000649061 0.0177806 0
-0.00218712 0.0139598 0
-0.000653618 0.0177003 0
-0.00217839 0.0138539 0
-0.000637438 0.0176332 0
-0.000775574 0.0176137 0
-0.0021836 0.0140982 0
-0.00217261 0.0141165 0
-0.000709281 0.0177077 0
-0.002155 0.0141326 0
-0.000699521 0.0177256 0
-0.000720047 0.0176891 0
-0.00214048 0.0141415 0
-0.00216524 0.0141244 0
-0.00217846 0.014108 0
-0.000733176 0.0176667 0
-0.00065749 0.017761 0
-0.000673759 0.0177519 0
-0.00219367 0.0140311 0
-0.000663825 0.0177532 0
-0.000669059 0.0177508 0
-0.00219284 0.0140469 0
-0.00211488 0.0141531 0
-0.00134863 0.0155707 0
-0.00125214 0.015818 0
-0.00105262 0.0164501 0
-0.00109937 0.0163218 0
-0.000929599 0.0168345 0
-0.00096768 0.0167057 0
-0.00100865 0.0165778 0
-0.00086252 0.0170954 0
-0.000894461 0.0169644 0
-0.00191357 0.0144407 0
-0.00195081 0.0143729 0
-0.00198727 0.0143123 0
-0.000834206 0.0172266 0
-0.00187572 0.014515 0
-0.00179565 0.0146855 0
-0.00145965 0.0154482 0
-0.00151292 0.0153304 0
-0.000790395 0.0174671 0
-0.00202255 0.0142603 0
-0.0018367 0.0145966 0
-0.00156009 0.0152088 0
-0.00160797 0.0150951 0
-0.00175198 0.0147809 0
-0.00165731 0.0149865 0
-0.00170567 0.0148817 0
-0.0011995 0.0160617 0
-0.00114856 0.0161922 0
-0.00130028 0.0156922 0
-0.00219203 0.0140047 0
-0.00218381 0.0140021 0
-0.000664725 0.0176837 0
-0.0021736 0.0139456 0
-0.000663871 0.0175919 0
-0.00215276 0.0137905 0
-0.000672196 0.0176788 0
-0.000690511 0.0177017 0
-0.00218501 0.0140833 0
-0.00218475 0.0140708 0
-0.000753031 0.0175541 0
-0.000738349 0.0175869 0
-0.000703098 0.0176675 0
-0.00215662 0.0141393 0
-0.000714182 0.0176418 0
-0.000725722 0.0176145 0
-0.00214514 0.0141499 0
-0.00216473 0.01413 0
-0.00212891 0.0141619 0
-0.00217859 0.0141035 0
-0.00217215 0.0141184 0
-0.00068646 0.017686 0
-0.000682374 0.0176809 0
-0.000677777 0.0176785 0
-0.00218815 0.014033 0
-0.00218607 0.0140541 0
-0.00140436 0.0155599 0
-0.00125116 0.0159307 0
-0.00103346 0.0165567 0
-0.00108211 0.0164309 0
-0.00185232 0.0146535 0
-0.00196081 0.0144118 0
-0.00161593 0.0151819 0
-0.00192622 0.0144847 0
-0.00130272 0.0158017 0
-0.000988054 0.0166816 0
-0.00166708 0.0150711 0
-0.000906573 0.0169326 0
-0.000870364 0.0170605 0
-0.000945749 0.0168067 0
-0.000837828 0.0171891 0
-0.00199487 0.0143453 0
-0.00208293 0.0142002 0
-0.00189043 0.014565 0
-0.00202829 0.0142857 0
-0.000809757 0.0173151 0
-0.00135376 0.0156775 0
-0.00171755 0.0149611 0
-0.00181089 0.0147501 0
-0.00176579 0.0148533 0
-0.00113392 0.0163025 0
-0.00118822 0.0161712 0
-0.00217255 0.0140041 0
-0.000677927 0.0175858 0
-0.0021486 0.0139398 0
-0.00211571 0.0139015 0
-0.000687145 0.0174332 0
-0.00217399 0.0141106 0
-0.00070977 0.0176066 0
-0.0021751 0.0141006 0
-0.000702558 0.0176152 0
-0.00214907 0.0141573 0
-0.00215876 0.0141449 0
-0.00076278 0.0174708 0
-0.00074813 0.0175068 0
-0.000734145 0.0175451 0
-0.000720578 0.017582 0
-0.002167 0.0141288 0
-0.000698687 0.0176097 0
-0.00217685 0.0140842 0
-0.000694892 0.0176041 0
-0.00217895 0.0140623 0
-0.00145254 0.0155469 0
-0.00124375 0.016038 0
-0.00101099 0.0166564 0
-0.00193738 0.0145291 0
-0.00106042 0.0165338 0
-0.00129902 0.0159058 0
-0.00166992 0.0151557 0
-0.00196994 0.0144513 0
-0.000965025 0.0167781 0
-0.00190269 0.0146154 0
-0.00200163 0.0143805 0
-0.00135302 0.0157776 0
-0.00140554 0.0156556 0
-0.000881353 0.0170279 0
-0.000921765 0.0169018 0
-0.00161992 0.0152622 0
-0.000845132 0.0171532 0
-0.00203312 0.0143161 0
-0.000813397 0.0172761 0
-0.00209629 0.0142039 0
-0.0020646 0.0142582 0
-0.000782826 0.0174128 0
-0.00172248 0.015042 0
-0.00186407 0.0147116 0
-0.00111378 0.0164075 0
-0.00218142 0.014035 0
-0.00177338 0.0149278 0
-0.00182085 0.0148165 0
-0.0011708 0.0162762 0
-0.000685579 0.0175914 0
-0.0021722 0.0140418 0
-0.00069078 0.0175979 0
-0.00215437 0.0140225 0
-0.000702329 0.0174554 0
-0.0020699 0.0138597 0
-0.000737437 0.017208 0
-0.00211026 0.0140431 0
-0.000719118 0.0175503 0
-0.000729147 0.0175251 0
-0.00216294 0.0141374 0
-0.00216566 0.0141212 0
-0.0021535 0.0141603 0
-0.000739394 0.0175027 0
-0.00214376 0.014176 0
-0.000774806 0.0173986 0
-0.00212162 0.0141967 0
-0.00071766 0.0175385 0
-0.000715045 0.0175293 0
-0.00216817 0.0140995 0
-0.00217074 0.014072 0
-0.00197813 0.01449 0
-0.00194692 0.0145724 0
-0.0010352 0.016631 0
-0.000985754 0.0167505 0
-0.000939327 0.0168708 0
-0.00145828 0.0156204 0
-0.00200784 0.0144158 0
-0.00166296 0.0152419 0
-0.00160475 0.0153494 0
-0.00140197 0.0157455 0
-0.00123007 0.016141 0
-0.00134731 0.015872 0
-0.000895272 0.016995 0
-0.00203699 0.0143486 0
-0.000853124 0.0171258 0
-0.000823044 0.017231 0
-0.00206581 0.0142877 0
-0.00171927 0.0151253 0
-0.00128947 0.0160051 0
-0.00108887 0.016508 0
-0.00191171 0.0146661 0
-0.00177383 0.0150048 0
-0.00114757 0.0163777 0
-0.00187106 0.0147712 0
-0.00182482 0.0148852 0
-0.000712319 0.0175194 0
-0.000709568 0.0175061 0
-0.00209674 0.01423 0
-0.000793169 0.0173401 0
-0.000706745 0.0174855 0
-0.00216009 0.0140591 0
-0.00213381 0.0140465 0
-0.000752005 0.0172663 0
-0.00206909 0.0140437 0
-0.000721251 0.0171106 0
-0.00209694 0.0136376 0
-0.00214705 0.0141798 0
-0.000753484 0.0174379 0
-0.000740382 0.0174653 0
-0.00213832 0.014196 0
-0.00212674 0.0142112 0
-0.000765883 0.0174137 0
-0.0021549 0.0141452 0
-0.000738294 0.0174535 0
-0.00152886 0.0154486 0
-0.0019853 0.0145261 0
-0.00201377 0.0144489 0
-0.00100655 0.016725 0
-0.00095701 0.0168433 0
-0.00144299 0.0157145 0
-0.000911913 0.0169592 0
-0.00204195 0.0143789 0
-0.00164462 0.0153396 0
-0.000735447 0.0174261 0
-0.00139528 0.0158281 0
-0.000868562 0.0170818 0
-0.00105986 0.0166048 0
-0.000736727 0.0174411 0
-0.00195393 0.0146148 0
-0.00170668 0.0152147 0
-0.00206758 0.0143178 0
-0.00133677 0.0159613 0
-0.00121009 0.0162407 0
-0.00176619 0.0150862 0
-0.00127395 0.0161006 0
-0.00111911 0.0164763 0
-0.00191658 0.0147175 0
-0.00182197 0.0149572 0
-0.00187237 0.0148328 0
-0.00157916 0.0154615 0
-0.00215224 0.014164 0
-0.00211066 0.0141468 0
-0.00215829 0.0141157 0
-0.00216214 0.0140813 0
-0.000735012 0.0174043 0
-0.000738716 0.0173608 0
-0.00214617 0.0140861 0
-0.00206246 0.014214 0
-0.00063591 0.0173111 0
-0.00082028 0.0169382 0
-0.000815473 0.0170524 0
-0.0021333 0.0142151 0
-0.00212185 0.0142352 0
-0.000783748 0.0173367 0
-0.00210802 0.0142504 0
-0.00076513 0.0173724 0
-0.000814686 0.0172507 0
-0.000763445 0.0173476 0
-0.0020907 0.0142656 0
-0.00201918 0.0144773 0
-0.00213695 0.01421 0
-0.000762546 0.0173663 0
-0.00204504 0.0144077 0
-0.000974359 0.0168185 0
-0.000925468 0.0169356 0
-0.00102745 0.0166991 0
-0.00199134 0.0145589 0
-0.000888865 0.01703 0
-0.00144702 0.015764 0
-0.00207343 0.0143395 0
-0.000855698 0.0171242 0
-0.00168382 0.0153141 0
-0.00138618 0.0159046 0
-0.00150495 0.0156113 0
-0.00213984 0.0141979 0
-0.00118396 0.0163385 0
-0.00108631 0.0165727 0
-0.00132038 0.0160487 0
-0.000762372 0.0173109 0
-0.00174952 0.0151745 0
-0.00195769 0.0146565 0
-0.000764612 0.0173251 0
-0.00125196 0.0161945 0
-0.00181142 0.0150342 0
-0.00191648 0.0147706 0
-0.00161577 0.0154501 0
-0.00186747 0.014898 0
-0.00213025 0.0141438 0
-0.000771856 0.0173646 0
-0.00214027 0.0141789 0
-0.00214762 0.0141219 0
-0.000820654 0.0171038 0
-0.00207639 0.0142817 0
-0.0020106 0.01422 0
-0.000951282 0.0166369 0
-0.000796518 0.0173032 0
-0.00211754 0.0142615 0
-0.00210107 0.0142846 0
-0.000786988 0.0172881 0
-0.000796652 0.0172828 0
-0.00204713 0.01443 0
-0.000791739 0.0172862 0
-0.00202426 0.0145 0
-0.00212258 0.0142541 0
-0.000801648 0.0172765 0
-0.000992503 0.0167914 0
-0.00143867 0.0158349 0
-0.000796511 0.0172222 0
-0.00105015 0.0166671 0
-0.00115203 0.0164354 0
-0.00136949 0.015985 0
-0.00155624 0.0155609 0
-0.00199481 0.0145892 0
-0.00172276 0.0152723 0
-0.0012965 0.0161382 0
-0.00164935 0.0154269 0
-0.000939337 0.0169126 0
-0.00122294 0.0162895 0
-0.00179189 0.0151186 0
-0.00195734 0.0146985 0
-0.00185539 0.0149679 0
-0.00191091 0.014826 0
-0.00212346 0.0142447 0
-0.00150326 0.0156881 0
-0.0021264 0.0141975 0
-0.000824127 0.0171317 0
-0.00210609 0.0142303 0
-0.000885348 0.016927 0
-0.00202266 0.0140513 0
-0.00194161 0.014389 0
-0.00100005 0.0163671 0
-0.000865323 0.0171015 0
-0.000827494 0.0172048 0
-0.00208851 0.0143338 0
-0.000827812 0.0171925 0
-0.000835538 0.0171791 0
-0.000820175 0.0172012 0
-0.00205238 0.0144411 0
-0.00206711 0.0143919 0
-0.00156834 0.0155892 0
-0.00101053 0.0167623 0
-0.00202808 0.0145177 0
-0.00111495 0.0165325 0
-0.00142073 0.0159098 0
-0.000955595 0.0168829 0
-0.00090651 0.0169977 0
-0.00134323 0.016072 0
-0.00210097 0.0143159 0
-0.00168496 0.0153811 0
-0.00210519 0.0143069 0
-0.0019953 0.0146169 0
-0.000850874 0.0170915 0
-0.00176073 0.0152143 0
-0.00118618 0.016388 0
-0.00126278 0.0162347 0
-0.00149214 0.015756 0
-0.00195304 0.0147382 0
-0.00183312 0.0150464 0
-0.00189911 0.0148833 0
-0.000802872 0.0172299 0
-0.00212025 0.0142398 0
-0.000875463 0.0169996 0
-0.00207761 0.0143379 0
-0.000887386 0.0168574 0
-0.00195014 0.0142006 0
-0.00188061 0.0146198 0
-0.00110627 0.0162991 0
-0.000897076 0.0164087 0
-0.000860237 0.0171115 0
-0.00207651 0.0143815 0
-0.000872827 0.0170733 0
-0.00205747 0.0144444 0
-0.000967862 0.0168597 0
-0.00153813 0.0156832 0
-0.00107265 0.0166322 0
-0.000878871 0.017067 0
-0.000919814 0.0169684 0
-0.00208302 0.0143733 0
-0.00139436 0.0159864 0
-0.00203036 0.0145285 0
-0.00147397 0.0158223 0
-0.00160533 0.0155482 0
-0.00114186 0.0164916 0
-0.00130425 0.0161715 0
-0.00171748 0.0153208 0
-0.000848085 0.0171207 0
-0.00121657 0.0163429 0
-0.00199352 0.0146363 0
-0.00179502 0.0151434 0
-0.00210305 0.0143039 0
-0.000953984 0.0168141 0
-0.00204484 0.0144089 0
-0.00194481 0.0147701 0
-0.00092603 0.016914 0
-0.00191503 0.0146829 0
-0.00186045 0.0144822 0
-0.00191622 0.014038 0
-0.00117062 0.0160335 0
-0.0010255 0.0167357 0
-0.000924625 0.0169559 0
-0.000898694 0.0169982 0
-0.00154199 0.0156959 0
-0.000890949 0.0170363 0
-0.0020863 0.0143635 0
-0.00210282 0.0142832 0
-0.00109192 0.0165984 0
-0.00144687 0.0158905 0
-0.00136897 0.0160461 0
-0.00163549 0.0155003 0
-0.00203207 0.0145253 0
-0.00206194 0.0144383 0
-0.001165 0.0164512 0
-0.00174608 0.0152446 0
-0.00193701 0.0147748 0
-0.00181582 0.0150801 0
-0.00198985 0.0146404 0
-0.00205055 0.0144335 0
-0.00203536 0.0143731 0
-0.000968563 0.016719 0
-0.00101355 0.0167256 0
-0.00181556 0.0148718 0
-0.00199301 0.0145358 0
-0.00186088 0.0142855 0
-0.00196774 0.0138115 0
-0.000677222 0.0170151 0
-0.000575638 0.0176032 0
-0.00215668 0.0135974 0
-0.00203434 0.0137154 0
-0.000975511 0.0168416 0
-0.00207112 0.0143986 0
-0.00103694 0.0167094 0
-0.00149116 0.0158001 0
-0.00097439 0.0168326 0
-0.00110928 0.0165596 0
-0.00139807 0.0159871 0
-0.00186893 0.0149303 0
-0.00166274 0.0154337 0
-0.000928556 0.0169415 0
-0.00202758 0.014519 0
-0.00177943 0.0151249 0
-0.00123539 0.0163112 0
-0.0019863 0.0146192 0
-0.00106617 0.0165753 0
-0.00157793 0.0156191 0
-0.00192981 0.0147412 0
-0.00184934 0.0149072 0
-0.00174613 0.0145381 0
-0.00202243 0.0145036 0
-0.0011922 0.0163927 0
-0.00152069 0.0157235 0
-0.00105026 0.0166719 0
-0.00168344 0.0153541 0
-0.00159125 0.0155631 0
-0.00133424 0.016096 0
-0.00143632 0.0158926 0
-0.00111804 0.0165228 0
-0.00117408 0.0163325 0
-0.00175742 0.0150842 0
-0.00148814 0.0157495 0
-0.00122907 0.0163032 0
-0.00116952 0.0163905 0
-0.00118321 0.0162414 0
-0.00137023 0.0159877 0
-0.00169821 0.0152638 0
-0.00126205 0.0162028 0
-0.00166128 0.0152647 0
-0.00147242 0.0156989 0
-0.00129143 0.0160803 0
-0.00154716 0.015474 0
-0.00139915 0.0158816 0
-0.00172177 0.0150597 0
-0.00126905 0.0160027 0
-0.001416 0.0157108 0
-0.00162625 0.0152137 0
-0.00148735 0.0154585 0
-0.00137041 0.0158785 0
-0.00156676 0.0151643 0
-0.00141154 0.0154355 0
-0.00132542 0.0153971 0
-0.000775036 0.0166707 0
-0.00162792 0.0148819 0
-0.00169665 0.0143306 0
-0.0012479 0.0157236 0
-0.0013982 0.0150403 0
-0.0018894 0.0138157 0
-0.00056909 0.0171092 0
-0.00092592 0.0161676 0
-0.00206348 0.0135115 0
-0.00181769 0.000304055 0
-0.00168905 0.000304171 0
-0.00133431 0.000303738 0
-0.000887706 0.000298411 0
-0.000529279 0.000290411 0
-0.000432411 0.000293133 0
-0.000161304 0.00823132 0
-0.00014178 0.00537154 0
-0.000140307 0.00422845 0
-0.000131928 0.00261253 0
-0.000106279 0.00147002 0
0.000415164 0.0165462 0
6.07811e-05 0.013688 0
-0.00010412 0.011156 0
-0.000164037 0.0094656 0
-2.26119e-05 0.0125221 0
0.000272961 0.0153883 0
-0.00212419 0.0121992 0
-0.00217566 0.0133941 0
-0.00212868 0.0106865 0
-0.00211478 0.00973749 0
-0.00210429 0.00540542 0
-0.00210273 0.00419799 0
-0.00210264 0.00262653 0
-0.00210863 0.00139612 0
-0.00210372 0.00703104 0
-0.00210767 0.00814127 0
-0.00215594 0.0131824 0
-0.000244178 0.0176469 0
-0.000336742 0.0176015 0
7.35401e-05 0.0177245 0
0.000165008 0.0177155 0
0.000392559 0.0177214 0
-0.000519983 0.0177125 0
-0.000200197 0.000289019 0
-0.00157817 0.0147201 0
-0.00206707 0.0132513 0
-0.00177085 0.0139868 0
-0.000475655 0.0175655 0
-0.00103076 0.0158075 0
-0.000803649 0.0164348 0
-0.00130559 0.01494 0
-0.00117716 0.0156704 0
-0.00155394 0.000248855 0
-0.00124173 0.000279422 0
-0.000780373 0.000278862 0
-0.000106771 0.00592372 0
-0.000110707 0.00458196 0
-0.000128009 0.00300677 0
-0.000156389 0.00782166 0
-8.74398e-05 0.00178274 0
0.000404487 0.0162234 0
0.000229272 0.0149878 0
6.20888e-05 0.0133151 0
-5.22377e-05 0.0119249 0
-0.000146652 0.00992299 0
-0.000130158 0.00908431 0
-0.000115161 0.0107566 0
0.000121274 0.0141527 0
0.000500445 0.0171014 0
-0.0021396 0.0111936 0
-0.00215035 0.0125069 0
-0.00211603 0.00577034 0
-0.00214022 0.00465618 0
-0.00214244 0.000880691 0
-0.00212665 0.00915985 0
-0.0021426 0.0100215 0
-0.00212868 0.0118297 0
-0.00212033 0.00849917 0
-0.000153291 0.0177027 0
-0.00190256 0.013489 0
-0.000276244 0.0170637 0
-0.00086334 0.000878862 0
-0.00165035 0.000891257 0
-0.00185329 0.000871711 0
-1.94657e-05 0.0171253 0
0.000161615 0.0171554 0
0.000332393 0.0170702 0
-0.0002292 0.000943682 0
-0.000412689 0.000938515 0
-0.000582425 0.000834647 0
-0.000406234 0.0171887 0
-0.00136044 0.000887379 0
-0.00211328 0.0029962 0
-0.000127322 0.00379928 0
-0.00212147 0.00644694 0
-6.65421e-05 0.000927786 0
-0.00211827 0.00367715 0
-0.00214328 0.00187074 0
-0.00212696 0.00733547 0
0.000287246 0.0166221 0
-0.00198342 0.00809317 0
-0.00197412 0.00698193 0
-0.00197522 0.00534906 0
-0.00197237 0.00419315 0
-0.00197262 0.00255977 0
0.000143556 0.0154886 0
-0.0020181 0.0122617 0
-0.00016982 0.0125414 0
-0.00200956 0.0106452 0
-0.000240826 0.0112877 0
-0.00199162 0.00972218 0
-0.000314317 0.00941289 0
-0.000306299 0.00835374 0
-0.000280876 0.00534554 0
-0.000290114 0.00430307 0
-0.000269031 0.00251138 0
-0.00198838 0.00141286 0
-0.000245293 0.00140755 0
-9.78713e-05 0.0135985 0
-0.000995274 0.000278117 0
-0.00193088 0.00027128 0
-0.00180234 0.0134238 0
-0.00165295 0.0141327 0
-0.00146555 0.014673 0
-0.00071246 0.0164713 0
-0.00116333 0.0151857 0
-0.0019785 0.0132934 0
-0.00191524 0.0123221 0
-0.000480316 0.0172204 0
-0.000317953 0.0165429 0
-0.000865544 0.00143207 0
-0.00164185 0.0014048 0
-0.00185691 0.00148178 0
-0.00117259 0.000852733 0
-0.00154861 0.000876728 0
0.000203908 0.0159006 0
8.70403e-05 0.014771 0
-0.000143921 0.0129427 0
-0.000185934 0.0117656 0
-0.000240307 0.0105645 0
-0.000306024 0.00875841 0
-0.000266759 0.00767489 0
-0.000282933 0.00466983 0
-0.000240036 0.00362172 0
-0.000247896 0.00182258 0
0.000126827 0.0165063 0
-5.21499e-05 0.0165841 0
6.71903e-06 0.0143252 0
-0.000278892 0.010126 0
-0.000309788 0.00604275 0
-0.00026287 0.00321055 0
-0.000420046 0.00139331 0
-0.000559286 0.00138845 0
-0.000497259 0.0165093 0
-0.000762881 0.000848629 0
-0.00106813 0.000851948 0
-0.00195052 0.00751159 0
-0.00199844 0.006311 0
-0.00195073 0.00474722 0
-0.00199061 0.00353374 0
-0.00196295 0.00193956 0
-0.00195837 0.000820974 0
-0.002001 0.0102974 0
-0.00204701 0.0113056 0
-0.00202343 0.0127553 0
-0.00202447 0.0116795 0
-0.00202349 0.00866533 0
-0.00201439 0.00593226 0
-0.00200816 0.00315494 0
-0.0013609 0.00142683 0
-0.000115975 0.0171246 0
-0.0018522 0.00812278 0
-0.00184322 0.00695687 0
-0.00183634 0.00536923 0
-0.00182845 0.00417768 0
-0.00183177 0.00256239 0
-3.07063e-05 0.0153833 0
-0.000340341 0.0124115 0
-0.00187509 0.0107482 0
-0.000405343 0.0111978 0
-0.00186377 0.00971712 0
-0.00200953 0.00903754 0
-0.000450795 0.00940902 0
-0.000456381 0.00826926 0
-0.000438057 0.00533888 0
-0.000442765 0.00423289 0
-0.000415871 0.00249901 0
-0.000240235 0.0135688 0
-0.00172458 0.013791 0
-0.00152275 0.0143184 0
-0.00107485 0.0154892 0
-0.00175449 0.0107923 0
-0.00038069 0.0135484 0
-0.000587949 0.00824289 0
-0.000483347 0.0123537 0
-0.000583068 0.00941093 0
-0.000545592 0.0111511 0
-0.0019376 0.0128618 0
-0.000222238 0.0165475 0
-0.00182161 0.0123769 0
-0.00186319 0.00901876 0
-0.00184178 0.0102526 0
-0.00184191 0.00752437 0
-0.0018453 0.00627809 0
-0.00182912 0.0047595 0
-0.00183123 0.00349176 0
-0.00183533 0.00188661 0
-0.00185935 0.0113766 0
-0.000438517 0.0159093 0
-0.00188763 0.0117242 0
-0.00185873 0.0087033 0
-0.00184124 0.00595814 0
-0.00182967 0.00317268 0
-0.000868534 0.00198126 0
-0.0016753 0.00201741 0
-0.0011736 0.00143565 0
-0.00154567 0.00141684 0
-0.000137475 0.0146769 0
3.16645e-05 0.0160941 0
-0.000329154 0.0129695 0
-0.000405458 0.0117896 0
-0.000452203 0.0105035 0
-0.000486254 0.00882909 0
-0.000471597 0.00762401 0
-0.00027155 0.00701362 0
-0.000448256 0.00478479 0
-0.000426754 0.00358377 0
-0.000440351 0.00185585 0
-0.000113635 0.0160195 0
-0.00015692 0.0143012 0
-0.000437575 0.0101285 0
-0.000270103 0.0066932 0
-0.00044409 0.00603093 0
-0.000424824 0.00325012 0
-0.000560474 0.00200283 0
-0.000765022 0.00141815 0
-0.00107123 0.00143707 0
-0.00136255 0.00195301 0
-0.0017356 0.00973033 0
-0.000190719 0.0153147 0
-0.0017217 0.00812821 0
-0.0017129 0.00696014 0
-0.00169829 0.00536292 0
-0.00168489 0.00418328 0
-0.00167526 0.00249413 0
-0.000584879 0.0053559 0
-0.00059083 0.00420766 0
-0.00057489 0.00244099 0
-0.000936558 0.0157223 0
-0.00167107 0.0135934 0
-0.00173908 0.0125846 0
-0.00174223 0.0122634 0
-0.00156749 0.0053426 0
-0.00158528 0.00698048 0
-0.000722206 0.00537524 0
-0.00159619 0.00812604 0
-0.000346759 0.0152681 0
-0.00160985 0.00974185 0
-0.00176306 0.0102771 0
-0.00024218 0.0146824 0
-0.000256806 0.0159546 0
-0.00175672 0.0113645 0
-0.000570142 0.00762219 0
-0.000422127 0.0129467 0
-0.000572881 0.00882318 0
-0.000500637 0.011761 0
-0.000551113 0.0105299 0
-0.00057538 0.0158781 0
-0.00176227 0.0119068 0
-0.000555628 0.0100428 0
-0.000289611 0.0141953 0
-0.000350471 0.0159172 0
-0.00167199 0.0108008 0
-0.00050206 0.0135182 0
-0.000695334 0.0082323 0
-0.00060032 0.0123161 0
-0.000693087 0.00939894 0
-0.000659411 0.0111215 0
-0.0017245 0.00905564 0
-0.0017215 0.00753573 0
-0.00169815 0.00630352 0
-0.00169844 0.00477203 0
-0.0016777 0.00348876 0
-0.000538992 0.01524 0
-0.00169964 0.00872519 0
-0.0016702 0.00596316 0
-0.00167478 0.00317171 0
-0.000859653 0.00255004 0
-0.0011771 0.00198929 0
-0.00154696 0.00196072 0
-0.000476539 0.00701407 0
-0.000615401 0.00479934 0
-0.00058731 0.00357496 0
-0.000476138 0.00667325 0
-0.0005844 0.00601724 0
-0.000584476 0.00324902 0
-0.000770901 0.0019533 0
-0.00107416 0.00199541 0
-0.00139498 0.00252698 0
-0.00154156 0.00421098 0
-0.00152036 0.00254395 0
-0.000736875 0.00421531 0
-0.000733681 0.00251686 0
-0.00010536 0.00706323 0
-0.0007763 0.0159589 0
-0.000784352 0.00840253 0
-0.000622312 0.0132923 0
-0.000783328 0.00956942 0
-0.000708107 0.0121034 0
-0.000760367 0.0109112 0
-0.000746927 0.0112856 0
-0.000685725 0.012471 0
-0.000785053 0.0092006 0
-0.000586427 0.0136732 0
-0.000782329 0.00805358 0
-0.000870407 0.0155725 0
-0.00155665 0.0137434 0
-0.00173571 0.0129092 0
-0.000876314 0.00421308 0
-0.00140082 0.00422034 0
-0.000576534 0.00707192 0
-0.00156871 0.00591655 0
-0.000710227 0.0048089 0
-0.0016108 0.0086953 0
-0.000679832 0.0151973 0
-0.00162045 0.00914381 0
-0.0016151 0.00754703 0
-0.00158465 0.00638887 0
-0.00158457 0.00478994 0
-0.000706727 0.00600034 0
-0.000573905 0.006608 0
-0.000446828 0.0152524 0
-0.0014796 0.00532023 0
-0.000833253 0.00537732 0
-0.00147954 0.00700197 0
-0.00149194 0.00813219 0
-0.00150605 0.00975195 0
-0.00162461 0.012532 0
-0.00191392 0.0131833 0
-0.00152682 0.00351439 0
-0.000664338 0.0146276 0
-0.00156931 0.0103899 0
-0.000867313 0.00314092 0
-0.001516 0.00318005 0
-0.00118346 0.00255341 0
-0.000766785 0.00357523 0
-0.000471521 0.0145492 0
-0.000742372 0.00322265 0
-0.00107822 0.00257224 0
-0.00133711 0.00310256 0
-0.000730719 0.0134087 0
-0.000813462 0.0122478 0
-0.000868415 0.0110771 0
-0.000925344 0.00553792 0
-0.0013964 0.0071899 0
-0.00140749 0.00832158 0
-0.00142642 0.00995578 0
-0.00140478 0.00796538 0
-0.0014191 0.00960177 0
-0.00139197 0.0068553 0
-0.00092159 0.00520896 0
-0.000695859 0.0163034 0
-0.000953032 0.0151709 0
-0.00171359 0.0132577 0
-0.00124036 0.00310898 0
-0.00086915 0.00362655 0
-0.00144898 0.0103088 0
-0.000776436 0.0145681 0
-0.00140301 0.0036085 0
-0.000969889 0.00418486 0
-0.00130947 0.00421175 0
-0.000894954 0.00935909 0
-0.000890753 0.00821294 0
-0.000724014 0.0140245 0
-0.00154188 0.0119965 0
-0.00157976 0.0107722 0
-0.000927987 0.00487079 0
-0.000668357 0.0128755 0
-0.000740307 0.0116928 0
-0.000785973 0.0104792 0
-0.000796286 0.00879719 0
-0.000789348 0.00769358 0
-0.000552556 0.0141107 0
-0.000794039 0.00999079 0
-0.000783687 0.00662261 0
-0.00105614 0.00311966 0
-0.00136527 0.00488057 0
-0.00155558 0.0114147 0
-0.0012908 0.00703816 0
-0.00130209 0.00815556 0
-0.00131443 0.00981003 0
-0.00143734 0.0114524 0
-0.00124984 0.00482409 0
-0.000902791 0.00763739 0
-0.000917925 0.00877738 0
-0.000803263 0.0128203 0
-0.000867635 0.0116588 0
-0.000914394 0.0104701 0
-0.000872611 0.0139154 0
-0.00142855 0.01207 0
-0.000920806 0.00993575 0
-0.000896336 0.00654692 0
-0.00104294 0.00481788 0
-0.00145886 0.0108592 0
-0.00161268 0.0131677 0
-0.000720977 0.0157654 0
-0.00103224 0.00536036 0
-0.000942033 0.00589722 0
-0.00120219 0.0036694 0
-0.000788223 0.00699953 0
-0.00108711 0.00372795 0
-0.00140245 0.00919779 0
-0.00139092 0.00757643 0
-0.00137665 0.00652092 0
-0.00139825 0.00873127 0
-0.00138129 0.0052686 0
-0.00136607 0.00591095 0
-0.00122109 0.00421518 0
-0.00107604 0.0041464 0
-0.000692243 0.015502 0
-0.00124751 0.00592083 0
-0.000900783 0.00705693 0
-0.00128093 0.00873083 0
-0.00128458 0.00924453 0
-0.00127349 0.00759226 0
-0.00126672 0.00650157 0
-0.00107526 0.00594451 0
-0.00125679 0.0053266 0
-0.00132996 0.0114832 0
-0.00123461 0.0104165 0
-0.00105395 0.0121394 0
-0.00110983 0.0110599 0
-0.00110444 0.00930304 0
-0.00109784 0.00818116 0
-0.000969173 0.0132473 0
-0.00122945 0.0116516 0
-0.000824293 0.0151413 0
-0.00123583 0.011057 0
-0.00118484 0.012041 0
-0.00112817 0.0104247 0
-0.00116154 0.00593265 0
-0.00104535 0.0116173 0
-0.00110152 0.00874617 0
-0.00109172 0.00761428 0
-0.00110711 0.00984857 0
-0.0010842 0.00653734 0
-0.00108751 0.00706175 0
-0.00100026 0.0127229 0
-0.00126173 0.011348 0
-0.00082075 0.0147889 0
-0.00111599 0.013869 0
-0.00186764 0.0210454 0
-0.00156955 0.0204886 0
-0.00128034 0.0201192 0
-0.00103793 0.0199272 0
-0.000866817 0.0199437 0
-0.000689474 0.0199063 0
-0.00047527 0.0198318 0
-0.000264131 0.0197803 0
-0.000134735 0.0196664 0
-1.63427e-05 0.0197722 0
0.00016802 0.0197622 0
0.000331019 0.0197226 0
0.000419583 0.0190755 0
0.000204039 0.0191534 0
0.000108947 0.0190777 0
-0.000111428 0.019188 0
-0.000250478 0.0192373 0
-0.000360059 0.0191362 0
-0.000531057 0.0191551 0
-0.000683842 0.0191915 0
-0.00084794 0.0192778 0
-0.00102106 0.0194044 0
-0.00127329 0.019776 0
-0.00150951 0.0204972 0
-0.00214243 0.021922 0
-0.00198111 0.0215597 0
-0.00174111 0.0211616 0
-0.00149315 0.0208931 0
-0.00124106 0.0206347 0
-0.000981286 0.020503 0
-0.000785943 0.0204594 0
-0.000582657 0.0204404 0
-0.000421936 0.0203658 0
-0.000183867 0.020327 0
-3.44367e-05 0.0201837 0
0.000130693 0.0201254 0
0.000306006 0.0201087 0
-0.00213614 0.02224 0
-0.0019857 0.0219558 0
-0.00179227 0.0217146 0
-0.00155938 0.0214727 0
-0.00129648 0.0211845 0
-0.00111732 0.0212293 0
-0.000915785 0.0210773 0
-0.000676228 0.0210122 0
-0.000476255 0.0209687 0
-0.000327264 0.0209501 0
-0.000105329 0.0209112 0
3.0825e-05 0.0208898 0
0.000151301 0.0208475 0
-0.00211902 0.0225423 0
-0.00198844 0.0224568 0
-0.00183276 0.0222861 0
-0.00164516 0.0220178 0
-0.00140307 0.0219223 0
-0.00119881 0.0218341 0
-0.000976081 0.0216843 0
-0.000757009 0.0216064 0
-0.000554846 0.0215635 0
-0.000402527 0.0215272 0
-0.000211364 0.0214801 0
-4.71723e-05 0.0215511 0
0.000181429 0.021402 0
-0.00213122 0.0231008 0
-0.00198739 0.0229848 0
-0.00182127 0.0227981 0
-0.00165193 0.0226461 0
-0.001467 0.0224696 0
-0.00122694 0.022412 0
-0.00103379 0.0222548 0
-0.000827858 0.022203 0
-0.000635839 0.022184 0
-0.000456286 0.0221839 0
-0.000245399 0.0220086 0
-9.93624e-05 0.0219428 0
1.6007e-05 0.0220104 0
-0.00212122 0.0234245 0
-0.00199165 0.0233126 0
-0.00183275 0.0234161 0
-0.00165226 0.023215 0
-0.00146579 0.0231137 0
-0.00128323 0.0230116 0
-0.00107782 0.0228915 0
-0.000891143 0.0227908 0
-0.00067685 0.0226867 0
-0.000517552 0.0227921 0
-0.000325859 0.0227286 0
-0.000198497 0.0226293 0
-1.62434e-05 0.0226249 0
-0.00205293 0.0239562 0
-0.00196926 0.0238859 0
-0.00182195 0.0238421 0
-0.00165598 0.0237747 0
-0.00150649 0.0237571 0
-0.00131258 0.0236536 0
-0.00113599 0.0234914 0
-0.000926593 0.0233996 0
-0.000755097 0.0233515 0
-0.000567326 0.0232677 0
-0.000349009 0.0231758 0
-0.000199821 0.0231513 0
-2.58445e-05 0.0230389 0
-0.0020503 0.0244776 0
-0.00194688 0.0244214 0
-0.00182375 0.0244348 0
-0.00167518 0.024327 0
-0.00148567 0.024188 0
-0.00131908 0.024182 0
-0.00115185 0.0240401 0
-0.000968886 0.0239917 0
-0.000775946 0.0239754 0
-0.000619875 0.0239865 0
-0.000397504 0.0238774 0
-0.0002527 0.0238197 0
-0.000138588 0.0237808 0
-0.00208694 0.024858 0
-0.00194833 0.0248996 0
-0.00181834 0.0248299 0
-0.00165247 0.0248711 0
-0.00146993 0.0248044 0
-0.00131789 0.0246324 0
-0.00118559 0.0246244 0
-0.000994272 0.0245234 0
-0.000777762 0.0245106 0
-0.000624288 0.0244441 0
-0.000448376 0.0243331 0
-0.000321206 0.0244597 0
-7.66018e-05 0.0243425 0
-0.00204096 0.0254871 0
-0.00193545 0.0255353 0
-0.00181028 0.0254602 0
-0.00167668 0.0254365 0
-0.0015143 0.0253292 0
-0.00136243 0.0251016 0
-0.00117458 0.0251747 0
-0.000999607 0.0251695 0
-0.000796004 0.0251794 0
-0.000625443 0.0249961 0
-0.000477681 0.0249851 0
-0.000330622 0.0249046 0
-0.000200859 0.0249473 0
-0.00211858 0.0259857 0
-0.00193464 0.0258707 0
-0.00177313 0.025925 0
-0.00165622 0.0259105 0
-0.00148231 0.0259133 0
-0.00133376 0.0258975 0
-0.00117565 0.0257949 0
-0.000982911 0.0257104 0
-0.000850603 0.0256995 0
-0.000666481 0.0255813 0
-0.000530447 0.0255654 0
-0.000353631 0.0256405 0
-0.000141191 0.0256355 0
-0.00202531 0.0265114 0
-0.00191922 0.0264664 0
-0.00179376 0.0264349 0
-0.00165812 0.0263717 0
-0.00150397 0.0264972 0
-0.00132529 0.0263386 0
-0.00118945 0.0263082 0
-0.0009627 0.0262781 0
-0.000860202 0.0261135 0
-0.00064806 0.0260976 0
-0.000507225 0.0260913 0
-0.000363704 0.0260051 0
-0.00022321 0.0260274 0
-0.00204073 0.0271156 0
-0.00191455 0.0271529 0
-0.00177328 0.0271122 0
-0.00165239 0.0270136 0
-0.00152529 0.0270209 0
-0.00135778 0.026955 0
-0.00116698 0.0267688 0
-0.000980855 0.0267107 0
-0.000862167 0.026764 0
-0.000655003 0.0268062 0
-0.000509567 0.0267603 0
-0.000372598 0.0267353 0
-0.000253216 0.0266853 0
-0.00210295 0.0274691 0
-0.00191704 0.0274887 0
-0.00174783 0.0274696 0
-0.0016409 0.0275012 0
-0.00152669 0.0274499 0
-0.00134431 0.0273856 0
-0.00121293 0.0273873 0
-0.00101982 0.0272898 0
-0.000845781 0.0273148 0
-0.000681265 0.0273044 0
-0.000550868 0.0273037 0
-0.000370349 0.0273886 0
-0.000153501 0.0272587 0
-0.00203069 0.0281137 0
-0.0019168 0.0281774 0
-0.00177411 0.0281891 0
-0.001634 0.0281668 0
-0.00151332 0.0280445 0
-0.00131695 0.0281169 0
-0.0011829 0.0279527 0
-0.00103747 0.0278026 0
-0.000816015 0.0279436 0
-0.000678439 0.0278176 0
-0.000529705 0.027857 0
-0.000377231 0.0277887 0
-0.000248978 0.0278402 0
-0.00211017 0.0287051 0
-0.00191857 0.0285241 0
-0.00177118 0.0285172 0
-0.00162274 0.0284982 0
-0.00145312 0.0285488 0
-0.00132809 0.0285365 0
-0.00116705 0.0284993 0
-0.00101201 0.0284518 0
-0.000814056 0.028527 0
-0.000708037 0.0284671 0
-0.000538737 0.0285266 0
-0.000375403 0.0285064 0
-0.000170087 0.0285125 0
-0.00206603 0.0291233 0
-0.00191063 0.0291314 0
-0.0017652 0.0291221 0
-0.00162029 0.0291105 0
-0.00147901 0.0290908 0
-0.0013332 0.0289953 0
-0.00118907 0.0289908 0
-0.000969089 0.0290598 0
-0.000826773 0.0289389 0
-0.000683697 0.0289536 0
-0.000538211 0.0288704 0
-0.000382004 0.0288527 0
-0.000241045 0.0288937 0
-0.00203731 0.0298321 0
-0.00190697 0.0298679 0
-0.00176154 0.0298661 0
-0.00161456 0.0298534 0
-0.0014659 0.029834 0
-0.00130942 0.0297782 0
-0.00112935 0.0296227 0
-0.000968322 0.0296269 0
-0.000832352 0.02963 0
-0.000686932 0.029629 0
-0.000536484 0.0296194 0
-0.000388116 0.0296112 0
-0.000246231 0.029625 0
-0.0020996 0.0301855 0
-0.00190994 0.030203 0
-0.00176161 0.0301918 0
-0.00161438 0.0301784 0
-0.00146348 0.0301783 0
-0.00130365 0.0301408 0
-0.00111378 0.0300962 0
-0.000992595 0.0302554 0
-0.000870824 0.0302658 0
-0.000692896 0.0302426 0
-0.00053491 0.0302327 0
-0.000375523 0.0302245 0
-0.00017149 0.0300217 0
-0.00202536 0.0308385 0
-0.00190818 0.030897 0
-0.00175799 0.0308872 0
-0.00161887 0.0308236 0
-0.00149002 0.0308591 0
-0.00126898 0.0308052 0
-0.00114637 0.0307232 0
-0.00100027 0.0307154 0
-0.000846215 0.0306121 0
-0.000692266 0.030571 0
-0.000535676 0.0305712 0
-0.000377809 0.0305854 0
-0.000252207 0.0306464 0
-0.00210812 0.0314372 0
-0.00191143 0.0312511 0
-0.00175629 0.0312424 0
-0.00162339 0.0313309 0
-0.001449 0.0313106 0
-0.00128907 0.0312892 0
-0.00114732 0.0312789 0
-0.00100116 0.0312789 0
-0.000839237 0.0313525 0
-0.000698511 0.0313068 0
-0.000567658 0.0313588 0
-0.000375335 0.0313161 0
-0.000172172 0.0313116 0
-0.00206706 0.0318413 0
-0.00191102 0.0318608 0
-0.00176409 0.0318528 0
-0.00162581 0.0318328 0
-0.00146951 0.031836 0
-0.00129846 0.0318313 0
-0.00115369 0.0318232 0
-0.00100893 0.0318213 0
-0.000846486 0.0318247 0
-0.000729182 0.0318152 0
-0.000522621 0.0317868 0
-0.000372259 0.0316878 0
-0.00023735 0.0316954 0
-0.00207147 0.0324553 0
-0.00195032 0.0325352 0
-0.00173625 0.0325256 0
-0.00161743 0.0324468 0
-0.00147305 0.0323908 0
-0.00130585 0.0323763 0
-0.00115875 0.0323856 0
-0.00101016 0.0323661 0
-0.000843782 0.032348 0
-0.0006947 0.0323408 0
-0.00054049 0.0323552 0
-0.000398085 0.0324499 0
-0.000186719 0.0323802 0
-0.00209025 0.0331483 0
-0.00192597 0.0329339 0
-0.00176781 0.0329244 0
-0.00162044 0.0331104 0
-0.00146817 0.0328855 0
-0.00131923 0.032881 0
-0.00116276 0.0331164 0
-0.000997311 0.0329038 0
-0.000850302 0.0328583 0
-0.000696961 0.033089 0
-0.000531631 0.0329119 0
-0.000370866 0.0329654 0
-0.000192945 0.0328434 0
0.00044797 0.0185885 0
0.000277114 0.0184041 0
0.000106641 0.0186159 0
-4.50679e-05 0.0186816 0
-0.000165301 0.0184704 0
-0.00029967 0.0186845 0
-0.000451117 0.0186661 0
-0.000553345 0.0186196 0
-0.000670393 0.018666 0
-0.000763861 0.0187224 0
-0.00221239 0.0219451 0
-0.00221507 0.0220465 0
-0.00221438 0.0219869 0
-0.00221413 0.0219749 0
-0.00221144 0.0219372 0
-0.00220662 0.0219178 0
-0.00220401 0.0219122 0
-0.00218653 0.021892 0
-0.00065052 0.0180654 0
-0.000663087 0.0180684 0
-0.000658708 0.0180675 0
-0.000680709 0.0180756 0
-0.000638393 0.0180608 0
-0.000646562 0.0180631 0
-0.000654547 0.0180667 0
-0.000667777 0.0180704 0
-0.00067378 0.0180725 0
-0.000688426 0.0180783 0
-0.000697414 0.0180817 0
-0.000708147 0.0180858 0
-0.000720755 0.0180926 0
-0.000736791 0.0181033 0
-0.000755926 0.0181221 0
-0.000784794 0.0181497 0
-0.00221466 0.0220143 0
-0.00221456 0.0219999 0
-0.00221377 0.021964 0
-0.00221309 0.0219541 0
-0.00221018 0.0219301 0
-0.00220859 0.0219237 0
-0.00220018 0.0219065 0
-0.00219361 0.0219008 0
-0.00111591 0.0200609 0
-0.00140259 0.0208902 0
-0.00104665 0.0197971 0
-0.00177242 0.0215746 0
-0.000890175 0.0189569 0
-0.0016318 0.0213579 0
-0.00101493 0.0196619 0
-0.00127315 0.0205567 0
-0.000873002 0.0188111 0
-0.00196388 0.0217774 0
-0.000957921 0.0193851 0
-0.00135852 0.0207834 0
-0.00153923 0.0211854 0
-0.00206359 0.0218413 0
-0.00181972 0.0216348 0
-0.00211112 0.0218611 0
-0.00186719 0.0216887 0
-0.00201435 0.0218133 0
-0.000985318 0.0195246 0
-0.0011918 0.0203145 0
-0.000910211 0.0191011 0
-0.00115309 0.020189 0
-0.00216815 0.0218802 0
-0.00158544 0.0212743 0
-0.00167837 0.0214359 0
-0.00144751 0.020993 0
-0.00191518 0.0217364 0
-0.0017252 0.0215083 0
-0.000932849 0.019244 0
-0.00108035 0.0199302 0
-0.000859241 0.0186653 0
-0.00131537 0.0206722 0
-0.00221277 0.0220795 0
-0.000631743 0.0180857 0
-0.00220889 0.0221117 0
-0.00062578 0.0181249 0
-0.00220199 0.022172 0
-0.000613246 0.018185 0
-0.00220757 0.0219758 0
-0.00220294 0.0219355 0
-0.00218973 0.0219084 0
-0.00220851 0.0220025 0
-0.00220592 0.0219537 0
-0.00219789 0.0219208 0
-0.000651342 0.0181249 0
-0.000664501 0.0181312 0
-0.000660002 0.0181301 0
-0.000646887 0.0181184 0
-0.000655661 0.0181285 0
-0.00068802 0.0181478 0
-0.000696085 0.0181544 0
-0.000705918 0.0181621 0
-0.000717782 0.0181721 0
-0.000731594 0.0181902 0
-0.00220704 0.0219643 0
-0.00220875 0.0220181 0
-0.00220809 0.0219884 0
-0.00220447 0.0219442 0
-0.0022007 0.0219278 0
-0.0021943 0.0219145 0
-0.00218333 0.0219018 0
-0.00220771 0.0220514 0
-0.00063963 0.0181296 0
-0.000822734 0.0181629 0
-0.00149312 0.0210915 0
-0.00123184 0.0204373 0
-0.00147551 0.0208916 0
-0.00192933 0.0217093 0
-0.00206761 0.0218369 0
-0.00184171 0.021593 0
-0.00170837 0.021371 0
-0.00100282 0.019533 0
-0.00103866 0.0196665 0
-0.000843341 0.0187033 0
-0.00120147 0.0201861 0
-0.00161714 0.0211937 0
-0.00202101 0.0217999 0
-0.00107673 0.0197987 0
-0.000884429 0.0189852 0
-0.00115843 0.0200587 0
-0.0013363 0.0205555 0
-0.000909943 0.0191239 0
-0.0014286 0.0207835 0
-0.000938314 0.0192617 0
-0.00166315 0.0212852 0
-0.00175307 0.0214512 0
-0.000827463 0.0185545 0
-0.000862114 0.0188454 0
-0.00188549 0.0216545 0
-0.000969322 0.0193981 0
-0.00138225 0.0206716 0
-0.00111674 0.0199295 0
-0.00197429 0.0217582 0
-0.00179745 0.0215253 0
-0.00220175 0.0220732 0
-0.000638361 0.0181931 0
-0.00219306 0.022103 0
-0.00063745 0.0182736 0
-0.00218312 0.022275 0
-0.000586539 0.0182992 0
-0.00219224 0.0219219 0
-0.00217769 0.0219008 0
-0.000681539 0.0182003 0
-0.000688589 0.018212 0
-0.000696744 0.018223 0
-0.000706059 0.0182346 0
-0.000716936 0.0182493 0
-0.00218373 0.0219073 0
-0.00218846 0.0219142 0
-0.000743413 0.0182854 0
-0.00216944 0.0218941 0
-0.00220229 0.0220029 0
-0.00220175 0.0219871 0
-0.00215937 0.0218879 0
-0.00220241 0.0220225 0
-0.00219528 0.0219303 0
-0.000647479 0.0181703 0
-0.000653625 0.0181853 0
-0.00067143 0.0181922 0
-0.000658721 0.0181917 0
-0.00220097 0.0219731 0
-0.000667732 0.0181936 0
-0.000663332 0.0181941 0
-0.00219996 0.0219606 0
-0.000786583 0.0183641 0
-0.00152284 0.0209964 0
-0.00124559 0.020312 0
-0.00129058 0.0204355 0
-0.00157018 0.0210973 0
-0.000815853 0.0186058 0
-0.00202371 0.0217818 0
-0.000834852 0.0187425 0
-0.00190156 0.0216153 0
-0.000858543 0.0188795 0
-0.000916502 0.0191488 0
-0.000950132 0.0192821 0
-0.00194202 0.0216771 0
-0.000885878 0.0190146 0
-0.00198281 0.0217329 0
-0.0009865 0.0194143 0
-0.00186056 0.021547 0
-0.00102551 0.0195455 0
-0.00181894 0.0214722 0
-0.00177668 0.021391 0
-0.00106706 0.0196761 0
-0.00144624 0.0206792 0
-0.00139772 0.020563 0
-0.00149497 0.0207918 0
-0.00173334 0.0213036 0
-0.00168829 0.0212102 0
-0.00111083 0.0198064 0
-0.00120339 0.0200649 0
-0.00115641 0.0199361 0
-0.00213551 0.0218757 0
-0.00219688 0.0220366 0
-0.000649292 0.0182306 0
-0.00218849 0.0220496 0
-0.000654149 0.0183121 0
-0.00217742 0.0221414 0
-0.000640549 0.0184032 0
-0.00212339 0.0218658 0
-0.00218492 0.0219137 0
-0.00217456 0.0218964 0
-0.000699357 0.0182862 0
-0.000708984 0.0183032 0
-0.0021672 0.0218887 0
-0.00218023 0.0219046 0
-0.000720046 0.0183232 0
-0.000733371 0.0183497 0
-0.00065784 0.0182508 0
-0.000768786 0.0183771 0
-0.000749937 0.0183758 0
-0.00219544 0.0219836 0
-0.00219152 0.0219349 0
-0.000673839 0.0182603 0
-0.00215671 0.0218801 0
-0.00214194 0.0218709 0
-0.00219326 0.0219539 0
-0.000664157 0.0182589 0
-0.000669282 0.0182615 0
-0.000817373 0.0183604 0
-0.00219421 0.0219676 0
-0.00134876 0.0204429 0
-0.00154404 0.0209016 0
-0.00164134 0.0211114 0
-0.00125129 0.0201931 0
-0.00105234 0.019562 0
-0.00109907 0.0196911 0
-0.000792095 0.0185221 0
-0.00191536 0.0215726 0
-0.00187678 0.0214981 0
-0.000928637 0.0191755 0
-0.000966973 0.0193047 0
-0.000861249 0.0189141 0
-0.00195323 0.0216407 0
-0.0010082 0.0194333 0
-0.00150647 0.020694 0
-0.0019909 0.0217028 0
-0.000893277 0.0190453 0
-0.0018373 0.0214168 0
-0.00145576 0.0205772 0
-0.0020647 0.0218052 0
-0.000832488 0.0187791 0
-0.000807791 0.0186408 0
-0.00202837 0.0217581 0
-0.0017963 0.0213288 0
-0.00175291 0.0212341 0
-0.00119847 0.0199504 0
-0.00114795 0.0198206 0
-0.00159299 0.0210083 0
-0.0012998 0.0203194 0
-0.0021927 0.0220064 0
-0.002186 0.0220104 0
-0.000665316 0.0183286 0
-0.00217472 0.0220606 0
-0.000664911 0.0184224 0
-0.0006906 0.0183109 0
-0.00217929 0.0219063 0
-0.0021854 0.0219318 0
-0.00217338 0.0218933 0
-0.000703174 0.0183445 0
-0.000714118 0.0183679 0
-0.00216659 0.0218826 0
-0.00215816 0.0218728 0
-0.000754255 0.0184609 0
-0.000725777 0.0183931 0
-0.000738771 0.018422 0
-0.000686737 0.0183269 0
-0.00214623 0.0218622 0
-0.00212933 0.0218497 0
-0.000682846 0.0183324 0
-0.00218923 0.0219819 0
-0.00218595 0.0219437 0
-0.000672888 0.0183346 0
-0.000678433 0.0183352 0
-0.0021871 0.0219604 0
-0.00140493 0.0204572 0
-0.00155704 0.0208074 0
-0.00170668 0.0211334 0
-0.00124991 0.0200804 0
-0.00103343 0.0194556 0
-0.000987694 0.0193294 0
-0.00130169 0.0202092 0
-0.0019272 0.0215278 0
-0.00196283 0.0216015 0
-0.00185244 0.0213603 0
-0.000945087 0.0192036 0
-0.000905489 0.0190768 0
-0.0008689 0.0189482 0
-0.00108224 0.0195827 0
-0.00189072 0.0214478 0
-0.00160783 0.0209187 0
-0.00181129 0.0212652 0
-0.00150981 0.0205982 0
-0.00077648 0.0185197 0
-0.00199789 0.021669 0
-0.000835152 0.0188155 0
-0.00206742 0.0217848 0
-0.00203261 0.0217303 0
-0.00165802 0.0210278 0
-0.000804929 0.0186765 0
-0.00135326 0.0203347 0
-0.00113375 0.0197114 0
-0.00118736 0.0198419 0
-0.00210305 0.0218339 0
-0.00217498 0.022008 0
-0.000678258 0.018425 0
-0.00215125 0.022055 0
-0.000710467 0.0184066 0
-0.00217683 0.0219056 0
-0.00216796 0.0218821 0
-0.000703292 0.0183985 0
-0.00215989 0.021867 0
-0.00215022 0.0218541 0
-0.000721414 0.0184304 0
-0.000733783 0.0184599 0
-0.00074758 0.0184951 0
-0.00217721 0.0219156 0
-0.000758451 0.0185173 0
-0.00213858 0.0218419 0
-0.000699503 0.0184044 0
-0.000696001 0.018411 0
-0.00217749 0.0219293 0
-0.000692157 0.0184182 0
-0.00217835 0.0219524 0
-0.00145573 0.020479 0
-0.00156166 0.0207154 0
-0.00176644 0.0211628 0
-0.0010112 0.0193561 0
-0.00129698 0.0201049 0
-0.00124213 0.0199736 0
-0.000964763 0.0192329 0
-0.00161428 0.0208283 0
-0.00193739 0.0214826 0
-0.001971 0.0215608 0
-0.00190223 0.0213973 0
-0.00200382 0.021633 0
-0.000921272 0.0191088 0
-0.000880121 0.0189807 0
-0.00106111 0.0194808 0
-0.00135031 0.0202355 0
-0.00186374 0.021303 0
-0.000841784 0.0188493 0
-0.0020991 0.0218083 0
-0.00171813 0.0210547 0
-0.00206818 0.0217584 0
-0.00203649 0.0216995 0
-0.000807995 0.018718 0
-0.00077805 0.0185857 0
-0.00166702 0.0209425 0
-0.00111441 0.019608 0
-0.00117063 0.0197385 0
-0.0021845 0.0219852 0
-0.00217548 0.0219728 0
-0.000686578 0.0184231 0
-0.00215866 0.0219956 0
-0.000700222 0.0185455 0
-0.00215561 0.0221607 0
-0.000720378 0.0184647 0
-0.000731165 0.0184923 0
-0.00216214 0.021868 0
-0.00216809 0.0218871 0
-0.00215406 0.0218503 0
-0.00214406 0.0218346 0
-0.000744221 0.0185244 0
-0.000758728 0.018563 0
-0.00213089 0.0218189 0
-0.0021188 0.0218102 0
-0.000718777 0.0184765 0
-0.0021671 0.0218921 0
-0.000715854 0.0184841 0
-0.000714356 0.0184983 0
-0.00216624 0.0219049 0
-0.000986437 0.0192632 0
-0.00197799 0.0215206 0
-0.00144691 0.0203886 0
-0.00194589 0.0214384 0
-0.00161089 0.0207333 0
-0.00182085 0.0211999 0
-0.000939828 0.0191418 0
-0.00103639 0.0193845 0
-0.00200895 0.0215963 0
-0.00122876 0.0198718 0
-0.00134613 0.0201415 0
-0.000894603 0.0190148 0
-0.00140244 0.0202744 0
-0.00166786 0.0208542 0
-0.00128768 0.0200068 0
-0.00191049 0.0213467 0
-0.00204009 0.021667 0
-0.000850383 0.0188799 0
-0.00209742 0.021786 0
-0.00207111 0.0217321 0
-0.000778759 0.0186217 0
-0.00172228 0.0209736 0
-0.00109053 0.0195095 0
-0.00177343 0.0210894 0
-0.0011486 0.0196394 0
-0.00155791 0.0206307 0
-0.000711909 0.0185138 0
-0.00216108 0.0219513 0
-0.000706017 0.0185236 0
-0.0021635 0.0219224 0
-0.000689491 0.0185795 0
-0.00213954 0.0219669 0
-0.00211886 0.022072 0
-0.000742474 0.0185533 0
-0.00214701 0.0218283 0
-0.00214013 0.0218182 0
-0.00215496 0.0218497 0
-0.00075773 0.0185887 0
-0.00212604 0.0217943 0
-0.000772989 0.018629 0
-0.000739283 0.0185615 0
-0.00215402 0.0218565 0
-0.000734508 0.0185605 0
-0.0019838 0.0214825 0
-0.00158957 0.0206094 0
-0.00201308 0.0215601 0
-0.00096007 0.0191761 0
-0.00145881 0.0203427 0
-0.00091379 0.0190543 0
-0.00100876 0.0192928 0
-0.00166022 0.0207606 0
-0.00187017 0.0212443 0
-0.0019519 0.0213953 0
-0.00139944 0.0201961 0
-0.000866747 0.0189234 0
-0.00120967 0.0197741 0
-0.00204294 0.0216323 0
-0.00133571 0.020052 0
-0.00207397 0.0217022 0
-0.00210485 0.0217704 0
-0.00171918 0.0208898 0
-0.00106271 0.0194149 0
-0.00127239 0.019912 0
-0.00177386 0.0210135 0
-0.00182435 0.0211324 0
-0.00112174 0.0195437 0
-0.00215079 0.021865 0
-0.000736518 0.0186165 0
-0.00214363 0.0218758 0
-0.00211951 0.0218895 0
-0.000741094 0.018705 0
-0.00212 0.0219662 0
-0.00208835 0.0221406 0
-0.00210366 0.021737 0
-0.00212781 0.0217814 0
-0.000790172 0.0186937 0
-0.00214017 0.0218077 0
-0.000764422 0.0186554 0
-0.000796657 0.0186982 0
-0.00152653 0.0204395 0
-0.00201613 0.0215272 0
-0.000936555 0.0191045 0
-0.00198848 0.0214481 0
-0.000979108 0.0192053 0
-0.00204307 0.0215966 0
-0.0014622 0.0202709 0
-0.000890755 0.018982 0
-0.00191467 0.0212956 0
-0.00118502 0.019679 0
-0.0010317 0.0193234 0
-0.0013861 0.0201077 0
-0.00207288 0.0216654 0
-0.00171021 0.020806 0
-0.00131794 0.0199614 0
-0.0017678 0.0209356 0
-0.00109075 0.0194506 0
-0.00125091 0.019819 0
-0.00187117 0.0211837 0
-0.00182182 0.0210626 0
-0.000776175 0.018661 0
-0.00213703 0.0217974 0
-0.0016506 0.0206739 0
-0.000728801 0.018622 0
-0.000743004 0.0186085 0
-0.00076878 0.0186511 0
-0.00213193 0.0218113 0
-0.00212188 0.0218383 0
-0.000730463 0.0187473 0
-0.0020923 0.0219413 0
-0.00207085 0.0219813 0
-0.00210415 0.0223262 0
-0.0021121 0.0217407 0
-0.0014884 0.0202764 0
-0.00212393 0.0217584 0
-0.000823117 0.018794 0
-0.000814219 0.0187636 0
-0.00202034 0.0215034 0
-0.00212581 0.0217631 0
-0.00203989 0.0215638 0
-0.000807982 0.0187558 0
-0.00211814 0.0217469 0
-0.00159324 0.0205352 0
-0.000997828 0.0192333 0
-0.00206475 0.0216202 0
-0.00195481 0.0213532 0
-0.00143152 0.0201596 0
-0.00115529 0.019586 0
-0.00136365 0.0200174 0
-0.00105635 0.0193593 0
-0.00175536 0.0208564 0
-0.000852086 0.0188756 0
-0.00129374 0.0198722 0
-0.00169605 0.0207252 0
-0.00191407 0.0212432 0
-0.00181321 0.0209906 0
-0.000797902 0.0187443 0
-0.00122366 0.0197276 0
-0.0018665 0.021121 0
-0.000801375 0.0187434 0
-0.000945603 0.0191151 0
-0.00153626 0.0203931 0
-0.00212285 0.0218058 0
-0.00077721 0.0187096 0
-0.00213784 0.0218099 0
-0.000771748 0.0187144 0
-0.00205317 0.0218241 0
-0.00209115 0.0217753 0
-0.000789129 0.0188826 0
-0.00080065 0.0188524 0
-0.00209102 0.0218562 0
-0.00215989 0.0224226 0
-0.00204604 0.0221767 0
-0.00209543 0.0216918 0
-0.00147475 0.0202179 0
-0.0021034 0.0216949 0
-0.00086836 0.0189189 0
-0.00164361 0.0206126 0
-0.000807725 0.0188028 0
-0.00199147 0.0214173 0
-0.00211908 0.0217538 0
-0.000834313 0.0188304 0
-0.00112178 0.0194954 0
-0.00101934 0.0192695 0
-0.00140801 0.0200787 0
-0.00173649 0.0207758 0
-0.00133627 0.0199316 0
-0.000831815 0.0188314 0
-0.00195401 0.0213114 0
-0.00179879 0.0209177 0
-0.00126362 0.0197842 0
-0.000801809 0.0187688 0
-0.00119202 0.019639 0
-0.000914849 0.0190353 0
-0.00204871 0.0215627 0
-0.000964229 0.0191494 0
-0.00210151 0.0217496 0
-0.00185679 0.0210577 0
-0.00190869 0.0211901 0
-0.00153514 0.0203489 0
-0.000807508 0.0188295 0
-0.000855548 0.0190181 0
-0.000768754 0.0189161 0
-0.00202109 0.02187 0
-0.00205875 0.0217359 0
-0.00197611 0.0221835 0
-0.00205334 0.022395 0
-0.00207703 0.0216176 0
-0.00207572 0.0216262 0
-0.000827907 0.0188302 0
-0.00210619 0.0217046 0
-0.00202499 0.0214869 0
-0.00145306 0.0201492 0
-0.0016726 0.0206388 0
-0.000867382 0.0189183 0
-0.00108499 0.0194064 0
-0.00160179 0.0204966 0
-0.00098281 0.0191859 0
-0.00199122 0.0213871 0
-0.0013775 0.0199955 0
-0.0015234 0.0202964 0
-0.00177914 0.020845 0
-0.00130298 0.0198464 0
-0.00115851 0.0195558 0
-0.00123197 0.0197041 0
-0.00194807 0.0212677 0
-0.00184253 0.020996 0
-0.000841234 0.0188765 0
-0.00189869 0.021137 0
-0.000935074 0.0190795 0
-0.000851456 0.018924 0
-0.00207151 0.0216725 0
-0.00210973 0.0217443 0
-0.000855788 0.0189685 0
-0.000847702 0.0190709 0
-0.0020437 0.0220262 0
-0.00199901 0.0217028 0
-0.00202475 0.0216844 0
-0.0019148 0.0219304 0
-0.000871655 0.018938 0
-0.00205383 0.0215569 0
-0.00209493 0.0216793 0
-0.00171053 0.0206918 0
-0.00104262 0.0193131 0
-0.00142068 0.0200702 0
-0.00202715 0.0214721 0
-0.00157829 0.020418 0
-0.00150237 0.020237 0
-0.00207859 0.0216513 0
-0.00133737 0.0199044 0
-0.00112061 0.0194724 0
-0.000951757 0.0191174 0
-0.00198401 0.0213505 0
-0.00127027 0.0197729 0
-0.00182462 0.0209395 0
-0.00120609 0.0196439 0
-0.000898179 0.0189929 0
-0.00163884 0.0205406 0
-0.00208073 0.0216249 0
-0.00188494 0.0210879 0
-0.00202262 0.0215985 0
-0.00193806 0.0212251 0
-0.00205817 0.0216777 0
-0.000894407 0.019009 0
-0.000916955 0.0191278 0
-0.000908154 0.0190679 0
-0.000929981 0.0192178 0
-0.00196154 0.0217293 0
-0.00194191 0.021554 0
-0.000839059 0.0191425 0
-0.00189774 0.022068 0
-0.00158756 0.0204152 0
-0.00205814 0.0215592 0
-0.00192369 0.021186 0
-0.000997091 0.0192177 0
-0.00175112 0.0207666 0
-0.00206272 0.0215804 0
-0.00146855 0.0201652 0
-0.00137653 0.0199814 0
-0.00106094 0.019353 0
-0.00201119 0.0214225 0
-0.000909987 0.0190225 0
-0.000941148 0.019101 0
-0.00204591 0.0215749 0
-0.00167165 0.0205927 0
-0.00197456 0.0213197 0
-0.00180682 0.0209 0
-0.00118338 0.0195997 0
-0.000974844 0.0192263 0
-0.000959596 0.0191617 0
-0.000979212 0.0192758 0
-0.0019682 0.0214431 0
-0.00192524 0.021408 0
-0.000913873 0.0192643 0
-0.00191098 0.0222621 0
-0.00184325 0.0218894 0
-0.00189451 0.021552 0
-0.00204448 0.0215181 0
-0.0016307 0.0205017 0
-0.0011194 0.019474 0
-0.00155042 0.0203324 0
-0.0019038 0.0211489 0
-0.00101133 0.0192578 0
-0.00184869 0.0210157 0
-0.00201626 0.0214438 0
-0.00204668 0.0215481 0
-0.00169576 0.0206442 0
-0.00195776 0.0212866 0
-0.00130972 0.0198601 0
-0.00143919 0.020116 0
-0.00123011 0.0197015 0
-0.00105573 0.0194129 0
-0.00200748 0.0214882 0
-0.00103215 0.019323 0
-0.00174329 0.0207565 0
-0.00187708 0.0213831 0
-0.00190944 0.0212851 0
-0.000981771 0.0193796 0
-0.000906293 0.0193294 0
-0.0019108 0.021742 0
-0.00183488 0.0220661 0
-0.00191313 0.0225042 0
-0.00167327 0.0206063 0
-0.00188217 0.0211184 0
-0.00115345 0.0195513 0
-0.00202133 0.0214871 0
-0.00158903 0.0204235 0
-0.00151206 0.0202627 0
-0.00137581 0.0199952 0
-0.00178805 0.020876 0
-0.00126353 0.0197849 0
-0.00193056 0.0212408 0
-0.0010815 0.0194063 0
-0.00106552 0.0195669 0
-0.00195125 0.0213364 0
-0.00204257 0.021603 0
-0.00186072 0.0212374 0
-0.00111394 0.0195828 0
-0.000953807 0.0195189 0
-0.00111242 0.0194902 0
-0.000979538 0.0194513 0
-0.00183909 0.0215464 0
-0.00182235 0.0213638 0
-0.00175119 0.0220565 0
-0.000755301 0.0190092 0
-0.00199088 0.0227143 0
-0.00141594 0.0200913 0
-0.00153875 0.0203387 0
-0.00173087 0.0207481 0
-0.00119438 0.0196517 0
-0.00198332 0.0213798 0
-0.00147654 0.0202068 0
-0.00189393 0.0211837 0
-0.00115631 0.0196118 0
-0.00161434 0.0205037 0
-0.00133266 0.0199325 0
-0.00184541 0.0211153 0
-0.00180379 0.0211936 0
-0.00105842 0.0196644 0
-0.00183005 0.0210098 0
-0.000875474 0.0194711 0
-0.00176194 0.0213517 0
-0.00117033 0.0197533 0
-0.000768212 0.0192096 0
-0.00173971 0.0222942 0
-0.00147169 0.0202288 0
-0.00155513 0.0204108 0
-0.00175411 0.0208312 0
-0.00121276 0.0197671 0
-0.00168576 0.020669 0
-0.0012469 0.0197821 0
-0.00177426 0.0209333 0
-0.00178789 0.0210492 0
-0.00171508 0.0209733 0
-0.00177947 0.021545 0
-0.00167609 0.021148 0
-0.0009674 0.0196783 0
-0.00113662 0.0197638 0
-0.000655507 0.0188696 0
-0.00105504 0.0197885 0
-0.00182826 0.0225353 0
-0.000808858 0.019469 0
-0.00169899 0.0207507 0
-0.00131807 0.0199583 0
-0.00122489 0.0199285 0
-0.00171173 0.020856 0
-0.00149646 0.0203354 0
-0.00116322 0.0199168 0
-0.00165482 0.0209654 0
-0.00126846 0.0199301 0
-0.00169605 0.0213522 0
-0.00184945 0.0217285 0
-0.0017202 0.0215738 0
-0.000917009 0.0196953 0
-0.000762575 0.0195618 0
-0.00114952 0.0200412 0
-0.00173729 0.0225663 0
-0.00162698 0.0205772 0
-0.00152924 0.020468 0
-0.00141145 0.0201565 0
-0.00162465 0.0206486 0
-0.00135172 0.0200828 0
-0.00163294 0.020824 0
-0.00158351 0.0209366 0
-0.00160283 0.0211347 0
-0.00175837 0.021828 0
-0.00132476 0.0201023 0
-0.00123635 0.0201382 0
-0.00115373 0.0202056 0
-0.00161458 0.0213577 0
-0.000641764 0.0193607 0
-0.00142724 0.0202662 0
-0.00165194 0.0207865 0
-0.00139058 0.0200718 0
-0.00156802 0.0207683 0
-0.00133929 0.0203417 0
-0.00138762 0.0202978 0
-0.00106797 0.0201639 0
-0.00124584 0.0202766 0
-0.00165892 0.0216357 0
-0.00153375 0.0211166 0
-0.00149219 0.0207244 0
-0.0015665 0.0206347 0
-0.00147652 0.0204385 0
-0.00146523 0.020533 0
-0.00125216 0.0204484 0
-0.00133998 0.0204981 0
-0.00116357 0.0203712 0
-0.000957393 0.0199292 0
-0.00168463 0.0218532 0
-0.00159946 0.0217288 0
-0.00144325 0.0209811 0
-0.00150436 0.0212207 0
-0.00141276 0.0205529 0
-0.00145747 0.0213199 0
-0.00136419 0.0207102 0
-0.00109687 0.0204041 0
-0.000993565 0.0201449 0
-0.00149693 0.0215681 0
-0.0013944 0.0213921 0
-0.00142176 0.0206748 0
-0.0013494 0.0208702 0
-0.00116248 0.0207008 0
-0.00153582 0.0218283 0
-0.00140389 0.0210854 0
-0.00142239 0.0216758 0
-0.00128997 0.0209432 0
-0.00136958 0.0211844 0
-0.00148505 0.0219334 0
-0.00119131 0.0209562 0
-0.00149962 0.0221902 0
-0.00108246 0.0207338 0
-0.00156073 0.0220564 0
-0.00163029 0.0223194 0
-0.00138414 0.0221744 0
-0.000992881 0.0207386 0
-0.00088642 0.0204789 0
-0.00130272 0.0218993 0
-0.000881181 0.0202346 0
-0.000897028 0.0207473 0
-0.00127229 0.0221363 0
-0.00131692 0.0216727 0
-0.00123375 0.0216717 0
-0.000980553 0.0202913 0
-0.000785048 0.0202043 0
-0.00122014 0.0214507 0
-0.001129 0.0215142 0
-0.000683724 0.020164 0
-0.00108861 0.0217512 0
-0.00101017 0.0210012 0
-0.00100622 0.0214372 0
-0.00116222 0.0220627 0
-0.00106082 0.0205254 0
-0.00191018 0.0227649 0
-0.00206334 0.0226451 0
-0.000720763 0.0197132 0
-0.000575609 0.0190357 0
-0.000683847 0.0204437 0
-0.000792198 0.0207459 0
-0.00131105 0.0214287 0
-0.000862375 0.0197177 0
-0.00156324 0.0224773 0
-0.001036 0.0212508 0
-0.000581553 0.0198468 0
-0.0021744 0.0226056 0
-0.00174021 0.0228136 0
-0.000594474 0.0185495 0
-0.000788579 0.0199991 0
-0.00184578 0.0332578 0
-0.00139925 0.0332229 0
-0.000263817 0.0331777 0
-0.000915323 0.0331942 0
-0.000466974 0.0332009 0
-0.000159049 0.031996 0
-0.00011388 0.0251672 0
-3.08778e-05 0.0235285 0
7.79955e-05 0.0222665 0
0.000273776 0.0205941 0
0.000418497 0.0194491 0
-0.000155372 0.0263986 0
-0.000156816 0.0280588 0
-0.000162589 0.0292657 0
-0.000159994 0.0308645 0
-0.00211552 0.0252826 0
-0.00214395 0.0228087 0
-0.00211819 0.0241944 0
-0.00211376 0.0278986 0
-0.00211382 0.0321702 0
-0.00211061 0.030621 0
-0.00211001 0.0295238 0
-0.00210598 0.0267693 0
-0.000362082 0.0184209 0
3.16866e-05 0.0183206 0
-0.000594519 0.0188903 0
0.00039224 0.0182504 0
-0.00051827 0.0187479 0
-0.00110103 0.0209753 0
-0.000527879 0.0183097 0
-0.00190392 0.023042 0
-0.00105669 0.0219928 0
-0.00168004 0.02298 0
-0.00180357 0.0230917 0
-0.00206536 0.0229046 0
-0.00156342 0.0227688 0
-0.000578888 0.0201462 0
-0.000683761 0.0207303 0
-0.000586126 0.0195315 0
-0.00120711 0.0212026 0
-0.000788544 0.0210389 0
-0.000888481 0.0213645 0
-0.00135346 0.022448 0
-0.00112162 0.0222568 0
-0.00150394 0.0332595 0
-0.00195293 0.0332934 0
-5.16206e-05 0.0239323 0
-0.000132512 0.0316673 0
-0.000156331 0.0304653 0
-0.000131961 0.0296542 0
-0.000130538 0.0288848 0
-0.000149653 0.0276604 0
-0.000151711 0.026847 0
-0.000110692 0.0260147 0
7.36172e-05 0.0226351 0
0.000230396 0.0209957 0
0.000409807 0.0197516 0
-9.18722e-05 0.0247552 0
-0.000122471 0.0325342 0
-0.00212755 0.0238261 0
-0.00211565 0.0263593 0
-0.00213783 0.0271178 0
-0.00215391 0.0289775 0
-0.0021373 0.0298367 0
-0.00211522 0.0310111 0
-0.00212642 0.0327031 0
-0.00215364 0.0317133 0
-0.00211788 0.0282823 0
-0.00212376 0.0256297 0
-0.00213909 0.0245204 0
-0.000262358 0.0183169 0
-0.000925344 0.032619 0
-0.00184389 0.0326347 0
-0.000288949 0.0325502 0
-0.000460303 0.0326706 0
0.000308735 0.0189158 0
1.31317e-05 0.0189862 0
-0.000420659 0.0188834 0
-0.00139153 0.0326335 0
-0.00217508 0.0232273 0
0.00013762 0.0218152 0
0.000499317 0.0188966 0
-0.000295235 0.0321185 0
-0.00200252 0.0252081 0
-0.000262245 0.0253401 0
-0.00200622 0.0241762 0
0.000279183 0.0194292 0
-8.16545e-05 0.0223735 0
-0.000158517 0.0234718 0
-0.00030162 0.0263758 0
-0.00197646 0.0268005 0
-0.00198897 0.027757 0
-0.000296429 0.0282214 0
-0.000313644 0.0292482 0
-0.00197792 0.0294948 0
-0.00198261 0.0304733 0
-0.00199216 0.0321864 0
0.000151024 0.0205196 0
-0.000298084 0.0310228 0
-0.00174091 0.03328 0
-0.00129345 0.0332531 0
-0.00082648 0.0332228 0
-0.00045985 0.0183941 0
-5.06091e-05 0.0182967 0
-0.000473043 0.0195154 0
-0.00144129 0.0227828 0
-0.00112633 0.0225625 0
-0.00077366 0.0213245 0
-0.000467904 0.0201659 0
-0.00131949 0.0227231 0
-0.00206131 0.0231476 0
-0.000866561 0.0216406 0
-0.000580026 0.0207183 0
-0.00159951 0.0230444 0
-0.000296058 0.0235055 0
-0.00189258 0.0240969 0
-0.00047188 0.0192425 0
-0.000952813 0.0219528 0
-0.00173887 0.0233007 0
-0.00156808 0.0327144 0
-0.00184114 0.0322535 0
-0.000927223 0.03209 0
-0.000244661 0.0188826 0
-0.000290923 0.0314066 0
-0.000204008 0.0245924 0
-0.000127835 0.0227868 0
-0.000274968 0.0303157 0
-0.000293067 0.0285971 0
-0.000264865 0.0275005 0
-0.000269274 0.0257296 0
4.29883e-05 0.0216587 0
0.000244237 0.0198296 0
-2.12246e-06 0.0193653 0
7.13315e-05 0.0212325 0
-0.00028823 0.0270744 0
-0.000319168 0.0299626 0
-0.000425689 0.0320795 0
-0.000161088 0.0188913 0
-0.00198895 0.0246629 0
-0.00199301 0.0273972 0
-0.00201204 0.0284327 0
-0.00198733 0.0301126 0
-0.002007 0.0311596 0
-0.00203288 0.0327554 0
-0.00202646 0.0257792 0
-0.00200078 0.0261568 0
-0.00197655 0.0287808 0
-0.00197306 0.031508 0
-0.00138662 0.0321088 0
-0.00188162 0.0251821 0
-0.000641779 0.03267 0
-0.000745361 0.0326612 0
-0.00110804 0.0326918 0
-0.00121072 0.0326903 0
-0.0016619 0.0327446 0
-0.000423241 0.0253559 0
0.000203254 0.0188331 0
0.000118147 0.0194925 0
-0.00203368 0.0236671 0
-0.00019674 0.02415 0
-0.000219143 0.022339 0
-0.00185032 0.0267841 0
-0.000439156 0.0264018 0
-0.00184178 0.0277551 0
-0.000455391 0.0282508 0
-0.00046184 0.0292443 0
-0.00183539 0.029494 0
-0.00183489 0.0304568 0
7.56133e-06 0.020539 0
-0.000461666 0.0310359 0
-0.00157113 0.0232744 0
-0.000846593 0.02192 0
-0.00167511 0.0235112 0
-0.00177691 0.0235879 0
-0.00100967 0.0225345 0
-0.00137978 0.0229747 0
-0.000369377 0.019516 0
-0.000503419 0.0204725 0
-0.000930766 0.0222278 0
-0.000134174 0.0205947 0
-0.000575261 0.0264363 0
-0.0017693 0.0251573 0
-0.000545186 0.0252966 0
-0.00036117 0.0223531 0
-0.000240444 0.0228944 0
-0.00189261 0.0232909 0
-0.000661607 0.0212973 0
-0.00192612 0.0235801 0
-0.000323766 0.0241278 0
-0.00190627 0.0246506 0
-0.00122787 0.0227161 0
-0.00152926 0.0229976 0
-0.0004981 0.0188965 0
-0.000410167 0.0235369 0
-0.00186002 0.0261107 0
-0.00183907 0.0273958 0
-0.00184437 0.0284345 0
-0.00183502 0.0301172 0
-0.00183346 0.0311547 0
-0.00184475 0.0257667 0
-0.00184052 0.0287523 0
-0.00183403 0.0314809 0
-0.000923948 0.0315694 0
-0.00169312 0.0321752 0
-0.00157583 0.0321366 0
-0.00120495 0.0321026 0
-0.000420452 0.0246736 0
-0.000456554 0.0303189 0
-0.000458086 0.0286013 0
-0.000476613 0.0275001 0
-0.00045741 0.0257474 0
-0.000162537 0.0216668 0
7.44204e-05 0.0198673 0
-0.000118814 0.0199995 0
-9.108e-05 0.0212794 0
-0.000448673 0.0271164 0
-0.000460695 0.0299941 0
-0.000459811 0.0314369 0
-0.000648052 0.0319974 0
-0.000210397 0.0194866 0
-0.00110734 0.0320998 0
-0.000752472 0.0320652 0
-0.00137655 0.0315669 0
-0.00172354 0.0267401 0
-0.00170395 0.0278116 0
-0.000613441 0.0282517 0
-0.000610997 0.0292668 0
-0.00169039 0.0294851 0
-0.00168825 0.0304375 0
-0.000620077 0.0309671 0
-0.000464562 0.0206768 0
-0.00138649 0.0232507 0
-0.000488785 0.0233881 0
-0.000510388 0.0237445 0
-0.00118058 0.0228745 0
-0.000974178 0.0227613 0
-0.00185079 0.0236486 0
-0.00148662 0.0234363 0
-0.00158459 0.0277872 0
-0.0007462 0.0282077 0
-0.00161329 0.0267292 0
-0.000738339 0.0218936 0
-0.000583654 0.0275564 0
-0.000562333 0.0258164 0
-0.00175301 0.0257003 0
-0.000519953 0.0246864 0
-0.000280647 0.0217466 0
-0.000908042 0.0225019 0
-0.000569535 0.027058 0
-0.000214082 0.0212231 0
-0.00174884 0.0261512 0
-0.000292212 0.0195679 0
-0.000227665 0.020049 0
-0.000685 0.0264549 0
-0.00169971 0.0284246 0
-0.00168811 0.0301055 0
-0.00166896 0.0311574 0
-0.00168377 0.0272678 0
-0.00169562 0.0287398 0
-0.000890283 0.0309839 0
-0.00169164 0.0314854 0
-0.00157132 0.031494 0
-0.00119825 0.0315537 0
-0.000613889 0.030322 0
-0.000652905 0.0316403 0
-0.000636165 0.0286297 0
-0.000613866 0.0300048 0
-0.00110194 0.0315513 0
-0.00075333 0.0315878 0
-0.00137597 0.0309474 0
-0.00075642 0.029289 0
-0.00154503 0.0294664 0
-0.00154259 0.0304336 0
-0.00076447 0.0309654 0
-0.000380038 0.0208007 0
-0.00158352 0.0236181 0
-0.000982696 0.0230826 0
-0.00118542 0.0232011 0
-0.000520782 0.0240772 0
-0.00076708 0.0262899 0
-0.000771467 0.0266277 0
-0.000368303 0.0198256 0
-0.000646459 0.0215835 0
-0.000808242 0.022493 0
-0.00173322 0.0237995 0
-0.000567075 0.0209902 0
-0.000468104 0.0230073 0
-0.00089433 0.0293183 0
-0.000733918 0.0287033 0
-0.00160615 0.0272509 0
-0.00130065 0.0233794 0
-0.000615247 0.0236065 0
-0.00149026 0.0277548 0
-0.000844922 0.0282379 0
-0.0015332 0.0283788 0
-0.00154023 0.0300956 0
-0.00157026 0.0311627 0
-0.00154773 0.0287376 0
-0.000927519 0.0304622 0
-0.0011901 0.0310191 0
-0.000785793 0.0276124 0
-0.000769287 0.0300062 0
-0.000774312 0.0303394 0
-0.00109717 0.0310031 0
-0.00138165 0.0304774 0
-0.00174391 0.0246156 0
-0.00139833 0.0294204 0
-0.000663524 0.0233222 0
-0.0017735 0.0240821 0
-0.00160065 0.0239533 0
-0.00141919 0.0275839 0
-0.000941778 0.0280992 0
-0.00141334 0.0279151 0
-0.00168784 0.0239878 0
-0.000881366 0.0230602 0
-0.000420966 0.0211037 0
-0.00140133 0.0236144 0
-0.000759166 0.0259563 0
-0.00125445 0.0293504 0
-0.00142669 0.028257 0
-0.000908344 0.0276768 0
-0.00142848 0.028782 0
-0.000345372 0.0201016 0
-0.0012327 0.0235605 0
-0.00108438 0.0232223 0
-0.000867967 0.026464 0
-0.000541122 0.0212714 0
-0.00100996 0.0293654 0
-0.000931801 0.0287014 0
-0.000909946 0.0299477 0
-0.00121845 0.0303818 0
-0.000786229 0.0269726 0
-0.00109437 0.0304344 0
-0.00138484 0.0300818 0
-0.00158329 0.0256472 0
-0.00157587 0.0261736 0
-0.00127351 0.0238523 0
-0.000698562 0.0230208 0
-0.00144764 0.0239306 0
-0.00103843 0.0234452 0
-0.00108716 0.0291928 0
-0.000783769 0.0228164 0
-0.000585824 0.0230238 0
-0.000909024 0.0284033 0
-0.00102296 0.0299097 0
-0.00105975 0.028816 0
-0.000899339 0.0270104 0
-0.00131553 0.0277237 0
-0.00189249 0.0238118 0
-0.00116498 0.0292893 0
-0.000325789 0.0204269 0
-0.00121502 0.0300039 0
-0.00125464 0.0287557 0
-0.00143519 0.0272791 0
-0.00100246 0.0237224 0
-0.000594233 0.0227391 0
-0.00106864 0.0281612 0
-0.00136069 0.023893 0
-0.00152141 0.0240041 0
-0.00026318 0.0206716 0
-0.00118661 0.0237891 0
-0.000815114 0.0231987 0
-0.000433866 0.0226802 0
-0.00124907 0.0282764 0
-0.000839292 0.0235407 0
-0.00156604 0.0241887 0
-0.000586167 0.022398 0
-0.0012305 0.0240357 0
-0.00140795 0.0241199 0
-0.00109667 0.0237524 0
-0.000230067 0.0209305 0
-0.00111379 0.0276082 0
-0.0014257 0.0243992 0
-0.00122215 0.0243063 0
-0.0015479 0.0244636 0
-0.00106226 0.0240209 0
-0.000745716 0.0236563 0
-0.000920683 0.0237145 0
-0.000703356 0.0224595 0
-0.00102802 0.0242871 0
-0.000861302 0.0239131 0
-0.00112277 0.0243129 0
-0.00069723 0.02388 0
-0.000723048 0.0221837 0
-0.000831082 0.02424 0
-0.000721591 0.0241727 0
-0.00108073 0.0245858 0
-0.000619121 0.0218735 0
-0.00113123 0.0248984 0
-0.00049641 0.0216979 0
-0.000533539 0.022024 0
-0.00101704 0.0248504 0
-0.000932247 0.0242593 0
-0.000900784 0.024599 0
-0.00123915 0.0249603 0
-0.000491826 0.0225242 0
-0.000825553 0.024815 0
-0.000349894 0.02202 0
-0.0012602 0.025323 0
-0.000404264 0.0218141 0
-0.000730711 0.0247892 0
-0.000912687 0.0249965 0
-0.000931315 0.0253671 0
-0.00108762 0.0251711 0
-0.000308565 0.021504 0
-0.00104172 0.0254423 0
-0.00115582 0.0254767 0
-0.000337413 0.0212335 0
-0.000458873 0.021399 0
-0.00125567 0.0256746 0
-0.00136952 0.02554 0
-0.00108845 0.0257489 0
-0.00123676 0.02601 0
-0.00113463 0.0260412 0
-0.00103222 0.0260182 0
-0.000938184 0.025964 0
-0.00107859 0.0263542 0
-0.00109348 0.0270286 0

CELL_DATA 13208
SCALARS mises_stress float
LOOKUP_TABLE default
0.252052
0.362783
0.390072
0.775606
0.93378
0.99804
1.01549
1.01818
1.0216
1.03196
1.02668
1.02802
1.03148
1.03088
1.0326
1.03526
1.04094
1.04597
1.03788
1.04084
1.03984
1.03768
1.03578
1.04018
1.04437
1.06518
1.04232
1.07003
1.04446
0.957015
0.627819
0.609145
0.247742
0.576248
0.861904
0.921437
0.970327
0.994319
1.00319
1.01449
1.0212
1.02114
1.02732
1.02763
1.02832
1.0285
1.03199
1.03606
0.992343
0.992424
0.992482
0.993389
0.99387
0.994732
0.996512
0.997249
0.999733
1.00017
1.00138
1.00211
1.0024
1.0026
1.0022
1.00165
1.00182
1.0023
1.00284
1.00395
1.00401
1.00423
1.00269
1.00147
0.998836
0.99352
0.989569
0.982457
0.97573
0.968097
0.959594
0.954179
0.959282
0.960295
0.957951
0.968409
0.975569
0.980434
0.986005
0.990426
0.994951
0.998212
1.00044
1.00202
1.00327
1.00307
1.00295
1.00267
1.00321
0.945965
0.951365
0.953072
0.957676
0.960398
0.974657
0.97637
0.992956
1.00185
1.00984
1.01644
1.0264
1.01921
1.02571
1.01527
1.00609
0.99482
0.98135
0.972286
0.960362
0.954511
0.945582
0.946132
0.94803
0.950484
0.933956
0.934167
0.925973
0.906102
0.897244
0.862765
0.838704
0.790278
0.726063
0.653059
0.85459
0.893943
0.911966
0.929857
0.96371
0.966705
0.972381
0.977404
0.983511
0.988604
0.992362
0.996467
0.998331
1.00074
1.00184
1.00237
1.00272
1.00241
1.00277
0.967641
0.971011
0.975371
0.981228
0.985731
0.989784
0.993383
0.996952
0.9984
1.00033
1.00176
1.00222
1.00254
1.00258
0.973073
0.974896
0.979326
0.984096
0.987653
0.991331
0.994075
0.997
0.998572
1.00047
1.00121
1.00211
1.00223
0.977208
0.977489
0.982532
0.985375
0.989437
0.991983
0.994546
0.997328
0.998668
1.00046
1.0015
1.00181
0.980491
0.981591
0.98399
0.987851
0.990284
0.993245
0.995312
0.997563
0.998776
1.00033
1.00057
0.982443
0.983709
0.986404
0.988889
0.991808
0.994345
0.995797
0.997941
0.998981
0.999649
0.98549
0.985776
0.987898
0.990624
0.992526
0.994833
0.996257
0.997921
0.997976
0.986922
0.988179
0.989732
0.99186
0.993318
0.994749
0.996445
0.996331
0.989262
0.988956
0.991064
0.992407
0.994198
0.995735
0.995638
0.990227
0.990832
0.991603
0.992815
0.993972
0.994265
0.991479
0.991402
0.992161
0.99326
0.993021
0.991898
0.992236
0.992899
0.992537
1.0015
1.00274
1.00303
1.0044
1.00547
1.00464
1.00402
1.00133
0.998692
0.993092
0.987926
0.979821
0.972221
0.963429
0.955753
1.00353
1.00434
1.00583
1.00603
1.0062
1.00525
1.00423
0.998003
0.992002
0.98658
0.976194
0.968186
0.958972
1.0054
1.00524
1.00701
1.00793
1.00693
1.00618
1.00205
0.999038
0.99069
0.9853
0.976262
0.968103
1.00659
1.00795
1.00932
1.01008
1.00914
1.00765
1.00577
0.997668
0.989978
0.981407
0.970722
1.00965
1.00915
1.01179
1.01075
1.01009
1.00901
1.00366
0.998177
0.992525
0.981214
1.01156
1.01
1.01285
1.01389
1.01324
1.00947
1.00651
0.998631
0.987346
1.01358
1.01442
1.01737
1.01683
1.01621
1.01154
1.00865
1.00065
1.01809
1.01859
1.01941
1.01974
1.019
1.01819
1.00461
1.02124
1.022
1.02436
1.02092
1.02202
1.0191
1.02519
1.02493
1.0274
1.02736
1.02127
1.04974
1.04759
1.04912
1.04815
1.0449
1.04841
1.05823
1.05726
1.06746
1.10137
1.10659
1.18036
1.01039
0.313441
0.726
1.05236
1.05221
1.05273
1.05261
1.05436
1.0527
1.0606
1.08212
1.09771
1.15868
1.18256
1.21969
1.20438
0.292269
1.06441
1.06357
1.05555
1.05655
1.05906
1.06477
1.07671
1.11135
1.13102
1.17036
1.27548
1.34574
1.76343
1.63432
1.06654
1.07156
1.06137
1.06053
1.063
1.07329
1.09589
1.12775
1.16751
1.20725
1.27837
1.46495
1.96299
1.06541
1.07066
1.06564
1.06396
1.06749
1.08446
1.1068
1.14219
1.16324
1.22954
1.24771
1.43467
1.64744
1.07283
1.07281
1.06459
1.06459
1.07216
1.08878
1.10851
1.14008
1.16761
1.19641
1.20197
1.23784
1.07101
1.06978
1.06386
1.06346
1.07041
1.07577
1.1109
1.11226
1.13067
1.07503
1.16091
1.06866
1.06649
1.0596
1.06119
1.06695
1.07784
1.08348
1.08477
1.07186
1.07854
1.06259
1.06445
1.05625
1.05362
1.06064
1.06698
1.05596
1.05416
1.04881
1.06416
1.04879
1.04314
1.04688
1.04517
1.0487
1.04085
1.0388
1.0397
1.03949
1.02751
1.03799
1.03552
1.02763
1.03363
1.03185
1.01576
1.02049
1.02763
1.02135
1.02612
1.01117
1.00414
1.01319
1.02165
1.02273
1.0021
0.972156
1.00393
1.01683
0.983515
0.987867
0.997181
0.963119
0.869875
1.11441
1.28229
1.26649
1.19629
1.16135
1.1348
1.09485
1.06538
1.05279
1.03684
1.02053
1.01336
1.02923
1.03776
1.05315
1.06533
1.1102
1.14947
1.19924
1.24769
1.3879
1.2696
0.701748
0.717684
1.01376
1.12872
1.18338
1.19665
1.18036
1.13897
1.10056
1.08218
1.06114
1.04922
1.0397
0.766963
0.948077
1.02072
1.00826
1.05954
1.09071
1.12775
1.11901
1.10754
1.09876
1.08326
1.07115
1.06319
1.05562
1.05218
1.05961
1.06669
1.09621
1.10521
1.12427
1.15196
1.16231
1.15445
1.07814
0.814853
0.843437
0.910575
0.961583
0.97773
0.983229
1.00969
1.00353
1.0199
0.944987
1.01379
1.03175
1.08174
1.08888
1.09364
1.0834
1.0758
1.07047
1.06512
1.06389
0.86314
0.866054
0.931992
0.937998
0.963792
0.993098
0.999884
1.00188
0.918381
0.977806
1.03149
1.04569
1.06275
1.07221
1.07033
1.06742
1.06535
1.0651
1.06521
0.867668
0.888845
0.923275
0.950131
0.973366
0.98288
0.996052
0.897494
0.956627
1.0023
1.03377
1.03648
1.05355
1.05645
1.06036
1.06098
1.06205
1.06649
0.874316
0.896597
0.934495
0.951892
0.964898
0.988037
0.910002
0.934025
0.972746
1.0129
1.03246
1.03749
1.0497
1.05425
1.05559
1.05819
1.06194
0.903564
0.919365
0.94256
0.957287
0.973044
0.921006
0.949343
0.975845
0.992466
1.01827
1.02614
1.03245
1.04177
1.0489
1.05395
1.05834
0.920163
0.931997
0.947452
0.963935
0.931444
0.947292
0.974677
0.991889
0.999641
1.01825
1.03069
1.03015
1.04011
1.04914
1.05539
0.926516
0.937596
0.947074
0.944128
0.951189
0.971148
0.98365
0.999111
1.01178
1.01617
1.03594
1.03113
1.04156
1.05119
0.939486
1.02515
1.03637
1.03676
1.04262
0.963398
0.957023
0.963876
0.960721
0.978328
0.972441
0.981878
0.980005
0.987528
0.992329
1.0007
0.999333
1.01243
1.01517
1.02987
1.03864
1.0338
1.02996
0.965158
0.962273
0.967832
0.971993
0.976098
0.985447
0.990334
0.99902
1.00707
1.01324
1.01966
1.03249
1.02316
0.972337
0.968217
0.975405
0.97935
0.982754
0.990202
0.998525
1.00542
1.00992
1.01654
1.02244
1.02648
0.969608
0.980394
0.979
0.98162
0.987537
0.991852
0.999172
1.00607
1.00967
1.0132
1.01678
1.02028
0.973916
0.977089
0.984304
0.983626
0.98909
0.992733
0.997778
1.00288
1.00797
1.01028
1.01432
1.01847
0.976531
0.978145
0.981211
0.9906
0.987725
0.993081
0.99835
1.00174
1.00614
1.00892
1.01145
1.01366
0.980446
0.982157
0.984162
0.986585
0.994701
0.993011
0.998481
1.00182
1.0055
1.00694
1.01114
1.01303
0.983735
0.985283
0.986737
0.989238
0.990927
0.998901
0.996967
1.00129
1.00381
1.00615
1.00803
1.00918
0.984997
0.986414
0.988364
0.990468
0.992891
0.995272
1.00131
1.00002
1.00295
1.00473
1.00618
1.0074
0.987329
0.988723
0.990133
0.991826
0.99367
0.996652
0.998305
1.00273
1.00167
1.00482
1.00613
1.0066
0.988627
0.989434
0.990792
0.992395
0.994166
0.997003
0.998557
1.00064
1.00287
1.00327
1.00424
1.00475
0.990328
0.991076
0.9924
0.993529
0.994935
0.997286
0.998617
1.00083
1.00211
1.00367
1.00315
1.00438
0.991525
0.992335
0.992883
0.99458
0.995607
0.997551
0.998678
1.0002
1.00193
1.00281
0.991948
0.992731
0.993526
0.995002
0.995956
0.997821
0.998855
1.00041
1.00166
1.00235
1.003
1.00795
1.02012
1.03171
1.03689
1.04045
1.07478
1.08979
1.16586
1.20072
1.35613
0.772997
0.810622
0.854638
0.268136
0.743521
0.545276
0.487566
0.356666
0.33501
0.313024
0.280866
0.248777
0.247911
0.258169
0.266875
0.293355
0.28361
0.301099
0.319879
0.368512
0.418726
0.434826
0.671735
0.822224
0.881147
0.917885
0.939423
0.95621
0.969954
0.978199
0.98405
0.988845
0.990981
0.992248
1.00219
1.00189
0.998507
0.996095
0.993142
0.968024
1.00553
1.05446
1.0781
1.07629
1.06062
1.04049
1.02828
1.01611
1.00894
1.00537
1.00214
1.20851
1.18821
1.10416
1.03091
1.00978
3.12046
2.80057
2.9463
2.33025
2.14229
1.99242
1.87507
1.77402
1.8188
1.54747
1.48939
1.43908
1.39669
1.36029
1.32889
1.30141
1.27286
1.28681
1.08881
0.861853
0.449328
0.984773
0.895596
0.698184
0.715164
0.539216
0.506302
0.344963
0.389589
0.104051
0.190681
0.316839
0.359285
0.672697
0.742282
0.890046
1.03967
1.16884
1.33374
1.4817
1.81197
2.89975
3.0657
2.1078
2.02565
2.14731
2.498
2.36667
2.61102
2.81024
2.62595
2.90319
0.385562
1.22542
1.23744
0.454394
0.382119
0.669425
0.249285
0.269316
0.245988
1.54737
1.57865
0.295628
0.370533
0.269106
0.304829
0.259773
0.278711
0.253009
0.258541
0.259623
0.276096
0.29072
0.291826
0.321504
0.310117
0.304692
0.329265
0.32726
0.337874
0.349259
0.356694
2.5372
2.73814
2.21193
2.4471
2.0449
2.22601
2.05555
2.04745
1.85113
1.9327
1.68328
1.81648
1.68774
1.7279
1.6481
1.6129
1.52395
1.51658
1.37821
1.46253
1.41631
1.41624
1.35942
1.37771
1.34338
1.34319
1.30256
1.31487
1.23545
1.29001
1.24858
1.25637
1.24774
0.53995
0.680132
0.892142
0.42289
0.425212
1.89693
2.02088
1.65611
1.59625
0.513415
0.718951
0.989192
0.624113
3.01116
0.615334
0.239318
2.71444
2.37791
0.290116
0.153824
2.26097
2.24596
2.60427
2.68102
0.934342
0.835769
0.807569
0.497288
0.489298
0.339223
2.3765
2.46304
0.339824
0.116209
0.453921
0.21682
0.433883
0.819333
0.648867
0.539214
0.596847
2.44661
2.5498
1.18822
1.00198
0.930661
0.758528
1.94074
2.04441
1.49627
1.47304
1.49756
1.6244
0.431758
0.446086
0.762566
0.709077
0.268796
0.139443
2.2501
2.3081
0.966769
1.09251
1.83073
1.89729
2.59729
2.49118
0.41229
0.375922
1.1853
1.20235
0.476939
0.477477
1.17887
1.17445
0.497712
0.54522
1.15092
1.14036
1.48813
1.37986
0.281709
0.454834
0.318319
0.289898
1.60722
0.256
0.285427
0.288217
0.25749
0.331343
0.309097
0.362507
0.344779
2.34137
1.93612
2.0087
1.72906
1.76815
1.60607
1.39709
1.31426
1.32554
1.25776
0.344582
0.375576
1.7678
1.68309
1.25621
1.2993
0.319817
0.336618
0.253385
0.247879
0.32091
0.322976
0.278009
0.261842
0.275844
0.310452
0.290217
2.59053
1.85767
1.52714
1.57849
1.46158
1.51874
1.36089
1.32581
1.3418
0.617414
0.382342
0.41732
1.23376
1.05652
0.759214
1.21702
1.33569
2.70605
0.391523
0.427824
2.65714
0.840767
0.663893
0.410285
0.45514
0.544526
0.642257
0.570657
0.801548
0.540363
0.489835
1.73951
1.87257
0.795872
0.948411
0.55209
0.612897
2.22856
2.13891
1.76765
1.78019
0.441931
0.56838
1.51021
1.4781
0.409837
0.365636
2.23057
2.53076
0.268977
0.438376
1.35819
1.393
2.35251
2.11148
0.847216
0.812622
2.72663
2.28032
2.43671
2.1403
2.14162
0.383083
0.399656
1.95893
2.03844
1.683
1.71563
1.2199
1.07584
0.515064
0.55901
0.388054
0.306821
1.82391
2.42202
0.368106
0.425449
1.20218
1.20774
0.475941
0.411765
1.17543
1.17782
0.549374
0.582201
1.11142
1.13137
1.25894
0.374308
0.386732
0.307903
0.276006
0.333315
1.55984
1.44744
0.366158
0.351134
0.293925
0.331336
0.269287
0.30683
0.334838
0.304532
0.432474
1.63858
1.71674
1.63643
1.80693
1.74724
1.9697
1.71845
0.530508
2.19737
1.30286
1.3792
1.36087
0.338486
0.335734
1.42362
0.352033
0.408706
0.312232
0.332948
1.48746
0.276212
1.39971
1.45092
0.305536
2.56222
0.748465
0.600746
1.2731
1.34734
1.04656
1.15373
0.496336
0.532873
0.585922
0.74414
2.47455
2.32522
0.395026
0.683888
2.42651
1.83217
0.478223
0.634563
0.5915
0.456325
0.499678
0.497766
0.57759
0.554128
2.3685
1.75156
2.30242
2.17577
1.95161
2.22613
2.06074
2.1751
2.04914
1.97159
0.551363
0.455561
1.94993
1.88975
1.84554
1.88641
0.470455
0.425387
0.499107
0.414958
1.03184
0.920921
0.697992
0.429725
0.70878
0.975649
1.73686
1.71309
1.02948
1.03789
0.569348
0.470244
1.62469
1.65883
1.3997
1.5256
1.48831
1.582
0.469012
0.396014
1.24162
1.23184
0.468647
0.433768
1.21811
1.20734
0.549869
0.696229
1.12688
1.14906
2.32575
0.344237
1.40082
0.328798
1.28089
1.25989
1.31342
1.42083
1.32579
1.31165
0.358781
0.306913
0.354092
0.34223
0.296664
0.372672
0.348213
0.314813
0.306749
1.66868
0.482499
0.376917
0.444855
1.53328
1.58573
1.56823
1.85482
1.6464
1.97873
1.98152
2.00982
2.10913
2.22049
2.16165
1.34417
1.34529
0.398962
0.34027
1.48835
1.38336
1.40093
1.44247
0.364199
0.319496
0.885234
0.613926
1.26394
1.15441
0.59249
0.632692
1.35182
1.37184
1.69229
1.80316
1.62045
1.63866
0.498735
0.609261
0.512396
0.503128
0.579636
0.497912
2.01001
2.04707
1.81556
1.76607
0.481424
0.531197
1.76587
1.70437
0.523528
0.451452
1.69637
2.2276
2.11542
1.91637
0.942936
1.96345
1.87317
0.858201
0.992084
0.571285
0.510151
0.433918
0.453742
2.275
0.525571
0.466996
0.617548
0.537606
1.77215
1.95333
1.02943
0.578978
1.42918
1.49857
1.56985
1.57472
1.12223
1.22769
0.653746
0.654239
0.452349
0.41054
0.461955
0.485564
1.2824
1.2361
0.535114
0.537189
1.18708
1.21883
0.639855
0.633946
0.355131
1.48229
1.57458
1.52505
1.26216
1.27281
0.380208
0.409466
0.380076
0.299356
1.3296
1.4268
1.29777
1.30103
1.5781
0.341927
0.369883
0.322935
0.347259
0.498121
0.339714
0.385263
1.682
1.7693
1.87369
1.79413
2.04013
1.77464
0.502242
0.384544
0.411023
2.1345
2.14986
0.437455
1.36268
1.38384
1.45728
1.41071
0.367154
0.359656
1.31041
1.13106
1.01146
0.774112
0.67015
0.722994
1.32936
1.37906
1.67185
1.73127
1.21902
1.29544
1.61668
1.61953
0.649252
0.619954
0.586011
0.53284
0.573753
0.532839
1.82243
1.83656
1.90306
1.88827
1.67224
1.71963
1.63402
2.01842
1.04092
2.06617
0.67176
0.617661
0.520899
0.532976
0.446686
0.527154
0.428116
0.465038
0.478608
0.925765
0.80004
1.82242
2.1106
1.99568
0.727572
0.663515
1.10609
1.20901
0.727521
0.77413
1.5394
1.56417
1.46073
1.50642
0.474554
0.445085
0.508992
0.428639
1.2363
1.22605
0.63766
0.622901
0.71161
0.838604
0.384432
0.385224
0.418177
1.55281
1.36908
1.42315
1.30145
1.33179
0.421314
0.361044
1.63484
1.50803
1.70828
1.78435
1.69431
0.547214
0.376325
0.381846
0.424367
0.36191
1.88422
1.8837
0.420363
0.425606
0.395527
1.45474
1.34741
0.405965
0.444634
1.32398
1.3145
1.45953
1.40106
0.475513
0.493933
2.00122
1.71923
1.27713
1.12887
1.12062
0.912326
0.789101
0.715693
1.65044
1.59992
1.28136
1.32474
1.61091
1.60199
1.44694
1.42553
0.553304
0.654309
0.662669
0.626573
0.839296
1.10891
1.761
1.78803
1.20078
1.20579
1.20223
1.84085
1.55161
0.527542
0.596475
1.74246
1.67062
1.70595
1.92947
0.785645
0.844831
0.705766
0.6735
0.504907
0.475209
0.487112
0.42217
1.96312
0.4664
0.465294
1.84258
0.966246
0.855137
1.54899
1.55581
0.765585
0.72505
1.48529
1.50998
0.544251
0.464188
0.396434
0.452744
1.26921
1.24783
0.582114
0.60881
1.22467
1.22947
0.691047
0.853922
0.741422
0.718858
0.423564
1.49805
1.51883
1.55696
0.39266
1.37198
1.41459
1.63091
0.507294
0.446465
0.457065
0.406428
1.73303
0.54862
0.409584
1.85265
1.61448
0.49078
0.402115
1.32312
1.35707
1.46747
1.40388
0.450299
0.526647
1.34882
1.33486
1.10447
1.02527
0.520264
0.500179
0.826794
0.779526
0.605079
0.727025
1.58911
1.62709
1.57747
1.69793
0.561302
0.611092
0.95752
1.05497
1.63997
1.69521
1.26275
1.38626
1.35111
1.61551
1.78234
1.27677
1.25693
0.722922
0.708337
1.41919
1.46242
1.81426
0.895097
1.05939
0.522071
0.605784
1.66248
1.84196
0.484176
0.527991
0.505493
0.46005
0.946389
0.836143
1.55295
1.54437
1.00411
0.904992
1.73163
1.30993
1.44975
0.786082
0.765608
1.50254
1.50861
1.29068
1.29077
0.519287
0.579875
1.26315
1.25515
1.16386
1.20321
0.640833
0.651071
0.810582
0.775756
0.744062
0.822847
1.4203
0.479763
1.56326
1.50621
0.458467
1.65579
1.56223
0.44996
1.74056
1.54551
0.612669
0.447022
1.36219
1.43135
0.576959
0.544025
1.35503
1.38032
1.43906
1.39889
0.666673
0.666882
1.13497
1.12095
0.72603
0.723603
1.57175
1.60138
1.63664
1.66579
1.60628
1.6501
0.887232
0.824349
1.18379
1.3288
0.556949
0.612387
1.30035
1.33704
0.997789
1.08422
1.56103
1.7185
1.55107
1.52935
1.36278
1.47133
1.34841
1.39426
1.72702
0.505375
0.592673
0.504619
0.60644
0.940747
1.08941
0.882956
1.0344
0.791517
0.787662
0.851197
0.976601
1.51203
1.50201
1.47081
1.41335
0.463967
0.484006
0.667698
0.507059
1.29844
1.32298
0.606512
0.671746
0.618769
0.676334
1.2493
1.22473
0.788481
0.831422
0.833115
0.846521
0.653547
0.736867
1.49089
0.528259
1.57988
1.58819
0.514779
0.626003
0.477619
0.482202
1.37263
1.38873
1.33186
1.32481
1.65021
0.486899
0.556749
0.596785
1.13806
1.18975
1.20112
0.730111
0.724408
0.667253
0.668385
1.51178
1.56987
1.5529
1.5644
1.54345
1.51796
1.1605
1.16347
1.32146
1.36984
0.536562
1.39193
1.47364
0.861331
0.794256
0.915156
0.851061
1.66541
1.58626
1.34048
1.37923
1.03084
1.10928
0.552791
0.550657
0.97434
1.11072
0.588418
0.530492
1.51425
1.49033
1.37785
1.42661
0.913823
1.05476
0.86006
0.994071
1.41237
1.43255
0.75434
0.775745
1.28357
1.27243
1.25751
1.29373
1.35692
1.45125
1.508
0.686125
0.60244
1.17866
1.19496
0.804024
0.844519
0.915736
0.890566
0.875039
0.95838
0.806781
0.880412
0.588937
1.51365
0.649696
0.581172
0.559404
1.65981
1.48968
1.30312
0.558338
0.615147
0.722601
0.773572
1.46784
1.47826
0.857244
0.787863
1.26252
1.25182
1.5432
1.5512
0.658052
0.653627
1.53067
1.49958
1.48305
1.4693
0.78451
0.928505
1.36369
1.4012
1.17781
1.1741
1.5098
1.44133
1.05425
1.12298
1.43346
1.41153
0.994134
1.06562
1.41129
1.46143
0.928784
1.06368
1.3973
1.44879
0.85462
0.927382
1.46203
1.44389
1.55857
1.21695
1.19634
1.52678
1.53835
0.639733
0.654905
1.29747
1.37016
0.643923
0.689246
0.695548
0.835917
0.875611
0.973473
0.744457
0.820152
1.2555
1.23165
1.33185
1.29535
0.804086
0.921772
0.984915
0.922083
0.634918
0.705839
0.841129
1.24659
1.22701
0.707903
0.715081
1.54678
1.47334
0.723507
0.724656
1.43198
1.44377
1.4476
1.4586
0.768786
0.836939
1.4039
1.4002
1.331
1.29601
1.42773
1.51376
1.18604
1.18073
1.39476
1.42298
1.12695
1.12449
1.36636
1.42404
1.50062
1.52816
1.00002
1.06521
0.676176
0.663418
1.46944
1.4544
0.911739
0.929216
1.4438
1.48742
1.49082
1.52813
1.44695
1.40912
1.26446
1.23222
1.06067
0.998373
0.663061
0.870373
0.878791
0.795961
1.38972
1.41988
1.28126
1.28256
1.26688
1.34356
0.932351
0.857941
0.727537
0.766116
1.25158
1.26273
1.19104
1.21252
0.888197
1.0064
1.00745
0.985416
0.760787
0.699755
0.687978
1.45738
1.50576
0.754351
0.773148
1.42444
1.49318
1.48467
1.4124
1.28077
1.35898
1.48394
1.39682
0.688208
0.790167
1.31478
1.22472
1.37642
1.29904
1.23058
1.2377
1.41482
1.43549
0.988572
0.915689
0.740948
0.726188
1.22659
1.23837
1.12236
1.13005
1.42784
1.43347
0.889279
0.924659
1.38586
1.45198
1.47571
1.45811
0.992511
1.05124
1.41252
1.46752
0.883699
0.964434
0.855319
0.760886
1.33902
1.38828
0.958762
1.04457
0.923671
1.00248
1.32346
1.29978
1.28185
1.25202
0.935415
0.869765
1.07467
1.0047
0.927335
0.990054
0.807551
0.813361
1.29984
1.29939
1.47554
1.41601
0.702278
0.72408
1.34371
1.39594
1.33098
1.28617
0.931797
0.874623
1.36457
1.37771
0.888018
0.808076
0.757944
0.83337
1.42383
1.40735
1.44472
1.46126
1.18154
1.22677
1.18445
1.17265
1.42495
1.43896
1.23481
1.26211
0.794975
0.791751
1.01456
0.968925
1.46502
1.44863
1.39787
1.39998
1.13798
1.12596
1.34922
1.32068
0.926725
1.09479
1.31385
1.3238
1.15389
0.99542
1.05804
0.926212
1.29006
1.27538
1.19791
1.2155
0.946435
0.962792
1.03335
1.02719
1.04663
1.09746
0.908805
0.963904
1.43386
1.32863
1.32202
1.35896
1.43051
1.46116
1.26412
1.28331
1.45541
1.3951
1.38967
1.36974
1.32394
1.26432
1.36502
1.36113
0.840158
0.938902
1.17743
1.26693
1.392
1.39622
1.43784
1.42095
0.768055
0.850974
0.934543
1.00899
1.38708
1.38844
1.08564
0.969985
0.965609
1.03486
1.36943
1.30812
1.05989
1.08464
0.818427
0.902155
1.32263
1.3431
1.05185
1.05536
1.29187
1.22989
1.10485
1.10277
1.41978
1.40759
1.34702
1.2973
1.42642
1.37605
1.44022
1.43789
1.38057
1.35405
1.26812
1.27399
1.35275
1.38763
1.09154
1.03227
1.08696
1.17531
1.41351
1.32753
1.43766
1.35291
0.908567
0.964646
1.41961
1.36717
1.40575
1.35895
1.3267
1.34379
1.05245
1.18803
1.37671
1.31382
1.0449
1.1024
1.00659
0.968817
1.12869
1.07012
1.2949
1.3057
1.03035
1.00045
1.09276
1.19801
1.38065
1.39746
1.22323
1.17417
1.31064
1.31154
1.32766
1.29049
1.41059
1.35078
1.09336
1.00007
1.3672
1.37944
1.40291
1.42201
1.25674
1.22257
1.21017
1.26083
1.12148
1.12957
1.41353
1.37773
1.42302
1.37976
1.36516
1.3465
1.06302
1.14034
1.3191
1.38731
1.33758
1.2849
1.2839
1.26712
1.12439
1.17874
1.34985
1.40015
1.13373
1.15367
1.18873
1.13152
1.07619
1.05688
1.40549
1.40497
1.33335
1.29366
1.23678
1.21569
1.15798
1.13088
1.37405
1.37627
1.37849
1.36073
1.32053
1.31523
1.34469
1.39456
1.1607
1.16902
1.20609
1.27489
1.12371
1.22484
1.13228
1.15239
1.08033
1.19626
1.32041
1.29179
1.34936
1.30485
1.20168
1.15744
1.13159
1.05853
1.2906
1.24784
1.39803
1.32842
1.33172
1.29551
1.35017
1.36254
1.19572
1.16407
1.1892
1.23321
1.30385
1.31907
1.35919
1.34846
1.24458
1.1818
1.37864
1.37298
1.31757
1.30941
1.26786
1.23738
1.15052
1.15529
1.02346
1.08888
1.21122
1.31531
1.33265
1.31397
1.29453
1.26895
1.37871
1.35026
1.2812
1.30765
1.25853
1.25812
1.23251
1.25959
1.22659
1.271
1.37991
1.32365
1.25514
1.24117
1.22475
1.17956
1.11573
1.14284
1.18062
1.20819
1.08727
1.11721
1.17637
1.23323
1.33237
1.35456
1.34161
1.34691
1.28569
1.25815
1.33927
1.37014
1.29203
1.22892
1.24853
1.32065
1.35186
1.32339
1.16943
1.18493
1.16783
1.20437
1.04482
1.08484
1.12088
1.15636
1.29162
1.35014
1.29247
1.32402
1.31155
1.34215
1.24765
1.2672
1.35456
1.3371
1.14693
1.18994
1.28432
1.28957
1.23998
1.31062
1.2216
1.25746
1.20904
1.18883
1.16656
1.15328
1.12541
1.12595
0.960178
1.06423
1.24498
1.29583
1.25099
1.23501
1.28593
1.26469
1.31436
1.32858
1.17069
1.19987
1.11843
1.17754
1.33226
1.31908
1.3111
1.27047
0.964742
0.994022
1.12846
1.14006
1.23357
1.22659
0.982767
1.02273
1.2369
1.27213
1.29066
1.30488
1.28186
1.2942
1.21045
1.23405
1.13272
1.15336
1.16829
1.20678
1.14861
1.11096
1.26005
1.232
1.17503
1.20096
1.10078
1.09594
0.918038
0.973551
1.2346
1.22137
1.09124
1.12546
1.18927
1.21599
1.15585
1.16591
1.25519
1.24341
0.871427
0.908673
1.18935
1.22082
1.2289
1.22435
1.27258
1.26608
1.20941
1.24876
1.09397
1.11457
1.19298
1.1986
1.13223
1.13025
1.24769
1.24799
1.28749
1.26485
1.05881
1.07152
1.15637
1.18223
1.1476
1.17531
1.17791
1.14536
1.19216
1.17884
1.19031
1.18589
1.23475
1.215
1.20892
1.22893
1.16275
1.17883
1.21227
1.22028
1.20219
1.17271
1.15328
1.16465
1.19311
1.17212
1.19284
1.17578
1.21157
1.18725
1.16159
1.14864
1.1464
1.13399
1.15442
1.1748
1.12161
1.14437
1.14094
1.1635
1.15953
1.11139
1.12829
1.14072
1.14775
1.12801
1.15652
1.14682
1.14238
1.13797
1.16664
1.14594
1.09881
1.10508
1.12204
1.1486
1.10342
1.11412
1.13662
1.11499
1.12681
1.09969
0.800486
0.874218
1.04133
1.03711
1.12318
1.13707
1.01675
1.02075
1.0772
1.10411
1.10552
1.06726
1.16069
1.13693
0.813474
0.742375
1.14144
1.12776
0.882513
0.910224
1.10792
1.10779
0.994823
1.03616
1.00231
1.0025
0.992818
0.993639
0.993729
0.994371
0.995762
0.996895
0.99983
1.00068
1.00182
1.00228
1.00244
1.00249
1.00317
1.00351
1.01106
1.01078
1.02444
1.02283
1.05512
1.04696
1.08107
1.06948
1.07164
1.06223
1.02939
1.02825
0.986784
1.00001
1.03779
1.03589
1.01505
1.01669
1.00534
1.00452
0.940828
0.932973
0.914779
0.92186
0.869314
0.839173
0.967283
0.970095
0.989801
0.990007
0.991597
0.991842
0.979402
0.979981
0.9843
0.985228
0.795499
0.744215
0.960984
0.955473
1.03828
1.04232
1.03268
1.03996
1.02293
1.02819
1.01031
1.01945
0.700272
0.66014
0.994726
0.986954
1.12097
1.10954
0.955774
0.981618
1.08049
1.07463
1.10045
1.08244
1.09795
1.11613
1.08403
1.10104
1.01812
1.07988
1.12356
1.12797
1.12328
1.11196
0.82343
0.859612
0.871025
0.885815
1.06186
1.05953
0.948588
0.948876
1.00151
1.00093
0.995508
0.995147
0.992757
0.992697
1.04238
1.04366
1.00339
1.00385
1.00626
1.00635
1.01164
1.01251
1.01918
1.01985
1.08106
1.06655
1.07815
1.06913
1.04281
1.04702
0.998827
1.02336
1.05556
1.05715
1.02784
1.02818
1.00818
1.00748
1.00249
1.00222
0.90942
0.890771
0.801825
0.807541
0.960946
0.963794
0.975776
0.977068
0.982218
0.981825
0.986535
0.986771
0.992348
0.991995
0.972369
0.972958
0.988764
0.987771
0.990778
0.990625
0.922935
0.926434
0.942346
0.944651
1.03601
1.02497
1.0027
1.00243
1.00257
1.00273
0.999876
1.00085
0.995825
0.996917
0.992732
0.993423
0.994158
1.01423
1.01258
1.02871
1.04964
1.05808
1.05453
1.05835
1.00195
1.00248
0.993593
0.994611
1.02741
1.03418
1.05712
1.05725
0.95436
0.94966
0.874675
0.877237
1.03061
1.0312
0.986184
0.995915
1.03202
1.03236
0.964016
0.95995
1.01614
1.02028
1.04422
1.04103
0.840705
0.891016
1.06863
1.06381
0.90502
0.933747
0.930687
0.946563
1.04649
1.04241
0.96502
0.972365
1.01359
1.0142
0.978121
0.982045
1.00857
1.00992
0.983269
0.986066
1.0043
1.0051
0.989311
0.990881
1.0035
1.00291
0.991309
0.992264
1.02188
1.02035
1.06598
1.06293
0.997493
0.997196
1.05748
1.05151
1.03307
1.01576
0.832308
0.845435
1.12866
1.11231
0.762651
0.773244
1.05003
1.05018
0.903571
0.941502
1.06461
1.09742
1.05995
1.06916
1.14978
1.15218
1.06642
1.06474
1.06108
1.0616
0.91997
0.880483
1.09287
1.11916
0.967239
0.998536
1.11031
1.11053
1.12394
1.12683
1.09803
1.11889
1.08849
1.10031
1.10917
1.09152
1.03127
1.02742
1.00374
1.00355
0.9486
0.940068
0.973508
0.970322
0.982774
0.981694
0.987081
0.985586
0.991387
0.990744
0.992011
0.992433
1.00573
1.00562
1.01042
1.01103
1.01518
1.01566
1.02228
1.02368
1.046
1.04846
1.06429
1.06737
1.06076
1.06079
1.03747
1.02149
1.03045
1.03626
1.06569
1.07832
1.05
1.0535
0.894653
0.909837
1.06779
1.06146
0.936641
0.931832
1.03869
1.04086
0.968104
0.964933
0.975139
0.978254
1.00749
1.00757
0.987872
0.989279
0.991865
0.993326
0.99525
0.996618
0.999757
1.00094
1.0029
1.00295
1.03842
1.04263
1.0437
1.05099
0.992932
0.994047
1.00229
1.00277
1.02838
1.02681
0.958108
0.951806
0.968044
0.963427
1.05077
1.0566
0.888996
0.919444
0.91888
0.94553
0.940276
0.955415
1.03593
1.03599
0.975622
0.971699
1.01134
1.01159
0.979476
0.983982
1.0078
1.00796
0.984228
0.987674
1.00407
1.00439
0.989986
0.991638
1.001
1.00125
0.998366
0.998944
0.997128
0.998421
0.994434
0.994985
1.01629
1.0168
1.10034
1.09486
1.09721
1.10107
1.08842
1.07759
1.00175
1.04093
0.967499
0.942022
1.06062
1.0564
0.865793
0.881875
1.07292
1.07575
1.08018
1.07163
0.972223
0.962788
1.07065
1.06004
0.949223
0.956633
1.02315
1.02293
1.02938
1.03117
1.10101
1.10239
0.959995
0.933454
1.0658
1.06279
1.06301
1.06462
0.915367
0.890515
1.05535
1.05774
0.934547
0.909313
1.09673
1.10879
1.06982
1.06545
1.0609
1.05811
1.03444
1.0308
1.04144
1.04565
0.963841
0.971772
0.976401
0.973583
0.960814
0.949217
0.984592
0.98292
0.988381
0.987146
0.992784
0.991509
1.00462
1.00549
1.00819
1.01005
1.01235
1.01584
1.01851
1.02186
1.05113
1.05922
1.0502
1.03698
1.04972
1.0629
1.05913
1.06316
0.950637
0.938004
1.06526
1.05811
1.02373
1.02316
0.975385
0.980556
1.00612
1.00629
0.988079
0.99039
1.00364
1.00413
0.994607
0.996335
0.999753
1.00113
0.994196
0.995413
0.996817
0.998303
0.998198
0.999565
1.00113
1.00185
1.0504
1.06267
0.991926
0.993596
1.00222
1.00304
0.97205
0.979071
0.956805
0.95153
1.00894
1.00837
0.981417
0.986231
1.00626
1.00573
0.986426
0.989623
1.00347
1.0032
0.990969
0.99326
1.01345
1.01244
1.09466
1.08692
1.05917
1.05904
1.07162
1.06711
1.06793
1.07521
1.05474
1.05735
1.08946
1.1065
1.08341
1.10275
1.04628
1.06434
0.947871
0.934263
1.08395
1.10185
1.10616
1.11157
0.988739
1.00413
0.988192
0.983883
1.00463
1.00673
0.982879
0.975732
1.00745
1.01001
1.04385
1.04844
1.01349
1.01657
0.964872
0.953782
1.03641
1.03812
0.960001
0.942243
1.06228
1.08724
1.07563
1.06621
1.02262
1.02718
1.01631
1.01893
0.963999
0.968644
1.04907
1.07514
1.07932
1.06264
1.04964
1.05174
0.972239
0.970662
1.01822
1.01646
1.07717
1.0722
0.959542
0.970897
1.02479
1.02582
0.934599
0.929812
1.05349
1.05315
0.993748
0.995808
0.999758
1.00112
0.993733
0.995132
0.996513
0.998042
0.998039
0.999543
1.0013
1.0022
1.00324
1.00444
0.986989
0.985468
0.990199
0.988513
0.967783
0.975919
1.00701
1.00833
1.01024
1.01226
0.9822
0.976869
0.978027
0.983426
1.00506
1.00457
0.989335
0.991772
1.00238
1.00152
1.00441
1.00332
0.988382
0.991835
0.99227
0.994482
1.07241
1.05858
1.04795
1.05556
1.07931
1.08923
1.07259
1.07657
1.08742
1.0977
1.02649
1.03148
1.0835
1.08523
0.965063
0.952336
0.973913
0.972223
1.01937
1.021
1.01112
1.01386
1.01247
1.01407
1.01853
1.02112
0.964224
0.978504
1.05135
1.04893
1.07204
1.09002
1.01393
1.02587
0.985345
0.983999
1.08386
1.09007
0.926207
0.913214
1.06555
1.06474
1.06758
1.07693
1.00013
1.00232
1.00393
1.00546
1.00542
1.00807
0.984093
0.979027
0.980365
0.973014
0.986238
0.982342
1.07945
1.08405
0.98837
0.987623
1.00462
1.00415
0.986715
0.980777
1.00508
1.00618
1.0927
1.09445
1.05659
1.05282
1.08227
1.06936
0.990412
0.987402
0.992312
0.990341
1.00835
1.01341
1.00353
1.00249
1.00302
1.00299
0.990939
0.993425
0.992752
0.995254
0.999736
1.00157
0.99602
0.997857
0.997867
0.999532
1.03962
1.04441
0.990754
0.994405
1.07759
1.08682
0.976157
1.0129
1.00913
1.01048
1.01797
1.01523
1.07753
1.08391
0.950078
0.933066
0.987018
0.985795
1
1.00252
1.00212
1.00314
0.983132
0.990208
0.980277
0.975579
1.06425
1.06463
1.08349
1.09058
1.0675
1.0643
0.947685
0.951768
0.968164
0.940697
0.981556
0.961676
1.04448
1.04901
0.996868
0.993438
0.992676
0.988966
1.0019
1.00806
1.03544
1.03561
1.00149
1.00117
1.03553
1.04996
0.98083
0.959923
0.999682
0.998501
0.979966
0.980955
1.01441
1.02257
0.977926
0.967389
0.994867
0.992447
0.999383
1.0032
1.00897
1.01528
1.0242
1.03178
0.995477
0.997496
0.997983
0.999521
0.974893
0.969401
1.07382
1.08842
1.09011
1.07819
0.995599
0.999463
0.992027
0.989714
0.983446
0.973671
1.03807
1.042
1.06244
1.06982
1.00493
1.03563
0.986025
0.978062
0.981231
0.986102
0.996642
1.00005
1.00269
1.00854
1.01093
1.00859
0.986643
0.977715
1.02333
1.04948
0.967031
0.962686
0.996852
0.997014
0.994359
0.989217
0.971007
0.960213
0.997738
0.995125
1.00032
1.00132
0.980631
0.98909
0.990324
0.98516
1.00467
0.999659
0.99631
0.994159
0.99721
0.999723
0.986617
0.991153
1.06416
1.07174
1.02586
1.02973
1.01115
1.00404
0.998451
0.996345
0.97597
0.976912
0.962152
0.982145
0.995605
0.991587
0.995428
0.990303
0.995191
0.990051
0.995344
1.00017
0.994844
0.98665
1.06851
1.07881
0.995956
0.999411
0.986938
0.985131
0.994751
1.00138
1.00404
0.996401
1.05404
1.06119
0.992844
0.984988
0.989315
0.984847
0.993523
0.992884
0.969846
0.988033
1.05129
1.06249
1.02127
1.0284
0.988833
0.979713
0.99536
0.992442
1.06857
1.06261
0.995513
0.995261
0.995176
1.00238
1.04885
1.05028
1.0139
0.990414
0.991397
0.99685
0.998836
1.0157
1.04533
1.0435
0.997996
0.987221
1.06967
1.06339
0.999734
1.00441
1.05337
1.05523
1.05187
1.04348
1.03282
1.0446
0.996941
0.99742
1.04661
1.0472
1.00962
1.03367
1.02511
1.04389
1.03951
1.04137
1.04616
1.04667
1.01615
1.02784
1.0257
1.02989
1.03791
1.03458
1.03768
1.04288
1.04737
1.05042
0.998899
1.00836
1.01194
1.02289
1.03917
1.04282
1.00282
1.01928
1.00309
0.988038
1.01775
1.02067
1.00645
1.02378
1.00329
0.99894
1.02912
1.02792
1.01085
1.00735
0.997072
1.00211
1.01211
1.01668
1.02979
1.03133
0.994291
0.987495
0.993971
0.996575
1.00846
1.01667
1.00823
1.00489
0.992701
0.997409
1.00076
1.00125
0.988217
0.990375
1.01211
1.01023
0.999154
0.994016
0.981386
0.981071
1.00407
0.999426
1.01087
1.00661
1.00537
0.998685
1.01022
1.01112
1.01712
1.01244
1.00664
1.00529
1.02134
1.01927
1.01293
1.01391
1.02804
1.03309
1.01162
1.01056
1.02581
1.02208
1.02216
1.02078
1.02563
1.02837
1.02252
1.0327
1.03622
1.0387
1.03636
1.03251
2.74086
1.24294
1.17912
1.12364
1.04513
1.0347
1.04037
1.03067
1.01704
1.00849
0.971878
0.986581
1.00686
0.998415
1.00536
1.04012
1.05999
1.07131
1.07476
1.07176
1.054
1.01951
0.982836
0.972409
0.961279
0.956339
0.956755
0.954422
0.949159
0.947985
0.946223
0.943176
0.942659
0.949835
0.976657
1.01589
1.05764
1.07422
1.08825
1.08548
1.06658
1.04222
1.01714
1.02148
1.03148
0.962997
0.987788
1.00999
1.01741
1.02176
1.03315
1.03629
1.03687
1.07855
1.11022
1.20857
1.46263
2.02345
1.18835
1.10654
1.04167
1.03506
1.0376
1.03332
1.01946
1.01031
1.00377
0.96819
1.01517
1.02803
1.05293
1.06396
1.06933
1.06714
1.05892
1.04011
1.0103
0.98335
0.972297
0.964428
0.961502
0.961722
0.962298
0.959102
1.04165
1.03757
1.05835
1.0651
1.06519
1.05683
1.04476
1.02084
1.00541
0.980339
0.973199
0.967925
0.966174
0.967294
0.967574
0.96357
1.05265
1.05825
1.06286
1.06344
1.05934
1.05076
1.04028
1.01987
0.997936
0.979801
0.974796
0.971523
0.971095
0.972143
0.972819
0.970649
1.06079
1.06291
1.06318
1.06024
1.05288
1.04288
1.03023
1.01385
0.994328
0.98008
0.977027
0.97504
0.974967
0.976473
0.976541
0.974348
1.07613
1.06484
1.06376
1.05542
1.04608
1.03451
1.02427
1.00828
0.994814
0.982499
0.979428
0.978388
0.978595
0.980129
0.98178
0.977109
1.07586
1.07835
1.05857
1.05049
1.03947
1.02818
1.0205
1.00536
0.988424
0.983482
0.982146
0.981365
0.981733
0.982871
0.983295
0.981877
1.07877
1.06907
1.0554
1.04483
1.03374
1.02392
1.01482
1.00272
0.990632
0.985967
0.984682
0.983965
0.984314
0.985375
0.98608
0.983876
1.07298
1.06344
1.05092
1.03943
1.02883
1.01905
1.01142
1.00368
0.988928
0.988418
0.986578
0.986189
0.986899
0.986284
0.988131
0.986912
1.06205
1.06011
1.04432
1.03443
1.02398
1.01532
1.0074
1.00194
0.991327
0.989552
0.988166
0.988132
0.986595
0.988287
0.987431
0.987488
1.06295
1.05792
1.04083
1.02902
1.01992
1.01197
1.0051
0.998707
0.992948
0.989808
0.989474
0.98793
0.988891
0.988915
0.987157
0.987042
1.05582
1.0462
1.03336
1.02471
1.01615
1.00887
1.00266
0.997699
0.994365
0.991451
0.989891
0.989957
0.989428
0.987733
0.985649
1.04347
1.04455
1.02916
1.02014
1.01261
1.00621
1.00052
0.996612
0.994336
0.992389
0.990886
0.990457
0.989089
0.986185
1.04004
1.03302
1.02481
1.01626
1.00958
1.0042
1.00004
0.996062
0.994285
0.992071
0.99087
0.989044
0.987006
1.03144
1.02966
1.01931
1.01268
1.0071
1.0033
0.999274
0.995825
0.994179
0.991855
0.990663
0.988208
1.02744
1.02079
1.01504
1.00953
1.00591
1.00161
0.997964
0.995473
0.994177
0.992203
0.990053
1.01945
1.01765
1.01228
1.00817
1.00358
1.00068
0.997129
0.994836
0.992247
0.991121
1.01504
1.01376
1.00922
1.00494
1.00162
0.999074
0.9965
0.994746
0.993853
1.01577
1.00834
1.00591
1.00279
1.00003
0.998172
0.996169
0.995434
1.00765
1.00493
1.00348
1.00072
0.998738
0.997531
0.996469
1.00647
1.0025
1.00142
1.00037
0.998557
0.998675
1.00203
1.00167
1.00123
0.999198
0.999728
1.00125
0.999547
1.00036
1.00007
0.999945
1.00006
1.00032
0.999944
0.940458
0.943212
0.933777
0.934831
0.945411
0.989324
1.05358
1.07919
1.09412
1.09518
1.08308
1.05865
1.03446
1.01254
0.999073
0.928839
0.922238
0.920907
0.925566
0.941119
1.00554
1.0743
1.10355
1.11309
1.09142
1.08103
1.04893
1.02635
1.02664
0.917915
0.915303
0.912183
0.915748
0.944698
1.05132
1.10574
1.13833
1.12848
1.09497
1.06281
1.03989
1.0366
0.896183
0.910186
0.888985
0.908932
0.967272
1.0847
1.13073
1.14785
1.13517
1.08298
1.04758
1.05018
0.882418
0.873134
0.880689
0.940305
0.99922
1.119
1.18665
1.15179
1.11257
1.05569
1.06645
0.839819
0.863788
0.844664
0.926549
1.05697
1.18329
1.22327
1.16412
1.07253
1.08333
0.81331
0.766903
0.796814
0.969863
1.12108
1.23648
1.19848
1.11981
1.16686
0.727065
0.736801
0.806705
0.945605
1.22464
1.29946
1.18495
1.16068
0.670979
0.583391
0.757332
1.0366
1.35421
1.28458
1.24282
0.431199
0.418644
0.815945
1.15052
1.3661
1.42372
0.367149
0.29436
0.268934
1.62146
1.67955
0.252812
0.804511
0.192897
1.48939
1.21758
0.117363
1.03479
1.04917
1.0702
1.07884
1.11171
1.17271
1.20057
1.24745
1.26889
1.14943
0.602136
1.05283
1.04085
1.05957
1.07556
1.09275
1.12022
1.16797
1.18981
1.22582
1.16225
1.05844
0.668535
1.04271
1.07249
1.06389
1.08172
1.10511
1.11521
1.13198
1.15588
1.16595
1.10201
0.959292
0.864449
1.05343
1.06149
1.08228
1.0817
1.0922
1.09753
1.09968
1.08873
1.05803
1.0323
0.906258
0.798785
1.0598
1.06452
1.07276
1.07398
1.08582
1.07695
1.07341
1.05876
1.02453
0.990417
0.905621
0.838799
1.06203
1.06482
1.06884
1.07191
1.05225
1.06542
1.05306
1.04211
1.02195
0.961713
0.918385
0.874517
1.06272
1.06248
1.06328
1.06538
1.06449
1.03962
1.03599
1.02622
0.999276
0.94872
0.920956
0.890953
1.06304
1.05938
1.05691
1.05676
1.05084
1.039
1.00011
1.0177
0.967055
0.951656
0.929361
0.909738
1.05874
1.0547
1.05075
1.04563
1.03814
1.02965
1.02632
0.967603
0.982046
0.954686
0.937996
0.924352
1.05379
1.04943
1.04459
1.03958
1.03328
1.02664
1.01973
0.991299
0.954802
0.958271
0.945241
0.934949
1.05115
1.04441
1.03854
1.03187
1.0257
1.0139
0.999672
0.99219
0.968868
0.949073
0.950684
0.941917
1.04451
1.03927
1.03317
1.02638
1.01841
1.00854
0.99435
0.98797
0.969754
0.958753
0.948476
0.949869
1.04049
1.03469
1.02847
1.02256
1.01933
1.0045
0.992464
0.986547
0.971663
0.962729
0.955118
1.03359
1.02919
1.02395
1.01806
1.01355
1.00353
0.993662
0.984205
0.973724
0.966714
0.960632
0.956449
1.0281
1.02476
1.01993
1.01473
1.00793
1.00083
0.991116
0.982108
0.976192
0.970603
0.965271
0.961608
1.02492
1.02068
1.01623
1.01176
1.0074
1.004
0.991493
0.983272
0.978931
0.974115
0.970115
0.967183
1.01885
1.01654
1.01284
1.00874
1.00457
0.99883
0.991551
0.985742
0.981511
0.977566
0.974251
0.972358
1.01536
1.0125
1.00945
1.00594
1.00238
0.998637
0.992048
0.987742
0.984089
0.980674
0.977917
0.976201
1.01115
1.00848
1.00613
1.00353
1.00033
0.997216
0.99246
0.990011
0.985975
0.98328
0.981244
0.979933
1.00944
1.00786
1.00578
1.00304
0.999661
0.996854
0.993933
0.990004
0.987665
0.985725
0.983803
0.982568
1.0058
1.00509
1.00349
1.0009
0.999096
0.99592
0.994144
0.991319
0.990003
0.988844
0.986645
0.985221
1.00323
1.00269
1.00174
1.00042
0.997734
0.99553
0.994058
0.992606
0.989788
0.98855
0.98715
0.98652
1.00122
1.00068
1.00009
0.998892
0.997219
0.995163
0.993843
0.992551
0.990233
0.989181
0.988032
0.987274
1.00059
1.00031
0.998976
0.997726
0.996588
0.995039
0.993315
0.991784
0.990552
0.988827
0.988144
0.987273
2.19442
2.33041
2.1392
1.99773
1.8753
1.77279
1.68756
1.54756
1.4391
1.39735
1.39672
1.36035
1.32899
1.30083
1.2727
1.23732
1.17575
1.16127
1.06131
1.02315
0.987129
0.999636
1.00308
1.0104
1.02565
1.04675
1.06679
1.06933
1.06947
1.0397
0.983087
0.986045
0.98823
0.992425
0.996836
0.999618
0.987976
0.985449
0.979616
0.970808
0.959276
0.936039
0.908881
0.862642
0.786855
0.577515
0.388593
0.358517
0.284622
0.262043
0.278486
0.269256
0.246985
0.246002
0.248235
0.297567
0.315458
0.336588
0.360705
0.565677
0.5731
0.856686
0.855415
1.07028
3.11976
2.79988
2.60202
2.94877
3.01008
2.80538
2.54916
2.71189
2.49618
2.25983
2.24346
1.96065
1.76012
1.65562
1.47951
1.49645
1.16869
1.04008
0.838002
0.744386
0.598591
0.515846
0.362442
0.643597
0.717741
0.150674
0.137239
0.386343
0.342873
0.612547
0.5379
0.802937
0.696894
0.951674
1.20202
0.349214
0.383444
0.269977
0.258053
0.330622
0.317222
0.343679
0.302937
0.276941
0.250406
0.264098
0.248287
0.246102
0.387973
0.282142
0.446723
0.422662
0.504249
0.608591
1.05084
0.843231
2.45359
2.5373
1.60669
1.51681
1.41634
1.46171
2.23138
2.05858
1.92738
2.04406
1.82043
1.97063
1.72781
1.76493
1.64702
1.72713
1.61282
1.5284
1.57842
1.54769
1.37787
1.4001
1.34361
1.37852
1.31491
1.32733
1.28561
1.31504
1.26018
1.26945
1.24798
1.23707
1.23836
0.328454
0.336477
0.285344
0.292423
0.294842
0.255595
0.257966
0.255912
0.27739
0.259959
0.33966
0.320567
0.449219
0.417248
2.10533
1.62155
2.89774
2.46246
0.341511
0.236855
1.33368
0.892212
1.00299
0.842366
2.6805
2.65585
2.62361
0.264596
0.443877
2.60924
2.14571
0.712771
0.757736
0.220271
0.595643
2.37434
1.93933
0.291002
0.267832
0.503533
0.48775
2.71043
2.4316
2.38068
2.31034
0.557357
0.62234
1.09282
1.07558
0.883757
0.370306
0.654155
1.00262
2.35157
2.24853
0.709809
0.607245
1.33497
1.81053
2.01793
1.89466
0.456239
0.675133
1.21703
1.18814
0.408254
0.364517
1.76464
1.59125
0.314419
0.104569
0.393005
0.319036
2.22953
2.36586
2.72317
0.42654
0.386195
1.17402
1.20135
0.534509
0.414314
1.13994
1.17771
0.559623
0.48084
1.11171
1.16733
1.45152
1.43491
0.269129
0.269079
0.379044
0.33796
0.302104
0.303034
0.363094
1.82034
1.6843
2.43769
2.05008
1.88719
1.86737
1.51881
1.6116
1.36196
1.36008
1.30975
1.30348
1.30559
1.25252
0.3648
0.308472
0.307995
0.258812
0.315959
0.289653
0.538101
2.3491
0.67504
0.819281
1.28683
1.26054
1.48833
1.40158
1.68248
1.7665
1.64872
1.57867
1.34573
1.41648
1.32872
1.34414
0.31827
0.331139
0.303677
0.270408
0.263878
0.257418
0.274909
0.293606
0.262465
0.348153
0.330244
0.43733
0.389538
0.358346
1.22395
1.22985
3.0665
2.59612
0.719861
0.66457
1.46858
1.49679
1.01511
0.429918
0.498637
1.89344
1.39231
2.89645
0.921764
0.9348
0.33743
0.430832
0.382229
0.290443
2.24735
2.60147
0.641694
0.422966
1.8724
2.13654
1.04984
1.35803
0.491685
0.797281
2.18146
2.53039
1.77874
1.82829
2.03982
2.44614
2.14104
2.14036
0.566815
0.478475
0.409273
0.441817
0.768604
0.387116
0.305501
0.496774
0.496548
1.95937
2.04394
0.591279
0.520859
0.946216
0.967222
2.48472
2.24336
1.73939
1.71184
1.34457
1.63237
0.540312
0.498594
1.74672
0.439488
0.399477
0.379828
0.407637
1.22967
1.20086
0.546487
0.479154
1.14628
1.20604
0.496462
0.663245
1.12272
1.10411
1.25479
0.333051
0.373475
0.297803
0.281003
0.394201
0.30243
0.344795
0.284945
0.332123
0.345973
1.52497
1.58696
1.55763
1.64451
1.64599
1.71311
1.71011
1.82243
1.80306
1.68802
2.21565
0.456492
0.407944
0.661934
0.315844
0.325393
1.27917
1.31509
0.346641
0.340845
0.277228
1.48578
1.3438
1.2937
1.26722
0.276964
0.315175
1.48774
1.37995
1.44771
1.26265
0.315731
0.303282
0.296237
1.42378
0.656114
0.842042
0.602108
0.707677
1.1558
1.21933
1.47162
1.50824
0.844845
0.747021
2.33448
2.56891
1.84216
2.46587
2.04731
2.42584
2.11401
2.3722
0.632571
0.462807
2.22691
1.88749
1.97091
2.04749
2.30468
2.11783
2.24713
1.95267
0.469826
0.544281
0.454377
0.457928
0.553251
0.512969
0.424093
0.454115
0.429294
0.540063
0.414351
0.509893
0.430669
0.469415
0.472641
0.582867
0.535726
0.541499
0.615137
0.794882
1.03675
0.958036
1.15508
1.04174
1.94701
1.88737
1.27429
1.23068
1.57679
1.84148
1.73259
1.2952
1.65686
1.57031
0.402982
0.413612
1.20596
1.23163
0.505993
0.465938
1.18564
1.2392
0.561512
0.47671
1.14739
1.17316
0.567291
0.560908
1.25864
1.2573
0.298136
1.36204
1.33011
1.30295
0.308093
0.350487
0.402422
0.342626
0.322922
0.305248
0.315697
0.374794
0.353731
0.460297
0.572084
1.66548
1.64566
1.6256
1.74143
2.1888
1.85238
2.00422
0.332819
0.467276
0.359109
0.501618
0.483462
1.31009
1.32755
0.343836
1.41403
1.38064
1.44217
1.42101
0.362798
0.347923
0.554616
0.471522
1.13046
1.36625
0.655526
0.811175
1.48178
1.42696
0.658015
0.572003
1.76241
1.8351
1.63853
1.79913
0.668294
0.539125
1.12969
1.13106
2.16961
2.33319
2.05815
2.24203
0.451445
0.49676
1.76754
2.04757
1.70554
1.81645
0.531799
0.369572
0.619267
0.570224
0.512305
0.470067
0.498875
0.532847
0.550311
0.502574
2.18283
1.82406
1.74959
2.0734
1.87473
2.01102
1.05233
1.03439
0.519738
0.566464
0.637538
0.618022
0.701067
0.673288
1.39223
1.26096
1.56711
1.70843
1.4933
1.61619
0.875866
0.853341
0.40594
0.407622
0.440086
0.448735
1.22523
1.24582
0.466967
0.581183
1.21788
1.18468
0.495994
1.42857
1.27267
1.34485
0.331475
0.372064
0.35118
0.34379
0.380585
1.3847
1.49022
1.26206
1.31399
0.407881
0.356462
0.385672
0.386604
0.385444
1.60667
1.58866
1.96102
1.67796
2.141
1.75907
2.02095
1.9207
0.418177
0.475526
0.4391
0.370725
0.366088
0.397854
1.32819
1.36355
0.421767
0.394124
1.4672
1.40176
0.726278
0.941557
1.13074
1.32938
1.45754
1.52275
1.59992
1.62063
1.90267
1.78768
1.3431
1.30332
0.729453
0.618191
0.722611
0.670919
0.773115
0.84129
0.798829
0.905396
0.531477
0.482665
0.579274
0.674343
1.37703
1.21588
0.518092
0.52484
1.96374
1.67303
1.2127
1.14375
2.01783
1.72092
0.572177
0.533451
2.0603
1.76303
0.525031
1.70846
1.64811
1.79959
1.92071
0.533332
1.56319
1.68765
0.98727
0.975154
0.780302
0.729488
1.41904
1.61236
2.01548
1.84968
0.518387
0.461205
1.21628
1.2789
0.719576
0.627091
1.17954
1.21458
1.46354
0.370964
0.452377
0.332486
1.53132
1.53876
1.36766
0.3592
0.428228
0.375285
1.29384
1.34812
0.380527
0.429838
1.53211
1.83499
1.61058
1.78497
1.70267
0.387367
0.410696
0.388194
1.90201
1.75276
0.426988
0.394673
0.421129
0.390839
0.477252
1.42608
0.448725
0.407757
1.28857
1.33579
0.473847
0.411332
1.42016
1.38589
0.445801
0.920946
1.05178
1.27862
1.20691
1.99505
1.72893
1.66337
1.84137
1.74358
0.703105
0.707937
0.97291
0.913187
1.53592
1.2681
0.64635
0.625716
1.34825
1.19653
0.787287
0.717669
1.55555
1.66783
1.50291
1.44171
1.31536
1.2503
0.595509
0.585655
1.07183
1.07852
1.88914
1.63855
1.93137
1.67323
0.549766
0.55375
1.89315
2.03711
0.538691
0.527895
1.96777
1.70234
0.503321
1.02907
0.858325
0.452301
0.433662
0.8525
0.733043
0.84546
0.76528
1.50755
1.60694
0.535466
0.475483
1.25487
1.29763
0.650522
0.537588
1.26184
1.20345
0.605133
0.606036
1.1595
1.27684
1.46241
1.39663
0.408279
0.462063
0.426813
0.433611
0.45992
0.412932
1.34922
1.46535
1.56547
1.54642
0.416253
1.61856
1.64579
0.41544
0.465861
0.484797
0.562198
0.428958
0.481575
0.448872
1.31745
1.37251
0.452755
0.440254
1.43892
1.41982
0.50916
0.466316
1.32535
1.47246
1.69673
1.62548
1.54339
1.64748
0.723932
0.768285
0.658997
0.6534
1.33122
1.26499
1.78514
1.57564
1.15992
1.0748
0.830923
0.861249
1.41674
1.24218
1.482
1.29982
1.01617
0.95912
1.01326
1.81804
1.63049
0.601028
0.605419
0.528165
0.563407
1.84727
1.73525
0.484135
0.525042
1.89871
1.71051
1.71405
1.76193
0.956926
0.902967
1.45805
1.54552
0.830005
0.790914
0.893086
0.782912
1.50642
1.59853
1.35583
1.37959
1.15488
1.19201
1.26555
1.29338
1.2321
1.26181
0.539437
0.494656
0.501812
0.602544
0.809503
0.697297
0.62071
0.702799
1.27498
1.18915
1.15663
1.11581
0.517156
1.51258
1.37033
1.47186
0.577965
0.513644
0.439151
1.69152
1.57497
1.60198
1.58173
0.478344
0.448674
0.459598
0.515213
0.47234
0.472027
1.42479
1.3556
0.548081
0.51108
1.323
1.41987
1.40127
1.35527
1.52579
1.60218
1.26985
1.18918
0.732175
0.787827
1.59968
1.54657
0.680559
0.66472
0.854553
0.719144
1.39149
1.37319
1.57493
1.70022
1.23584
1.14612
1.09087
1.44691
1.42319
1.0987
1.05962
1.66488
1.73084
0.603895
0.613574
1.5476
1.58628
0.894694
1.00875
1.67154
1.56835
0.563734
1.40803
1.54959
1.49961
1.33932
0.953073
0.851049
0.921805
0.78086
1.04797
0.986624
0.547585
0.534329
1.46701
1.3853
1.29104
1.29475
0.622804
0.559791
0.696399
0.800907
0.607073
0.568018
1.12642
1.11658
0.768399
0.703402
0.873583
0.738858
1.46689
1.50131
0.727417
0.588292
0.48012
1.12881
1.10389
1.53933
0.491826
1.4487
1.39555
0.522569
0.495112
0.61973
0.576404
1.50191
1.35579
1.51991
1.44141
1.76491
1.64729
0.691255
0.793172
0.61006
0.578682
0.785442
0.851836
1.31466
1.29177
1.62383
1.5395
1.56966
0.666052
1.40611
1.28254
1.56896
1.65657
1.57111
0.620743
1.12727
1.14982
0.933372
0.774776
1.4995
1.42708
0.985942
1.00382
1.4674
1.32892
1.06768
1.04626
1.32686
1.29553
1.50863
1.47865
1.36104
1.22939
1.00027
0.919669
1.51007
1.43793
0.520679
0.505712
1.23774
1.27135
0.679828
0.640852
0.620348
0.652159
1.37711
1.33142
0.865411
0.723064
0.756152
0.863511
0.822839
0.812498
0.725445
0.755086
0.629933
0.542917
0.590972
0.66029
0.593121
0.664694
0.55409
0.551952
1.51919
1.38264
0.743834
0.7472
1.499
1.50837
1.57497
1.52505
1.54729
0.564329
0.648912
0.56477
0.653837
0.929181
0.802309
1.48934
1.46579
0.923769
0.855783
1.39445
1.33713
1.21718
1.18161
1.37045
1.42911
1.23414
1.25819
1.14376
1.17613
0.696964
0.6501
1.58397
1.2927
1.30382
1.40294
1.36446
1.32863
1.38819
1.36564
1.4447
1.46147
1.47417
1.07907
1.0695
1.51024
1.41671
1.4694
1.00204
0.929245
1.48215
1.40482
1.26213
1.21116
0.735613
0.686493
0.767995
0.938604
0.892291
0.964612
1.54815
1.40612
0.600265
0.77512
0.662907
0.676811
0.829858
1.45713
1.52203
0.908872
0.697499
1.23177
1.19825
1.47992
1.42369
1.50335
1.36747
1.40616
1.46018
1.43711
1.47788
1.50724
0.995935
0.844931
1.41292
1.25454
1.32444
1.42662
1.51741
1.25286
1.3186
1.38924
1.37544
1.43734
1.504
1.13946
1.14829
1.40013
1.45724
1.00693
0.902901
1.07453
1.07142
1.41922
1.44143
1.29369
1.33119
1.23525
1.27944
0.980668
0.69623
1.23829
1.20036
0.802094
0.727875
1.34048
1.36343
0.774396
0.729899
0.91219
0.838757
1.46079
1.5127
0.701589
0.734758
0.874552
0.867782
1.29722
1.27286
1.43947
1.45006
1.42671
1.39783
0.867362
0.823757
1.36364
1.3771
1.35292
1.43105
0.776647
0.737943
1.27757
1.41117
1.41252
1.49212
1.42676
1.35808
1.26298
1.14082
0.989315
0.856125
1.44179
1.38131
0.818537
0.777169
1.21375
1.14008
1.45655
1.47765
0.771491
0.812451
1.44449
1.46146
1.07591
1.03275
1.32277
1.30078
1.22282
1.27165
1.30297
1.30676
1.37591
1.33327
0.953599
0.903984
1.20498
0.982727
1.05026
0.929765
0.668786
0.652976
0.8838
0.824567
1.07607
1.07836
1.17154
1.13378
1.4641
1.39098
1.44467
1.48415
1.32952
1.47387
0.624935
0.588521
1.50274
1.47828
0.94464
0.921388
1.31155
1.35099
1.05673
0.930111
1.30507
1.28786
1.27069
1.20414
1.39971
1.46531
1.35924
1.35074
1.06762
1.13451
1.41811
1.39912
1.38397
1.3886
1.38788
1.39924
1.20528
1.29768
1.02652
0.902735
1.3666
1.36935
1.05079
1.17245
0.986098
0.955461
1.26972
1.30041
1.08459
1.01591
1.09511
0.983415
1.22691
1.23732
0.812761
0.733861
0.985154
0.887022
1.44892
1.42145
0.811127
0.849109
0.953502
0.963971
1.34736
1.38187
1.43495
1.19748
1.19378
1.44528
1.39024
1.37333
1.34738
1.24822
1.13801
1.40472
1.43869
0.851629
0.797885
1.36595
1.42919
1.38639
1.41934
1.33065
1.32618
1.12348
0.9734
1.39123
1.44269
1.04454
1.11271
1.32832
1.31392
1.16473
1.06901
1.1628
1.13152
1.23841
1.20321
1.03379
1.02566
1.28436
1.31907
0.888288
0.885503
1.35566
1.37473
1.27371
1.25409
1.36988
1.32118
1.42323
1.39294
1.35479
1.36078
1.41268
1.35297
1.29931
1.29902
1.36912
1.41459
1.19362
1.11315
1.2972
1.32561
1.113
1.25914
1.26714
1.22783
1.12074
1.16698
1.31288
1.31635
1.23044
1.21136
1.36271
1.38017
1.4061
1.34691
1.33113
1.34602
1.26781
1.26456
1.18508
1.12839
1.32955
1.37335
1.3271
1.20366
0.989058
1.0397
0.850028
0.795289
1.35281
1.3368
1.31747
1.25683
1.32326
1.39111
1.26005
1.28599
1.23522
1.20816
1.29797
1.20231
1.05794
0.991262
1.24095
1.22213
1.31907
1.29007
1.23346
1.27327
1.31702
1.36092
1.31841
1.37742
1.25614
1.30025
1.23638
1.28924
1.13856
1.19324
1.27203
1.36228
1.16672
1.1967
1.29434
1.24843
1.0533
1.08506
1.10615
1.03981
1.20392
1.23347
0.928348
0.861267
1.32995
1.34083
1.26106
1.28826
1.2355
1.27806
1.2508
1.24928
1.17787
1.20977
1.10965
1.13438
1.35309
1.31319
1.22274
1.25457
1.11794
1.18364
0.978283
0.910917
1.07538
1.07277
1.16254
1.2057
1.01835
1.0014
1.05165
1.03894
0.988296
0.987595
1.03085
1.02404
0.99243
0.99104
1.0176
1.01426
1.00578
1.00426
0.997335
0.995535
1.00019
1.00076
1.00036
0.999043
1.05696
1.05122
1.06326
1.0685
1.06653
1.06394
1.04464
1.03234
0.973192
0.975574
0.980301
0.982895
0.986299
0.9874
0.943235
0.942395
0.688147
0.73347
0.731423
0.656389
0.956529
0.962361
0.903819
0.909363
0.853465
0.868249
1.10748
1.16118
1.20735
1.19543
1.15548
1.17845
0.99919
0.94576
1.05555
1.04932
1.03662
1.03484
1.02217
1.02306
1.01113
1.0243
1.04324
1.05152
1.06231
1.05325
1.06762
1.06686
1.06838
1.06329
1.0729
1.06235
1.00731
1.00998
1.00119
1.00401
1.04166
1.0358
0.995866
0.986032
0.993444
0.993046
0.99756
0.997345
0.999954
0.999792
0.955321
0.950465
0.9196
0.931256
0.899202
0.892246
0.843079
0.832567
0.988311
0.987187
0.969767
0.974116
0.937184
0.933176
0.81167
0.795998
1.04994
1.07341
1.05229
1.04718
1.02572
1.02939
1.02217
1.02242
0.99724
0.994848
1.10431
1.16835
1.05693
0.985901
0.958926
0.87777
1.05218
1.08085
1.17643
1.18014
1.02725
1.0271
0.918278
0.893979
1.1501
1.11474
1.0179
0.950942
1.07479
1.05279
1.05026
1.03573
1.02955
1.01481
1.01438
0.994368
0.819518
0.841616
0.901104
0.936513
1.00015
1.00014
0.999833
0.999273
0.999063
0.997597
0.996919
0.996119
0.994331
0.993188
0.992643
0.991859
0.988966
0.989375
1.03894
1.02737
0.984222
0.984913
0.964244
0.965648
1.0122
1.01148
0.985604
0.985977
1.00021
1.00053
0.980001
0.97754
0.952718
0.954739
1.02433
1.01192
1.0401
1.0302
0.963314
0.959977
0.971282
0.970131
0.97781
0.974801
0.983817
0.981462
0.988512
0.987035
0.987941
0.98758
1.04899
1.05954
1.05798
1.06287
1.05935
1.06373
0.859997
0.875705
1.0655
1.06282
0.889048
0.897515
1.06754
1.05935
0.906524
0.906791
1.06392
1.05492
0.924581
0.923109
1.05939
1.0502
0.927849
0.93247
1.05638
1.04485
0.951029
0.948716
1.04837
1.03406
1.03771
1.02861
1.03142
1.02457
1.02902
1.01955
1.01968
1.0157
1.01862
1.01229
1.00821
1.00711
1.00278
1.00206
1.00253
1.00045
1.02793
1.05174
0.93943
0.9394
1.0506
1.04007
1.00768
1.00396
0.999512
0.998691
0.995542
0.994935
0.990563
0.990577
0.988083
0.98697
0.886567
0.892141
0.980635
0.937329
0.967942
0.966126
0.978474
0.978736
0.98476
0.984655
1.01146
1.01344
1.03783
1.02404
1.06393
1.05038
1.11085
1.08126
0.91429
0.926004
0.987444
0.987934
1.00204
0.999806
1.00047
0.998241
0.997684
0.996628
0.994645
0.99327
0.992747
0.991806
0.988923
0.989282
0.995514
0.994308
0.99111
0.990675
1.05205
1.03701
0.999323
0.9979
1.05655
1.03829
0.955969
0.956057
1.02916
1.04689
0.961492
0.961034
0.96643
0.965621
0.975835
0.973821
0.97933
0.977512
0.984843
0.983449
0.988992
0.989527
1.05257
1.06646
1.05836
1.06766
1.06289
1.0659
1.06298
1.06171
1.06227
1.05655
0.925882
0.930965
1.05892
1.05109
0.935386
0.938718
1.05561
1.04496
0.943946
0.945116
1.04975
1.03933
1.04073
1.02896
1.03465
1.02429
1.03044
1.02009
1.02478
1.01625
1.02123
1.0127
1.01586
1.00946
1.01003
1.00559
1.00452
1.00127
1.06109
1.05058
0.949763
0.950755
1.04502
1.03396
1.00718
1.00328
0.95911
0.943166
1.04805
1.05559
1.06265
1.06505
1.05493
1.0608
0.966919
0.937894
0.971801
0.969858
0.982402
0.980682
0.987075
0.98587
1.00936
1.01151
1.08437
1.06284
1.08196
1.0637
1.00187
0.999081
0.998839
0.997068
0.994881
0.993207
0.992759
0.991291
0.988812
0.987537
0.996081
0.994666
0.991339
0.990795
1.06356
1.04764
1.00131
0.998866
0.989233
0.989045
0.962383
0.965433
0.966789
0.968585
0.971015
0.97183
0.978398
0.978028
0.981416
0.980929
0.986433
0.985696
1.07657
1.06948
1.06798
1.07395
1.06784
1.06883
0.948895
0.955956
1.04997
1.04011
0.953813
0.960221
1.04422
1.03349
1.034
1.02354
1.02914
1.01921
1.02459
1.01579
1.02047
1.01224
1.01671
1.00925
1.01287
1.00653
1.00803
1.00366
1.00326
1.00015
0.958096
0.962843
1.05255
1.07197
1.03884
1.02836
1.00555
1.00202
0.977786
0.972788
0.976066
0.970301
1.08723
1.07446
0.97603
0.967885
1.01173
1.01915
0.976926
0.966248
1.01389
1.02331
1.08977
1.07749
0.965066
0.971563
1.01877
1.02762
1.08299
1.07922
1.02123
1.03252
1.02679
1.03882
1.07217
1.07477
1.03454
1.04618
1.10153
1.07869
0.986854
0.959613
1.05576
1.0673
1.04845
1.05151
1.05067
1.05976
1.00332
0.999382
1.0013
0.997684
0.995152
0.992941
0.992474
0.991357
0.99663
0.994968
0.991218
0.990328
0.974817
0.97487
0.984101
0.983531
0.98813
0.988401
1.00637
1.00919
0.988901
0.988911
0.975881
0.977663
0.981694
0.982296
0.984241
0.984849
0.988243
0.987875
1.0156
1.00813
1.01234
1.00564
1.00924
1.00317
1.00535
1.00167
1.00066
0.983265
1.06181
1.06678
1.04325
1.05113
1.04952
1.06282
1.0609
1.05906
0.987251
0.985375
1.00218
1.00799
1.00428
1.01135
0.983602
0.981018
0.985636
0.978625
0.987108
0.978708
1.1021
1.08985
1.01111
1.01252
0.99088
0.978341
0.98271
0.979547
1.00965
1.01729
1.1028
1.09279
1.01371
1.02016
0.998035
0.982284
1.07874
1.09342
1.02123
1.02601
1.02739
1.03229
1.06928
1.07804
1.03463
1.0399
0.978805
0.980306
0.986149
0.986946
0.988067
0.989419
1.00282
1.00616
1.10972
1.09828
1.00223
0.997619
0.994802
0.992554
0.992234
0.990024
0.997244
0.995222
0.987401
0.988661
0.97107
1.02172
1.00532
0.999606
1.05051
1.05862
1.00458
1.00454
0.990562
0.985523
1.00923
1.01231
0.991985
0.985807
0.995993
0.985931
1.00437
0.988246
1.09973
1.10447
1.0085
0.994813
1.01184
1.01586
1.01467
1.02018
1.08921
1.08879
0.984651
0.978994
1.02163
1.02731
0.984883
0.978707
1.03058
1.03808
1.07662
1.07436
0.987077
0.980319
1.00869
1.00833
0.973242
0.960161
1.04251
1.04656
1.07289
1.06651
0.995898
1.0018
0.994685
0.991086
1.03376
1.00986
1.14068
1.1201
0.986754
0.983023
0.991044
0.988488
1.00142
1.00321
1.00024
1.005
0.993249
0.98651
0.98819
0.990546
0.998846
1.00242
0.994829
0.992238
0.998406
0.995416
1.10273
1.14148
1.06371
1.0704
0.98845
1.00618
1.00025
0.991802
1.00452
0.993456
0.995396
0.999631
0.994948
0.99186
0.996012
1.00048
0.996609
0.99217
1.10787
1.0925
1.00825
1.00662
0.987785
0.97903
0.984962
1.03826
0.999445
1.00659
1.01154
0.998165
1.03794
1.04707
0.995451
0.996028
0.995282
0.999746
0.998847
0.989372
0.9955
0.987124
0.999356
0.998395
0.992256
0.988795
1.11994
1.11766
0.997874
1.00365
0.999048
0.999226
1.01057
1.00071
0.991724
0.987365
1.05177
1.0394
1.01808
1.00487
1.05811
1.06416
1.03757
1.02663
1.02709
1.01252
1.1209
1.14759
2.7437
1.3812
1.23271
1.17672
1.1166
1.04652
1.04377
1.0321
1.03322
1.01775
1.0089
0.97218
0.98692
1.00769
0.998583
1.00609
1.03717
1.06155
1.07017
1.07371
1.06846
1.04802
1.0121
0.989918
0.970882
0.9584
0.954535
0.949514
0.953693
0.949801
0.945968
0.945043
0.939422
0.943688
0.948132
0.977663
1.00372
1.05454
1.06632
1.09189
1.08371
1.07006
1.04756
1.01954
1.03153
1.02141
0.963079
0.98783
1.0096
1.01565
1.02339
1.02548
1.03343
1.03667
1.07959
1.1103
1.21451
1.48988
2.24455
1.17582
1.10574
1.04432
1.03778
1.04087
1.02617
1.0196
1.00902
1.00392
0.9682
1.0153
1.02946
1.05014
1.0648
1.06929
1.06943
1.0582
1.03778
1.01196
0.986412
0.96864
0.962569
0.954436
0.958975
0.960346
0.956088
1.04297
1.03933
1.05736
1.06533
1.06545
1.05924
1.04399
1.02301
1.00568
0.977367
0.969613
0.962425
0.962955
0.964612
0.963793
0.963666
1.05462
1.06436
1.06383
1.06359
1.05972
1.04946
1.03673
1.01333
0.994413
0.982673
0.97148
0.968033
0.967719
0.968884
0.97101
0.965005
1.07148
1.06433
1.06575
1.06145
1.05439
1.04413
1.02556
1.00862
0.99336
0.982939
0.974109
0.971737
0.971738
0.972832
0.97308
0.969976
1.07792
1.066
1.06618
1.05596
1.04729
1.03291
1.01992
1.0052
0.991847
0.9789
0.975772
0.975235
0.975674
0.974499
0.977024
0.974938
1.07872
1.07093
1.06452
1.05247
1.04181
1.02829
1.01686
1.00248
0.989759
0.983981
0.979144
0.978736
0.97629
0.979089
0.980466
0.978165
1.07972
1.07188
1.06073
1.04525
1.03735
1.02719
1.0114
1.00025
0.990916
0.982571
0.981404
0.979486
0.980703
0.982257
0.982977
0.981831
1.077
1.0665
1.05585
1.04344
1.03127
1.01826
1.01007
0.998954
0.990272
0.98654
0.983719
0.982885
0.983592
0.984608
0.985805
0.984045
1.06416
1.0644
1.0509
1.03641
1.02743
1.01901
1.00695
0.998219
0.991602
0.989058
0.985683
0.985347
0.985912
0.986718
0.987808
0.985498
1.06505
1.05586
1.04204
1.03082
1.02271
1.01243
1.00531
0.997672
0.992721
0.989956
0.987076
0.987539
0.988005
0.987622
0.988781
0.988178
1.05191
1.05113
1.0367
1.0279
1.01984
1.00937
1.00435
0.997891
0.993136
0.990616
0.989502
0.989489
0.988544
0.989648
0.990708
0.989247
1.05085
1.04808
1.03532
1.02285
1.01639
1.00841
1.00165
0.998626
0.993876
0.99167
0.991198
0.989965
0.990386
0.990977
0.991196
0.99083
1.0451
1.03817
1.03028
1.01945
1.01424
1.00839
1.00398
0.998408
0.995109
0.992871
0.991817
0.991665
0.991701
0.991727
0.991893
0.991487
1.03505
1.03525
1.02425
1.01772
1.01131
1.00628
1.00103
0.999878
0.995875
0.994667
0.993129
0.99232
0.992111
0.992434
0.992418
0.992248
1.03158
1.02793
1.02265
1.0148
1.00906
1.00539
1.00146
0.997767
0.995794
0.994493
0.993776
0.99354
0.99284
0.992679
0.992343
1.02723
1.02458
1.01738
1.01152
1.00707
1.00373
1.00118
0.998294
0.996875
0.99546
0.994332
0.993949
0.993337
0.992932
1.02255
1.01875
1.01394
1.00964
1.00598
1.00275
1.00091
0.998275
0.997299
0.995724
0.99471
0.99402
0.993385
1.01736
1.01624
1.0108
1.00779
1.00476
1.00242
1.00071
0.998527
0.997598
0.996018
0.99505
0.99409
1.01474
1.0116
1.00952
1.00625
1.00423
1.00198
1.00048
0.9987
0.997893
0.996527
0.995158
1.01074
1.00992
1.00768
1.0056
1.0033
1.00147
1.0004
0.998743
0.997251
0.996684
1.00893
1.00795
1.00634
1.00423
1.00307
1.00131
1.00037
0.999292
0.99842
1.00912
1.00635
1.00478
1.0035
1.00246
1.00116
1.0002
0.999532
1.00536
1.00519
1.00367
1.0031
1.00201
1.00092
1.00021
1.00461
1.00357
1.00322
1.00287
1.0021
1.00167
1.00334
1.00295
1.00299
1.00255
1.00228
1.00284
1.00181
1.00252
1.0024
1.00214
1.0022
1.00241
1.0015
0.942562
0.933795
0.928009
0.932393
0.947172
0.989085
1.04716
1.07456
1.09511
1.10465
1.08511
1.06141
1.03529
1.01324
0.999734
0.92593
0.932397
0.925509
0.926947
0.945852
0.990643
1.07152
1.09648
1.11401
1.10596
1.07695
1.04858
1.02639
1.02866
0.917755
0.90622
0.903732
0.928833
0.934098
1.01347
1.10661
1.13597
1.12093
1.10029
1.06741
1.0411
1.03797
0.897215
0.894649
0.892647
0.904525
0.973347
1.0611
1.14719
1.16123
1.12123
1.0767
1.04341
1.05123
0.88121
0.862832
0.869612
0.891006
1.01753
1.11088
1.16684
1.18198
1.10836
1.06169
1.06045
0.838879
0.855664
0.851039
0.92437
1.05895
1.16483
1.19253
1.15927
1.08086
1.08254
0.809042
0.81328
0.797783
0.904997
1.17736
1.26533
1.18829
1.11892
1.15557
0.724714
0.732165
0.858744
1.00558
1.24157
1.27444
1.18058
1.23458
0.670979
0.577483
0.794167
1.11055
1.34795
1.17894
1.2279
0.435671
0.889643
1.19086
1.32274
1.40743
0.419187
0.381858
0.258578
0.10467
1.76184
1.48027
1.11409
0.401286
0.11661
1.03943
1.05283
1.06475
1.0861
1.10346
1.18268
1.20315
1.21388
1.20681
1.11862
0.279818
0.614395
1.05572
1.04565
1.06396
1.07717
1.09698
1.12301
1.16302
1.20072
1.23307
1.22318
0.943385
0.656077
1.04306
1.07024
1.06933
1.08401
1.10192
1.12294
1.13243
1.13954
1.15074
1.08136
0.948694
0.766655
1.05372
1.0632
1.07904
1.0773
1.09366
1.10242
1.10719
1.09782
1.08933
0.99975
0.941647
0.803414
1.05926
1.0642
1.07096
1.07527
1.08381
1.08146
1.06931
1.0592
1.04115
0.988567
0.902039
0.844287
1.06363
1.06521
1.06783
1.0682
1.05593
1.06497
1.04718
1.03043
1.00551
0.967903
0.910647
0.875607
1.06528
1.06268
1.06313
1.06082
1.06338
1.02991
1.04171
1.01833
1.00103
0.953516
0.924003
0.890747
1.06418
1.06024
1.05691
1.04914
1.0497
1.04143
0.993826
1.01092
0.985026
0.951913
0.918131
0.895698
1.06182
1.05403
1.05158
1.04283
1.04032
1.03173
1.01796
0.961042
0.960579
0.952285
0.93554
0.920635
1.0579
1.05098
1.04464
1.03333
1.03053
1.01797
1.0083
0.985768
0.951528
0.959314
0.94352
0.923144
1.05276
1.04278
1.03968
1.02804
1.02268
1.0088
1.00254
0.985811
0.971152
0.947137
0.947548
0.939445
1.04882
1.04159
1.03579
1.02404
1.01749
1.00528
0.991945
0.976249
0.967446
0.956957
0.9486
0.947152
1.04148
1.03588
1.02982
1.01887
1.01411
1.00255
0.991772
0.983777
0.968807
0.965118
0.955169
1.03535
1.02942
1.02614
1.01628
1.01036
1.00044
0.990722
0.98375
0.971323
0.965664
0.957451
0.9534
1.03255
1.02738
1.02178
1.01312
1.00868
0.999226
0.989515
0.979034
0.974246
0.96813
0.963268
0.959414
1.02869
1.02216
1.01887
1.01147
1.00645
0.998533
0.990646
0.985412
0.976063
0.971926
0.968041
0.965691
1.02285
1.01805
1.01598
1.00879
1.00511
0.997999
0.990571
0.982906
0.979564
0.975513
0.972229
0.969365
1.02146
1.01657
1.01382
1.00755
1.00415
0.997885
0.991838
0.987826
0.98216
0.980716
0.976571
0.97411
1.01674
1.01457
1.01129
1.00835
1.002
0.998045
0.992978
0.989547
0.984354
0.981531
0.97808
0.976601
1.01351
1.0116
1.00928
1.0063
1.00154
0.998758
0.99347
0.988001
0.986229
0.983499
0.981433
0.979882
1.00984
1.00912
1.00691
1.0052
1.00113
0.998543
0.994303
0.991759
0.987764
0.985838
0.984067
0.982979
1.00919
1.00777
1.00599
1.00391
1.00167
0.998171
0.993828
0.992202
0.989957
0.987985
0.986408
0.985231
1.00699
1.00577
1.0044
1.00255
1.00115
0.998057
0.996228
0.993333
0.992092
0.990124
0.988662
0.987516
1.0061
1.00559
1.00434
1.00263
1.00102
0.998695
0.996017
0.99487
0.992436
0.990831
0.989399
0.988649
1.00466
1.00427
1.00317
1.00219
1.0008
0.998553
0.997234
0.994911
0.99356
0.992475
0.990912
0.990149
1.00328
1.00314
1.00292
1.00156
1.00059
0.998705
0.997567
0.995961
0.994083
0.992855
0.992162
0.991361
1.003
1.00297
1.00245
1.00132
1.00049
0.998814
0.997801
0.996253
0.994564
0.993754
0.992461
0.992027
1.00275
1.00271
1.0022
1.0012
1.00043
0.998848
0.997917
0.996308
0.9949
0.994097
0.993039
0.992579
1.22776
1.31118
1.32638
1.35908
1.41179
1.43751
1.55205
1.61797
1.68726
1.77166
1.87572
1.98951
2.13814
2.44368
0.987123
1.02937
1.06115
1.16142
1.18927
1.00164
1.00306
1.00659
1.01343
1.02149
1.03619
1.05475
1.06989
1.08038
1.06256
1.0397
0.983611
0.992472
0.994402
0.996957
1.00058
1.00261
0.362351
0.391152
0.582238
0.773138
0.85676
0.911511
0.934148
0.951349
0.967166
0.975774
0.982205
0.986928
0.990219
0.991849
1.08104
0.888806
0.519412
0.51797
0.419537
0.33453
0.31366
0.425905
0.248488
0.249123
0.251292
0.255074
0.264439
0.28415
0.301335
0.319875
0.320325
3.10786
2.80796
2.70538
2.71441
2.95535
2.68083
2.88186
2.7127
2.4635
2.4973
2.26056
2.02452
1.89586
1.81057
1.62283
1.49486
1.33441
1.166
1.03724
0.836178
0.741618
0.51419
0.454441
0.360074
0.986931
1.0362
0.151854
0.138086
0.26602
0.505714
0.4457
0.715302
0.624578
0.877831
0.751007
0.368481
0.349357
1.20513
0.646723
0.359158
0.466315
1.2846
1.34388
1.37668
1.46662
2.33009
1.51502
1.51625
0.253086
0.268848
1.24656
1.26711
1.24673
1.29764
1.34185
1.31171
1.39387
1.35895
1.46368
1.42573
1.56723
1.58772
1.64597
1.64831
1.72604
1.7262
1.82009
1.81875
1.93211
1.93113
2.38575
2.0419
1.90089
2.23991
2.53709
2.42158
0.388094
0.287857
0.280437
0.29555
0.292012
0.259286
0.251757
0.246664
0.268393
0.249427
0.251326
0.305847
0.259906
0.294973
0.275662
0.30949
0.292021
0.354868
0.310145
0.346325
0.329449
0.338805
0.871981
0.782288
0.590923
0.711747
0.457259
0.388051
2.80426
2.36662
2.10621
2.01949
1.96141
1.26351
0.673871
0.19239
2.66099
2.9932
0.388165
0.539771
0.339825
0.23803
1.33166
0.888621
0.615594
0.698795
2.44013
2.62615
0.947373
0.511432
2.37546
2.13793
2.98754
2.69257
0.218179
0.314753
0.804258
0.617022
2.61027
2.3526
1.00027
0.83838
0.5693
0.644211
0.318121
0.427385
1.00081
2.72751
1.07343
0.964273
0.632472
0.794222
0.338786
0.343951
1.94017
2.14655
1.34615
1.65486
0.842746
0.26994
0.269044
0.489353
0.431976
0.662772
0.537968
0.717366
0.59672
1.63299
1.49644
3.02658
2.40971
2.44731
2.22924
1.82962
1.71408
2.60725
2.55165
0.426136
0.385484
1.17467
1.20114
0.538346
0.412342
1.13972
1.17776
0.551076
0.476869
1.11021
1.16571
2.23182
2.07453
0.268288
0.270615
0.36301
0.613667
0.318418
0.284641
0.241661
0.294716
0.337863
0.338283
0.361232
1.34304
1.29388
1.40092
1.32603
1.42393
1.37838
1.50983
1.56488
1.25449
1.28517
1.29954
1.32809
1.60479
1.60355
1.68046
1.67883
1.65779
1.76599
1.86386
1.99602
1.98475
2.05315
0.346268
0.426103
0.337476
0.362251
2.39085
0.362141
0.300975
0.327187
0.800542
0.260337
0.275817
0.259067
0.301698
0.300243
0.271993
0.308269
0.379996
1.22948
1.22935
1.3572
1.18689
2.31024
2.69783
1.02644
0.49017
2.53327
2.14053
0.500692
0.290396
2.69274
1.97148
1.77958
0.713301
0.809927
0.760857
2.24967
1.87263
0.365382
0.292224
0.409934
0.442188
1.76609
1.09256
1.59437
1.89536
1.21563
0.946739
0.92132
0.932269
0.839256
0.656495
2.38098
2.37595
2.22718
2.03891
0.583712
0.84177
0.795406
0.306632
0.409921
1.62314
1.47142
0.547519
0.498257
0.477778
0.560048
0.529139
0.392466
0.440779
0.383871
0.388278
1.95937
2.04431
0.571171
0.498831
1.68168
1.58009
0.81283
0.599378
2.20868
2.21938
0.377621
0.412026
1.22945
1.20075
0.636415
0.47802
1.1454
1.20651
0.498984
0.641166
1.12251
1.10238
1.2566
0.353831
0.360109
0.431828
0.46922
1.80721
0.31364
0.294352
0.332976
0.266817
0.42451
0.277187
0.348454
1.60092
1.62906
1.71545
1.71289
1.86532
1.76768
0.369023
0.343805
0.301484
0.328047
0.277582
0.27865
0.395966
0.475835
2.17472
1.28374
1.27627
1.37662
0.321844
0.332086
1.36066
1.30988
1.39776
1.29253
1.37583
0.30546
0.281457
1.21961
1.05477
1.36983
1.39243
0.628455
0.612021
0.506225
2.17745
2.43836
0.657628
2.38332
2.11132
2.43902
0.597801
0.541758
2.3049
2.04736
2.1734
2.0093
2.05652
2.21903
1.88725
2.14179
0.498421
0.456815
0.455719
0.451083
0.462007
0.509925
0.425732
0.498229
0.416098
0.454863
1.80164
2.04863
0.431504
0.620706
0.471763
0.582759
1.88896
1.94878
0.533699
0.543438
0.613055
0.700818
0.70721
0.77639
1.03578
0.745406
1.15448
1.13255
0.86088
0.653765
0.965612
0.868343
1.65798
1.84397
1.47591
1.73514
1.42288
1.50887
1.57301
1.61853
0.396878
0.41856
1.20636
1.23507
0.508932
0.469614
1.18466
1.2396
0.625743
0.476572
1.14644
1.17097
1.25339
1.26487
0.365325
0.309438
1.36809
1.4003
0.396627
1.85403
1.92335
0.407813
0.537825
0.308298
0.339695
0.322796
1.56935
1.77356
0.375428
0.381578
1.58716
1.50806
1.63298
1.57692
1.85532
1.7456
0.472693
0.40655
0.381958
0.333137
0.303439
0.314962
1.90204
1.81033
1.31302
1.25834
1.32685
1.41783
0.346028
1.27421
1.32895
1.30938
1.34608
0.322979
0.35431
1.27346
1.06033
1.39708
1.30834
1.76458
1.63851
1.48597
1.71116
2.11565
1.82452
1.70513
1.81627
1.83622
1.73955
1.87675
2.17535
2.01812
1.95204
0.531231
0.499257
0.480374
0.511863
0.463432
0.530448
1.96945
0.511791
0.501921
0.668427
0.540501
1.08393
1.03843
1.01333
0.951173
2.12173
0.448259
0.467275
0.571999
0.47091
0.943681
0.802191
2.10848
0.658256
0.727113
0.636529
0.72193
0.859025
0.794682
0.733275
0.596675
1.38321
1.52403
1.56863
1.49642
1.32997
1.15703
0.411449
0.409723
0.427889
0.452086
1.22351
1.24772
0.469195
0.5822
1.21512
1.18376
0.651348
0.551047
1.36615
0.408544
1.45436
0.320489
0.379216
0.353625
0.313507
1.80953
1.91866
1.67789
1.69504
1.4521
1.77306
1.51211
0.387745
0.352244
1.67992
1.5945
1.74641
1.65989
0.418727
0.422036
0.340323
0.471638
0.326177
0.339366
0.323075
0.386061
1.3468
1.39692
1.34878
1.38968
1.29591
1.29926
0.449518
0.36598
0.388066
0.426718
1.2301
1.12221
1.3491
1.42819
1.73039
1.62023
1.56374
1.69025
0.647099
0.572065
0.550829
0.531351
1.05466
0.935924
0.532284
0.675731
1.27702
1.22088
1.90322
1.78827
0.904647
0.849623
1.76953
1.9637
2.06263
1.93446
1.67357
1.76752
2.1227
1.84604
0.405178
0.52053
0.512529
1.1339
0.580778
0.619395
0.497775
0.468906
0.917133
1.55963
0.459545
1.91942
1.29772
1.13361
0.674719
0.78091
0.673127
0.620165
0.849561
0.790805
1.50472
1.61448
1.44433
1.53752
2.00588
1.89656
0.518726
0.462039
1.21624
1.25112
0.546318
0.712908
0.816125
0.702245
1.1574
1.22073
0.484665
1.41944
0.354629
1.61231
0.420101
0.385337
1.36991
0.367511
0.41294
0.426996
0.368679
1.74378
1.78922
1.60289
1.68536
1.53541
1.54399
1.53179
1.46786
1.4816
0.383421
0.38348
0.390811
0.547936
0.388932
0.435718
1.33101
0.444297
0.39617
1.29476
1.37133
0.463758
0.405066
1.215
1.10982
0.473731
1.21073
1.45945
1.64881
1.69746
0.653464
0.626599
1.55643
1.66991
1.41881
1.3794
1.01134
0.594542
0.584853
1.84194
1.60104
0.729673
0.725418
0.465614
0.550904
1.28533
1.20868
1.21731
1.13833
1.68454
1.89068
1.12324
1.78778
1.72365
0.949816
1.97753
1.72017
0.525159
1.86877
1.70516
0.505541
0.507162
2.0391
1.79342
0.954283
0.893842
0.785778
0.705653
1.50924
1.60857
0.452555
0.433577
0.894315
0.841573
0.767986
0.73118
1.46019
1.54685
1.33375
1.25956
0.542449
0.484406
1.31275
1.27966
0.636121
0.536042
1.25376
1.20045
0.896804
0.714749
1.20995
1.24347
0.723731
0.818652
0.467805
1.43688
1.43761
1.41493
1.38758
0.393591
0.40784
0.437036
0.49424
0.406381
1.65285
1.60463
1.54562
0.464387
1.79557
1.48959
0.497186
0.552134
1.35643
1.31953
0.497516
0.445271
0.509391
0.474546
0.709446
0.659217
0.769438
0.72088
1.62624
1.54594
1.64364
1.66553
1.58156
1.74439
1.28071
0.605023
0.60402
1.07436
1.09837
1.21869
1.11823
1.35215
1.33678
1.32182
1.48379
1.25462
1.26276
1.82279
1.74217
0.498
0.562026
1.85461
1.64397
1.76788
1.76377
0.520921
1.04468
1.00095
1.41034
1.3062
1.50883
1.59975
0.830825
0.722819
0.83186
0.947778
1.4701
1.55072
0.89103
0.786435
0.985793
0.921896
1.28497
1.45162
1.26629
1.29025
0.462726
1.87192
1.68114
1.23336
1.25837
0.606108
0.5034
0.643392
0.684184
1.26896
1.19468
0.730781
0.837874
1.15513
1.11311
0.807388
0.727966
1.44561
1.44134
0.524516
0.456489
1.49524
1.40055
1.3492
0.452946
0.4367
1.60834
1.55727
1.50613
0.511736
1.60731
0.49934
0.615682
0.582576
0.554219
1.32315
0.728862
0.789834
0.660057
0.66511
1.53333
1.60231
1.61525
1.56284
1.14162
1.23139
1.59129
1.70494
0.567815
0.61114
1.17333
1.15998
1.31272
1.39356
1.37812
1.74982
1.6584
1.5033
1.58737
1.35897
1.34746
0.856494
0.856681
1.12401
1.08508
0.562796
0.555396
1.44859
1.3007
1.42952
1.50073
1.0664
1.03878
1.34581
1.35943
1.47305
1.54917
0.92213
0.788883
1.00256
0.983889
0.8608
0.854711
1.23213
1.24204
0.480062
0.506316
0.670106
0.797612
0.542608
0.62409
0.51803
0.525692
1.28177
1.28873
1.22384
1.26448
0.610278
0.572628
0.939747
0.764739
1.12626
1.11444
1.25231
1.24208
1.20662
1.28133
0.571467
1.41803
0.501589
1.52348
0.49272
0.491186
1.53747
0.502794
0.585665
1.34237
1.37049
1.30991
1.30449
0.457825
0.508624
0.721879
0.794171
0.564224
0.52638
1.38823
1.3754
0.648644
0.667162
1.49258
1.57915
1.63235
1.54062
1.53195
1.57169
0.864519
0.717095
1.59893
1.66128
1.3271
1.36502
0.616571
1.60649
1.60986
1.22656
1.18754
1.42528
1.40889
1.16727
1.25049
0.546143
0.639273
1.38854
1.51019
1.46881
1.54208
1.46925
1.33313
1.28695
1.29566
1.13814
1.11757
0.936029
0.756769
1.31851
1.31591
1.44188
1.3723
0.933448
1.06557
1.00437
0.851851
1.25504
1.19337
1.0787
1.00487
0.661517
0.83443
1.46467
0.557654
0.595868
0.626707
0.589468
1.30148
1.2597
0.727637
0.934897
1.03915
0.996342
1.27952
1.27307
1.68097
0.61668
0.53143
1.4888
1.40096
0.548007
0.605603
1.55229
1.485
0.648528
1.55376
1.51557
1.34273
0.531245
1.44417
1.48376
1.62982
1.57967
0.784658
1.42007
1.37911
0.778072
0.761555
0.595559
0.681846
1.54748
1.47577
1.49288
1.55374
0.689733
1.35236
1.30737
1.28202
1.29334
1.5081
1.52997
1.40744
1.51268
1.44706
1.3617
1.21456
1.31007
0.933738
0.830546
1.25915
1.20317
1.48142
1.38974
1.24927
1.28593
1.50285
1.42066
1.48585
1.42144
1.14627
1.13906
1.00952
1.00389
1.07466
1.07756
0.991696
0.929378
0.689063
0.624665
1.28253
1.35582
0.72041
0.653537
1.27953
1.40755
0.757153
0.686921
1.25343
1.41323
0.860769
0.895519
1.15286
0.903621
1.16186
1.26807
0.687752
1.42649
1.38145
0.580392
1.52123
1.34912
1.47699
1.48099
1.43196
1.50722
0.744688
0.727545
0.686554
1.32697
1.32963
1.49699
1.51323
0.915015
0.690174
1.45966
1.44068
1.3978
1.34061
1.55398
1.46666
1.43867
1.38103
1.43197
0.637705
1.20372
1.24877
0.695915
0.668571
0.910265
0.879387
1.37777
1.30951
1.2039
1.20209
1.46548
1.44575
1.4049
1.46104
1.3862
1.2821
0.998562
0.892884
1.14362
1.14275
1.06927
1.04795
1.33999
1.33026
0.661583
0.669046
1.29029
1.4269
0.798832
0.792365
1.26209
1.3182
0.999917
0.924287
1.0525
1.13672
1.31865
1.29771
1.19215
1.22317
1.44099
1.40661
0.801639
0.728961
1.44112
1.39907
0.771808
0.881753
1.43312
1.49224
1.32885
1.34699
1.44577
1.37289
1.51897
1.47005
1.47775
1.45864
0.709557
0.754893
1.42269
1.41746
0.967742
0.860558
1.4039
1.3188
1.25171
1.29104
1.46144
1.48195
1.40676
1.44777
1.30439
1.25884
1.36244
1.33762
1.4243
1.40945
1.05907
1.00668
1.19577
1.13731
0.770497
0.711232
1.32814
1.32443
0.986109
0.855948
0.963029
1.01909
1.35292
1.31452
0.959548
1.23517
1.06548
1.06482
1.02285
0.957063
1.24749
1.28839
1.48045
1.43317
1.46712
1.37695
1.36655
1.39505
1.24819
1.36641
1.4511
1.43189
0.759106
0.854753
0.766136
0.697287
1.39785
1.47025
1.37096
1.35481
1.42428
1.38089
1.25339
1.30094
0.834371
0.919072
0.83265
0.833418
1.44842
1.41727
1.30705
1.28327
1.09901
1.17625
1.17388
1.19113
0.893527
0.920091
0.864243
0.785905
0.896235
0.86909
1.29959
1.29848
1.41749
1.35032
1.19333
1.12526
0.919854
1.02521
1.01716
1.05336
0.826589
0.927754
1.16656
1.13382
1.07545
1.07822
0.693403
0.656826
0.782644
0.879498
1.41031
1.45717
0.743608
0.793231
1.43137
1.45344
1.33007
1.39426
1.35094
1.41178
1.37727
1.44971
1.43884
1.36277
1.12054
1.0987
1.29425
1.33936
1.40802
1.41657
0.949317
0.954035
1.25324
1.1958
1.42633
1.44389
1.02397
1.03411
1.36343
1.41557
1.34952
1.37933
1.11321
1.04821
1.12962
1.19566
1.13096
1.08324
0.923618
0.954727
1.39684
1.39316
1.28765
1.40816
1.38725
1.39068
1.24528
1.29826
1.34502
1.33055
1.3595
1.42697
1.39151
1.3469
1.34903
1.43158
1.34566
1.36884
1.24336
1.20004
1.39012
1.32431
1.37167
1.37514
1.36001
1.34033
1.31987
1.31584
1.35529
1.35345
1.26601
1.30813
1.41672
1.39039
1.33199
1.28687
1.3153
1.33842
1.3981
1.33196
1.27909
1.28216
1.34493
1.33782
1.22301
1.24947
1.31938
1.3336
1.34609
1.29403
1.31817
1.27335
1.29339
1.26068
1.35435
1.35347
1.21184
1.22603
1.29114
1.25103
1.21845
1.23784
1.1557
1.19848
1.19923
1.14173
1.11072
1.09593
1.27089
1.25962
1.20563
1.18984
0.998012
0.947378
1.07608
1.08007
1.20516
1.22905
0.812007
0.742337
0.993621
0.993153
0.994554
0.993703
0.997148
0.995963
1.00083
0.999852
1.00241
1.00196
1.0025
1.00235
1.04054
1.03242
1.01592
1.01307
1.00966
1.00862
1.00433
1.00419
1.00229
1.00267
1.01895
1.00214
1.06909
1.06603
1.07384
1.058
1.04693
1.04255
1.07159
1.0677
1.04421
1.03101
0.826494
0.842583
0.737195
0.653381
0.904892
0.914579
0.928209
0.930854
0.977832
0.979133
0.983343
0.984276
0.989214
0.989724
0.991392
0.991828
0.966
0.967549
0.955417
0.957571
0.746595
0.693934
1.03443
1.04207
1.05073
1.04845
1.02063
1.02788
1.02154
1.02249
0.997469
0.994681
1.05027
1.07452
1.00231
1.00218
1.19903
1.15553
0.858656
0.792678
1.01135
1.06756
1.0511
1.0669
1.1934
1.24533
1.1311
1.19019
1.21796
1.15005
1.24615
1.24379
0.994935
0.995724
0.997494
0.997914
1.00109
1.00137
1.01846
1.01967
1.01166
1.01259
1.00538
1.00566
1.03127
1.02977
1.00278
1.00393
1.01189
1.02141
1.04807
1.04968
1.07005
1.07017
1.07008
1.06972
1.06022
1.04774
1.04547
1.04202
1.06069
1.06032
1.06019
1.0565
0.996267
0.986368
0.890342
0.887962
0.802031
0.842726
0.974996
0.977438
0.981544
0.983407
0.992241
0.992137
0.939473
0.940034
0.925941
0.92257
0.877056
0.876642
0.949967
0.954885
1.03716
1.03371
0.981809
0.931948
1.05902
1.04528
1.00094
0.999801
0.994274
0.993466
0.993372
0.992933
1.04039
1.02691
1.02956
1.01527
1.01456
0.994619
1.00243
1.00271
1.00263
1.00251
1.00243
1.00164
1.08055
1.05692
0.9969
0.995681
0.987847
0.988917
1.00761
1.00745
0.970212
0.972504
1.00222
1.0025
0.985651
0.986649
0.990733
0.991324
0.961786
0.966125
1.02832
1.01256
0.96042
0.957924
0.970063
0.968708
0.980078
0.978777
0.98545
0.984511
0.990011
0.989731
1.02969
1.05145
0.872485
0.877712
1.07076
1.06161
0.919027
0.919034
1.06674
1.05285
0.941157
0.938871
1.04684
1.03604
1.03907
1.02821
1.0164
1.01091
1.01072
1.00773
1.0054
1.00396
0.991924
0.991833
1.0034
1.0029
1.0617
1.06462
0.999634
0.998878
0.992774
0.992879
1.02025
0.960915
1.12132
1.07309
1.1459
1.18181
1.12274
1.14514
1.17006
1.19192
0.862588
0.880775
0.924186
0.898053
1.06059
1.07791
1.08205
1.06025
1.00107
0.999747
0.993776
0.993067
0.992986
0.992411
0.998347
0.997101
0.995511
0.994413
1.03534
1.03426
1.05542
1.04716
1.06336
1.06657
1.05879
1.06698
1.04983
1.05693
1.03482
1.04162
1.02525
1.0311
1.01128
1.01179
1.00726
1.00812
1.00388
1.00374
1.03876
1.02472
1.05297
1.03836
1.05763
1.06268
1.05575
1.04269
1.01813
1.0143
1.00627
1.00524
1.00347
1.00251
1.00292
1.00206
1.10978
1.08099
1.00187
1.00069
0.999601
0.998358
0.964594
0.963291
0.972898
0.972837
0.982082
0.981746
0.986829
0.986928
0.990851
0.991043
0.992259
0.992453
0.937183
0.930478
0.914521
0.909136
0.844865
0.837179
0.87727
0.896474
0.955314
0.95387
0.977107
0.976787
0.988831
0.988689
0.996644
0.995365
1.04782
1.03347
0.963917
0.963069
0.972164
0.971872
0.981585
0.980881
0.986329
0.986064
0.990733
0.990776
1.06214
1.05186
1.06191
1.05756
0.933873
0.937587
1.05536
1.04613
0.946922
0.949019
0.946061
0.947003
1.04125
1.03099
1.03112
1.023
1.01431
1.0091
1.00941
1.00611
1.0051
1.00354
1.06356
1.06578
1.05555
1.02301
1.14553
1.10019
1.18668
1.19823
0.960384
0.94595
1.06853
1.0673
1.01818
1.02638
1.05489
1.06101
1.02569
1.03595
1.04123
1.05051
0.938467
0.886122
1.0679
1.05568
0.941616
0.931968
0.9535
0.954869
0.943106
0.936794
0.96835
0.967589
0.975818
0.975772
0.984203
0.983627
0.988176
0.98828
0.991574
0.991844
0.941918
0.917801
1.10003
1.08232
0.912483
0.924978
0.96252
0.956563
0.979978
0.977592
0.990153
0.989018
1.00134
0.999726
0.993475
0.992735
0.998206
0.996857
0.995178
0.994181
1.06765
1.05634
1.03994
1.0525
1.06205
1.06428
1.0518
1.05858
1.03967
1.05021
1.02667
1.03359
1.01883
1.02557
1.02265
1.0269
1.00879
1.00997
1.00613
1.00731
1.00289
1.00371
1.06519
1.049
1.05862
1.06718
1.04802
1.03684
1.02254
1.019
1.01845
1.01157
1.00656
1.00433
1.00353
1.00223
1.00188
1.00076
0.999567
0.998261
0.996294
0.994796
0.955606
0.960263
1.05883
1.07398
0.967608
0.969478
0.975255
0.975534
0.983148
0.983759
0.987741
0.987801
0.9914
0.992159
1.01168
1.00678
1.00776
1.00422
1.00439
1.00228
1.16457
1.18469
1.07058
1.02567
0.968087
0.995308
0.956917
0.964472
0.987542
0.985361
0.980399
0.978803
1.00408
1.00894
0.976174
0.972692
1.09078
1.07388
0.973945
0.96506
0.951007
0.951834
1.07535
1.06492
1.08137
1.06276
0.964647
0.94205
1.01613
1.02297
1.06389
1.06497
1.02252
1.03087
1.0493
1.05629
1.03613
1.04537
1.12142
1.10241
0.971851
0.943425
1.03189
1.0387
1.07499
1.06786
1.08155
1.08204
0.960802
0.97496
1.0718
1.07278
1.01391
1.0211
1.0562
1.05969
1.02053
1.0294
1.04146
1.04562
0.960442
0.96354
0.971676
0.972554
0.978539
0.978905
0.98566
0.985725
0.989423
0.989944
1.10624
1.093
0.968632
0.962985
0.982369
0.980179
0.991648
0.99028
1.00172
0.999742
0.997975
0.996496
0.99462
0.993617
1.016
1.02225
1.00532
1.00836
1.00425
1.006
1.01891
1.01426
1.01442
1.00861
1.00548
1.00305
1.00213
1.00088
0.999535
0.998064
0.995799
0.994421
0.989429
0.990164
0.993016
0.993975
1.00564
1.0022
1.00316
1.00108
1.02849
1.02676
1.16106
1.13007
1.01374
1.01627
1.07194
1.07733
1.02053
1.02433
1.04839
1.05627
1.03004
1.03806
1.04413
1.03755
1.06339
1.05505
1.02552
1.01441
1.08296
1.07515
1.01811
1.00907
1.15963
1.16116
1.10188
1.05272
0.943535
0.993134
0.999905
1.00319
0.993515
0.991394
1.01337
1.01983
0.986191
0.983345
1.00375
1.00716
0.975982
0.969816
1.1327
1.11338
0.97492
0.96844
0.97968
0.975781
0.983898
0.981943
0.988824
0.987583
1.00522
1.01046
1.01178
1.0157
1.09105
1.09248
0.987562
0.988054
1.00131
1.00524
0.984976
0.98268
0.983177
0.978518
0.982978
0.974886
1.0254
0.986977
0.907737
0.869658
0.991008
0.991753
1.1018
1.09457
0.981685
0.962518
1.00158
0.999854
0.993351
0.991812
0.997487
0.996042
1.00139
1.00398
1.09448
1.07873
1.00391
1.00151
0.999482
0.997816
0.995087
0.993575
1.07875
1.08134
1.04881
1.05723
1.02733
1.03693
1.00102
1.00166
0.989347
0.986818
0.988605
0.984882
0.993344
0.985481
0.984946
0.984386
0.984382
0.984279
0.987372
0.986389
1.00387
0.999196
1.12275
1.14364
1.15005
1.17557
0.966973
1.03744
0.997231
0.995471
1.00002
1.00259
0.9939
0.975126
1.11763
1.11187
0.994305
0.993078
0.999763
1
0.993601
0.99374
1.00927
1.01751
1.00425
1.01086
1.08764
1.09409
0.973935
1.00891
0.980772
0.973042
1.00311
0.999709
1.06141
1.06575
1.0403
1.05035
1.02396
1.03672
1.01214
1.02246
1.00832
1.01536
1.08475
1.08506
1.03205
1.01991
1.01118
1.00572
0.999613
0.997488
0.993156
0.989495
0.96622
0.990834
0.994366
0.990051
0.994814
0.988891
1.00071
0.991172
0.986186
1.00202
0.995999
0.993011
1.00254
1.00889
1.00588
1.01417
1.06271
1.07006
1.03754
1.04635
1.01842
1.02885
1.09997
1.10433
1.02487
0.999302
1.01288
1.02211
1.00088
1.00569
0.996305
0.999355
0.99824
0.984033
1.05867
1.00871
1.14442
1.1323
0.996123
0.999157
1.00502
0.999283
0.996386
0.994611
1.00577
1.01347
0.999481
0.997099
0.975727
0.989183
0.980292
0.988314
0.984984
0.990002
0.988892
0.976894
0.991378
0.991129
0.986535
0.990183
0.996652
0.995554
0.996328
0.997596
1.14576
1.11299
0.995231
0.991236
1.00158
1.00869
0.9965
0.988569
0.998463
0.989992
0.994849
0.989053
0.994803
0.990285
0.995399
1.00075
0.995769
0.992675
1.02771
1.00379
1.00997
0.994859
1.0501
1.03879
1.02731
1.01314
1.00923
0.998703
1.00405
0.995178
1.08173
1.07302
1.02889
1.01965
1.14392
1.13448
1.00018
1.0219
1.03045
1.0488
1.01855
1.00527
0.99531
0.995321
1.03042
1.03815
0.996793
1.00575
0.995203
1.00227
1.01305
1.001
1.00055
0.995141
0.99474
1.00129
1.05274
1.06946
1.01456
1.00648
1.1395
1.11185
1.10466
1.09792
0.985651
0.987153
0.98605
0.986892
0.987549
0.988835
0.991184
0.992304
0.995587
0.996649
0.997491
0.999579
1.00006
1.0004
1.0001
0.999565
0.999576
1.00013
1.00121
1.00364
1.00384
1.0056
1.00334
1.00296
0.997949
0.992676
0.984954
0.97313
0.963493
0.94776
0.933388
0.917959
0.926031
0.928779
0.933997
0.950054
0.962263
0.971357
0.980774
0.986222
0.992539
0.998665
1.00002
1.00162
1.00108
1.00133
1.00106
1.00077
1.00176
0.895905
0.909192
0.920443
0.933936
0.939014
0.965563
0.986396
1.00532
1.01826
1.03224
1.03466
1.04582
1.04875
1.05806
1.06547
1.07508
1.07769
1.06948
1.06985
1.06315
1.06372
1.06873
1.0843
1.11145
1.13909
1.16496
1.20369
1.20153
1.23938
1.39385
1.58796
2.59324
1.59633
0.26902
0.27825
0.418427
0.734006
0.753768
0.801786
0.855909
0.879656
0.900382
0.908719
0.905005
0.940907
0.94252
0.957038
0.964995
0.975309
0.981918
0.988962
0.9942
0.996752
0.999913
1.00003
1.00078
0.999966
1.00034
1.0007
0.94923
0.945935
0.95939
0.970813
0.977315
0.984795
0.990259
0.994708
0.996392
0.99818
0.999007
0.998819
0.999383
0.999952
0.954384
0.958145
0.966093
0.973208
0.981223
0.986927
0.991066
0.994749
0.996083
0.997802
0.998272
0.998362
0.99954
0.962269
0.962128
0.970603
0.978224
0.984114
0.987887
0.991441
0.994519
0.995585
0.997272
0.997385
0.997822
0.96754
0.970245
0.975994
0.981788
0.985429
0.98912
0.992487
0.994294
0.994802
0.996325
0.996699
0.9724
0.973916
0.980312
0.983421
0.987926
0.990011
0.992586
0.99426
0.994467
0.995606
0.977144
0.975621
0.981617
0.986484
0.988332
0.990934
0.992612
0.993056
0.993324
0.9796
0.981841
0.984856
0.987458
0.990084
0.990959
0.992202
0.991736
0.983877
0.983147
0.986719
0.989308
0.990363
0.990109
0.990626
0.985438
0.986933
0.988616
0.988658
0.989548
0.989298
0.987458
0.987507
0.988385
0.989205
0.987973
0.987452
0.987745
0.986212
0.988068
0.99995
1.00101
1.00166
1.00485
1.00765
1.00663
1.00666
1.0035
0.999805
0.990686
0.983705
0.971072
0.957534
0.947555
0.929547
1.00286
1.00489
1.00834
1.00901
1.01022
1.00931
1.00527
0.999119
0.988758
0.978996
0.972636
0.953852
0.944909
1.00754
1.00708
1.01098
1.01322
1.01274
1.01159
1.00598
1.00042
0.991044
0.98143
0.973326
0.95527
1.01053
1.01362
1.0157
1.01748
1.014
1.01294
1.01131
1.00592
0.998899
0.991907
0.964356
1.0148
1.01634
1.02092
1.01949
1.02056
1.01671
1.01595
1.00546
1.00317
0.982493
1.02176
1.01791
1.02328
1.02457
1.02469
1.02507
1.0156
1.01408
0.995617
1.02566
1.03046
1.03023
1.02658
1.02903
1.02461
1.02297
1.01288
1.03584
1.0307
1.03434
1.03484
1.03479
1.02966
1.02213
1.04083
1.03923
1.0407
1.03913
1.03973
1.03671
1.04426
1.04506
1.04769
1.04201
1.03717
1.05809
1.04735
1.05074
1.0458
1.0617
1.05766
1.0518
1.06235
1.06877
1.06855
1.06366
1.06326
1.07179
1.09171
1.10634
1.10417
1.11297
1.09134
1.16018
1.06709
1.06485
1.05902
1.06267
1.06813
1.07483
1.08661
1.07799
1.0755
1.07233
1.0611
1.06282
1.0536
1.05205
1.06084
1.06488
1.05379
1.05142
1.04947
1.06272
1.04767
1.04153
1.04218
1.04374
1.04862
1.03371
1.03876
1.03859
1.02801
1.02682
1.03645
1.03573
1.02605
1.03016
1.03802
1.01025
1.02039
1.02015
1.02775
1.02817
1.00506
1.00343
1.01287
1.02225
1.02284
1.00229
0.972112
1.00241
1.01056
0.983792
0.987445
0.996535
0.962873
0.890565
0.863062
0.922651
0.895696
0.190838
1.22658
1.12257
1.16048
1.11454
1.0915
1.07265
1.06092
1.04968
1.04867
1.05112
1.0541
1.05644
1.0512
1.28128
1.26907
1.40158
1.3382
1.56982
1.89745
1.7636
1.19966
1.19607
1.26338
1.27032
1.1983
1.23908
1.19324
1.2218
1.19555
1.20286
1.13218
1.13123
1.13368
1.11949
1.11615
1.21881
1.15746
1.15845
1.12156
1.08848
1.06257
1.05557
1.03675
1.02116
1.01509
1.03087
1.03751
1.05282
1.06963
1.09711
1.13583
1.22611
1.24794
1.38266
1.28167
0.49091
0.702292
0.693288
0.75145
0.805392
0.825643
0.866514
0.912347
0.91663
0.923376
0.952235
0.984204
1.00747
1.02833
1.03742
1.04394
1.05045
1.04606
1.05434
1.05421
1.03888
1.01992
0.994973
0.957185
0.918169
0.966254
0.938861
0.764303
1.00833
0.955319
1.05432
1.09917
1.09912
1.06525
1.07621
1.0065
0.96989
0.919881
0.908161
0.89632
0.91017
0.965058
0.991106
0.963671
0.989537
1.00812
0.965445
1.29551
1.20507
1.18518
1.13984
1.12052
1.16703
1.10008
1.08423
1.05884
1.04768
1.03833
0.246823
0.759571
1.12786
1.1366
1.1158
1.11604
1.10397
1.1284
1.08461
1.06662
1.05873
1.05031
0.702136
0.358406
0.8657
0.973037
0.930489
1.14595
1.11224
1.08558
1.06968
1.06066
1.05733
1.05965
1.06775
1.06193
1.06341
1.06305
1.06867
1.08375
1.0973
1.10546
1.08989
1.0732
1.06022
1.05422
0.580763
0.822711
0.979262
0.919905
1.06713
1.01851
1.04823
1.06846
1.09087
1.11129
1.08179
1.07039
1.05949
1.05869
1.07541
1.07009
1.06876
1.06434
1.06235
0.773756
0.863101
0.999896
1.02461
1.04907
1.04831
1.07692
1.08192
1.08056
1.06273
1.06443
1.06434
1.06246
0.766859
1.00529
1.06469
1.05869
1.05963
1.06068
1.06461
0.868379
0.987953
0.990538
1.00881
1.01567
1.0284
1.03662
1.03965
1.05008
1.05459
0.935363
0.952244
0.983452
1.00287
1.01822
1.03378
1.04187
1.04167
0.939926
0.934942
0.947273
0.958047
0.974369
0.992577
1.00094
1.01642
1.01941
1.02779
1.03644
1.04328
1.05016
0.956167
0.949164
0.964428
0.971711
0.989467
1.00081
1.01131
1.01897
1.02677
1.03064
1.03633
1.04087
0.950145
0.969574
0.966157
0.973579
0.984001
0.996469
1.00416
1.01289
1.01937
1.02586
1.02955
1.03579
0.958636
0.964767
0.976639
0.976841
0.981081
0.990119
1.00068
1.00886
1.01405
1.02148
1.02828
1.03304
0.961539
0.966071
0.971502
0.985102
0.985623
0.993358
1.00054
1.00858
1.01266
1.0162
1.02067
1.02462
0.968124
0.972714
0.976777
0.98186
0.992204
0.989764
0.999502
1.00522
1.01011
1.01534
1.01977
1.02307
0.970949
0.973758
0.97729
0.981943
0.986345
0.999488
1.00021
1.00347
1.00694
1.01061
1.01362
1.0158
0.976624
0.978464
0.981374
0.98473
0.988616
0.992803
1.00115
1.00057
1.00426
1.0071
1.00958
1.01094
0.981224
0.983232
0.985192
0.987651
0.99069
0.994288
0.998563
1.00313
1.0012
1.00689
1.00909
1.00971
0.982406
0.983697
0.985553
0.987911
0.990948
0.993878
0.996647
0.999332
1.00321
1.00346
1.00485
1.00573
0.985282
0.98726
0.988658
0.989682
0.991541
0.994354
0.996164
0.999108
1.00111
1.00314
1.00184
1.00475
0.986022
0.98702
0.988369
0.989627
0.992013
0.994193
0.995687
0.997163
0.999851
1.00048
0.987348
0.988412
0.989092
0.990285
0.991892
0.99388
0.995217
0.996548
0.998873
0.999933
1.00095
1.01081
1.01268
1.02958
1.04078
1.03839
1.0555
1.08845
1.16987
0.863043
0.367159
0.33636
0.317226
0.276895
0.269124
0.255433
0.25027
0.248177
0.259865
0.269824
0.336762
0.361009
0.416357
0.447525
0.82033
0.986983
0.986688
0.983252
0.974338
0.963631
0.943286
0.919757
0.882119
0.812551
0.670633
0.430733
0.388475
1.00014
0.998759
0.993804
0.991116
0.987874
0.968687
1.01456
1.05299
1.07631
1.07189
1.05149
1.03118
1.01744
1.00724
0.999929
1.01131
1.03832
1.09516
1.18763
1.20789
1.29805
1.31178
1.42358
1.37831
1.41162
1.46651
1.55215
1.61812
1.68753
1.77203
1.87469
1.99121
2.13843
2.32969
2.80521
3.11378
1.07674
0.896591
0.807025
1.00729
0.803556
0.881073
0.700897
0.807663
0.447373
0.508212
0.346056
0.391059
0.10442
0.216982
0.31716
0.359292
0.673125
0.743105
0.89039
1.16814
1.18854
1.3338
1.48195
1.81213
2.54216
2.108
2.0259
2.14758
2.49863
2.3673
2.6119
2.81118
2.62676
2.68196
1.2298
1.2366
0.257669
0.245948
0.653979
0.731741
0.386221
0.349245
0.302829
0.330639
0.294342
0.292273
0.270096
0.261956
0.282092
0.252661
0.29751
0.365036
0.496112
0.387212
0.548981
0.47816
1.34193
1.46368
1.35893
1.3766
1.64858
1.50988
1.24293
1.27251
1.28587
1.28358
1.29679
1.35933
1.32653
1.43751
1.48998
1.51637
1.51524
1.72635
1.56783
1.81524
1.64649
1.93206
1.72686
2.04462
2.00849
2.22547
2.05421
2.44835
2.7426
3.06503
2.90037
0.308355
0.301905
0.284498
0.258364
0.248117
0.245854
0.262207
0.289343
0.303195
0.315518
0.39439
0.612025
0.519676
0.596396
1.65631
1.87289
0.513323
0.719471
1.9409
1.96314
0.617679
0.140087
2.71552
2.37879
0.154375
0.293261
2.26145
2.24619
1.00173
1.33604
2.90369
3.01214
0.947125
0.541254
2.37683
2.4638
0.841682
0.836265
0.454273
0.11648
0.995156
0.645501
0.718114
0.570419
0.829334
2.94689
0.626039
0.498344
0.819061
0.755157
2.13918
2.04482
1.49659
1.35855
2.44741
2.55061
1.4976
1.62461
1.03656
0.638282
0.269902
0.291141
0.240365
0.340285
0.663938
0.597073
0.765407
0.715598
0.366489
0.411682
2.25053
2.30888
1.63454
1.83097
2.60503
1.82347
0.93403
1.03895
0.414347
0.379673
1.1833
1.20258
0.480777
0.479985
1.17733
1.17309
0.495269
0.5507
1.14842
1.13758
0.544223
0.442823
0.295906
0.257048
0.277148
0.346236
0.320923
0.362956
0.423456
0.318027
0.330938
0.263474
0.274361
0.268814
0.292998
1.42531
1.32671
2.21094
2.34232
1.39742
1.40065
1.3767
1.34323
1.56548
1.81779
2.04571
1.24226
1.2685
1.27403
1.29943
1.31271
1.60398
1.67955
1.76626
1.60523
1.85036
1.68056
1.93497
1.76697
1.85691
0.640067
0.263757
0.325117
0.343595
0.315645
0.285094
0.257625
0.255482
0.28058
0.284369
0.314738
0.341439
0.368898
0.428403
0.383449
0.413214
1.22848
2.70892
0.392596
0.428626
1.09355
1.21716
0.84542
0.539526
2.72763
2.49197
0.432741
0.645961
0.381247
0.814771
0.26971
0.490934
0.470696
0.314346
2.02121
2.22922
1.89723
1.73979
2.65786
1.35721
1.47327
0.571194
0.340885
0.544187
0.615557
1.76794
1.78037
2.23144
2.53162
1.51016
1.47828
1.22068
1.0751
2.35313
2.11216
0.922458
0.79652
2.14084
2.14205
0.40047
0.439628
0.307746
0.383751
2.59855
2.28027
2.43732
0.442136
0.546904
1.95942
2.03903
0.947277
0.965997
1.68307
1.71575
0.509926
0.559937
0.41038
0.388722
2.42427
0.357833
0.426865
1.20183
1.20633
0.476848
0.40725
1.17434
1.17594
0.605013
0.577353
1.11123
1.12473
1.24717
1.25623
0.378747
0.276769
0.328766
0.347658
1.62909
1.7127
1.57777
1.80644
1.63302
1.96948
1.71497
0.301344
0.332462
0.304767
0.314961
2.19706
0.395822
0.362802
0.3282
0.315615
0.406206
0.332831
0.406523
0.276355
1.28059
1.26104
1.31077
1.36069
0.314974
0.294391
0.268384
1.34439
1.32824
0.30346
0.350272
1.37569
1.34636
1.32852
0.307815
0.303089
2.56376
0.747151
0.601431
1.27454
1.34737
1.0513
1.1562
0.498054
0.534669
0.517391
0.676683
2.47534
2.32659
0.403167
0.627182
2.42704
2.04268
0.477135
0.653842
2.36935
1.83373
0.499661
0.498706
2.30323
2.06189
1.95236
2.22678
2.0494
1.97191
0.598087
0.451329
2.11608
2.17598
0.455649
1.95035
1.89006
0.45531
0.456611
1.84593
1.88706
0.532846
0.42621
0.499437
0.415931
1.73733
1.71362
0.811871
0.962377
1.05186
1.0367
0.854921
0.708312
0.541301
0.431194
0.906457
0.472146
1.62509
1.65893
1.39304
1.52608
1.48872
1.58211
0.466396
0.364516
1.24163
1.22804
0.46815
0.434348
1.21736
1.20562
0.560334
0.612341
1.12726
1.14632
2.32731
0.434428
0.347888
1.41727
0.343112
0.29747
0.402329
0.372945
0.353017
0.321825
1.57084
1.65704
1.50815
1.74587
1.58919
0.480107
0.34512
0.307602
0.34272
1.85564
1.76989
2.01096
1.29381
1.26655
2.22243
1.98437
1.98063
0.332766
0.337869
1.31347
1.3685
0.369563
0.397045
0.456791
0.445639
0.29779
1.31197
1.28393
1.36636
1.33006
0.394545
0.371418
1.2631
1.15491
0.877695
0.614815
0.59429
0.699653
1.40047
1.37156
1.69285
1.80361
1.62101
1.6388
2.2748
2.22844
0.511656
0.551055
0.57112
0.498194
2.01043
2.04754
1.81602
1.76682
1.91683
2.17654
0.529464
0.503026
1.76629
1.70483
1.06188
0.944559
0.543954
0.480714
1.82394
1.87424
0.618403
0.510747
1.15812
1.03827
0.424869
0.428535
1.9481
2.10784
2.16367
0.457583
0.465224
0.617815
0.53893
0.671354
0.581263
1.42943
1.49906
1.56993
1.57488
0.656068
0.655036
1.12617
1.22835
0.447474
0.404408
0.459121
0.441633
1.28235
1.2368
0.534529
0.537059
1.18533
1.21721
1.45419
1.45203
0.343603
0.386137
0.341149
0.370789
0.366454
0.382254
0.331714
1.5137
1.60162
1.68475
1.62451
0.38475
0.342187
0.42817
0.355392
1.75208
1.87682
1.61077
1.66193
1.77229
1.69222
1.39046
1.40125
2.13523
2.15239
0.544684
0.380601
0.415463
1.29754
1.3491
0.371947
0.449707
0.351502
1.26173
1.27667
1.35059
1.31506
0.422462
0.397224
1.31014
1.12954
0.989359
0.773356
0.724756
0.635312
1.32986
1.38299
1.67236
1.73182
1.67302
1.83698
1.21345
1.30612
0.532357
0.649209
0.521909
0.573755
0.579779
0.671281
1.72148
1.90348
1.76425
1.96399
0.441593
1.68978
2.01876
1.61734
1.61975
0.58601
0.62636
0.921169
0.798786
0.7278
0.665443
0.979353
1.12946
2.10924
2.06688
0.517779
0.533261
1.8016
1.77548
0.441653
0.521515
0.468593
0.46564
0.729832
0.776678
1.79611
2.00027
1.11395
1.23055
1.54023
1.56402
1.46213
1.50617
0.47861
0.439333
0.504598
0.440629
1.23631
1.22532
0.627494
0.633577
1.44301
1.47071
0.394464
0.422239
0.332577
0.421581
0.363363
1.44344
1.42277
0.42214
0.371293
0.381668
1.48736
1.54627
1.53611
1.7104
1.55821
1.78899
1.63542
0.407659
1.8892
1.88687
0.388007
0.424191
0.388143
1.37457
1.37343
1.33666
1.33499
0.411966
1.30276
1.29838
0.402985
0.424668
2.00579
1.72116
1.05623
1.17789
1.09344
1.07586
0.79175
0.718586
1.59997
1.6988
1.29613
1.42082
1.44657
1.42717
1.74452
1.78873
0.839447
0.95662
0.667144
0.619765
0.552607
0.605401
0.705013
0.6736
0.526497
0.597375
1.15498
1.67025
1.84206
1.57866
1.88926
1.61147
1.5772
1.29486
0.764785
0.726138
1.6855
1.92852
0.480418
0.480418
0.787257
0.908421
0.460983
0.508618
0.54867
0.497524
1.95879
1.85856
0.969598
0.856371
1.54962
1.55572
1.48632
1.5096
0.479086
0.452925
0.545061
0.511672
1.2705
1.25044
0.570573
0.597289
1.22336
1.22531
0.561296
0.692956
1.48981
0.452699
0.425486
1.44741
1.4185
1.4954
1.50462
0.470325
0.516859
0.404049
0.459267
0.409059
0.476902
0.410856
1.56487
1.50471
1.64574
1.74794
1.86535
1.60393
0.42069
0.462269
1.40564
1.40172
0.450647
0.551331
1.36459
1.36049
1.35285
1.32475
0.500872
1.66606
1.65095
0.725209
0.654363
1.1966
1.22732
0.721931
0.708118
1.05873
1.01303
0.847647
0.781922
1.64041
1.69522
1.60233
1.55264
0.56206
0.663702
1.31642
1.4618
1.30731
1.35281
1.71292
1.78887
1.25576
0.897953
1.06985
1.44961
1.3846
0.78441
0.765627
0.525849
0.609033
1.61292
1.8299
0.492976
0.468715
1.6659
1.82478
0.555739
0.502635
1.75304
0.839448
1.00834
1.5532
1.54369
0.827033
0.949908
1.50268
1.50785
1.07141
1.0269
1.27875
1.28735
0.59737
0.519286
1.26357
1.25103
0.479412
1.15944
1.20087
0.769053
0.618618
0.699043
0.755348
1.36191
0.521116
0.484848
0.471768
0.458539
0.451928
0.482612
0.58943
1.58475
1.52181
0.565986
0.451495
1.68464
1.53845
0.442529
1.41812
1.38956
0.518647
0.630627
1.33005
1.32332
0.725443
0.719799
1.15467
1.23506
1.16163
0.611799
0.670791
1.63638
1.62739
1.28142
1.60539
1.64656
1.58936
1.51087
1.00291
1.09283
0.889178
0.825503
0.788751
0.786935
1.29423
1.33311
1.6111
1.36096
1.47055
0.559585
0.621046
1.34561
1.39233
1.7278
0.494238
0.551745
0.507406
0.945174
1.03622
1.55125
1.52868
1.4704
1.4123
0.885651
1.03708
0.849876
0.91543
1.512
1.50085
0.579343
0.555423
1.26673
1.31834
0.681943
0.66912
0.660626
1.24592
1.22893
0.642092
0.724145
0.666521
0.864691
0.497291
1.21253
0.658728
0.586114
0.553152
0.513179
1.42032
1.52603
0.544785
0.478955
1.62351
1.53625
1.6581
0.591543
1.32989
1.1562
1.29079
0.729075
0.785207
1.60099
0.860007
0.792767
1.5719
1.53045
0.690562
0.668387
1.30973
1.32357
1.56357
0.857363
0.85085
1.38981
1.47245
1.54342
1.49832
1.33616
1.37817
1.54246
0.605684
0.610623
1.11169
1.09107
1.37492
1.42583
0.977234
1.05695
1.51412
1.48956
1.4105
1.43121
0.926867
0.914884
1.05578
0.978304
1.46659
1.56043
0.510822
0.522951
1.12286
1.14274
1.26333
1.2493
1.29689
1.36035
1.39145
1.45101
0.651799
0.722331
0.736414
0.815081
1.1834
1.19687
0.842032
0.784125
0.792187
0.8405
0.738455
0.821159
0.566562
0.646356
1.32402
1.36643
0.623697
0.685671
0.854627
0.588785
0.721678
0.706779
1.46487
1.47802
0.567051
0.570163
1.22866
1.15919
1.48961
1.55153
0.660182
0.780004
0.850626
1.33822
1.36596
0.587035
0.533853
1.48247
1.46736
1.4324
1.40988
1.50951
1.44383
1.17893
1.11307
1.51413
1.46108
1.44771
1.21168
1.166
0.993744
0.928299
0.994706
1.06584
1.32995
1.39931
1.42395
1.44296
0.924095
1.06238
1.44113
1.56712
1.54218
1.47193
1.306
1.29133
0.695281
0.634922
1.30338
1.36979
0.551833
0.664584
1.29558
1.29011
0.803636
0.836781
0.769062
0.955783
1.25826
1.2843
1.3118
1.29886
0.733957
0.792539
0.664638
0.656415
0.834096
0.854439
0.623247
1.56785
1.54969
0.624337
0.77357
1.35568
1.39204
0.616307
0.624092
1.48347
1.50647
1.17611
1.26869
1.42606
1.33141
0.761732
0.802364
0.703991
0.723148
1.4502
1.4727
1.48685
1.45765
1.48042
1.51297
1.36136
1.39921
1.18636
1.17887
1.36795
1.44523
1.47746
1.39506
0.995778
0.927041
1.12124
1.12638
1.39703
1.46616
1.36972
1.40583
1.42744
1.44608
1.49132
1.52913
0.733237
0.767232
1.43052
1.46637
0.739413
0.783545
0.998467
1.06063
0.908807
1.05534
1.27826
1.32991
1.33801
1.28152
1.30958
1.26941
1.21796
1.20923
0.990159
0.92338
0.884714
0.912501
0.901617
0.965959
0.80491
0.885565
0.654321
0.800385
0.660169
0.694723
1.36169
1.42751
0.667165
0.753682
0.831393
0.836205
1.38351
1.41203
1.27982
1.21943
1.4521
1.49867
1.43979
1.34698
1.26173
1.22787
1.36331
1.43197
0.845447
0.91211
1.4317
1.42086
1.31852
1.35423
1.18436
1.17029
1.38649
1.44899
1.48369
1.43095
1.41052
1.41618
0.964524
0.988444
1.10679
1.1282
1.36385
1.40042
0.985424
1.04217
1.47124
1.45362
1.30968
1.33493
0.851494
1.01289
0.740711
0.788744
1.27818
1.30693
1.26176
1.24735
0.836221
0.876181
1.0066
0.977198
0.898506
0.936286
1.03368
0.930153
1.44574
1.40447
0.731089
0.726517
0.846656
0.700303
1.31962
1.23252
1.4739
1.30885
1.42746
1.36707
0.881231
0.884363
1.29747
1.26696
1.33944
1.30319
0.746845
0.953468
1.42872
1.37766
1.46362
1.4158
1.45735
1.39844
1.03671
0.966413
1.39751
1.43497
1.14736
1.22534
1.40756
1.42092
1.46669
1.45777
1.23325
1.23606
0.794781
0.816796
1.16004
1.1155
0.972484
1.00556
0.906668
1.08967
0.81876
0.886599
1.40614
1.37108
1.33609
1.32739
1.36764
1.41982
1.28257
1.2588
1.0377
0.927075
1.11303
0.977459
1.19675
1.21836
0.894134
1.01981
1.35535
1.30602
0.819127
0.763673
0.861847
1.08203
1.34064
1.45003
1.27438
1.23923
0.870648
0.873035
1.40481
1.40399
1.3704
1.38865
1.44827
1.41439
0.934506
0.934457
1.44187
1.44469
1.41183
1.42634
0.888018
0.962165
1.27233
1.28084
1.0083
0.972067
1.0823
1.27176
1.38462
1.41887
1.34488
1.37566
1.40419
1.42981
1.30329
1.3171
1.04953
1.05783
1.04858
1.08159
1.28655
1.23774
0.935531
1.00066
1.00107
0.993217
1.03988
1.07969
0.797024
0.861978
1.32965
1.32562
1.4198
1.36806
1.33882
1.37059
1.11951
1.12959
1.43003
1.36967
1.14145
1.19196
0.911398
0.993856
0.833144
0.915288
1.20809
1.3182
1.06941
1.05259
1.32803
1.42437
1.36811
1.38954
1.41827
1.43402
1.34095
1.35094
0.925671
1.06791
1.38047
1.39419
1.1775
1.24374
1.08122
1.11696
1.09055
1.12032
1.29054
1.30435
1.25374
1.24473
0.958957
1.06556
1.03758
1.03014
0.945397
0.876314
1.32
1.25886
1.15646
1.09463
1.43095
1.39195
0.912904
0.922552
1.29496
1.33322
1.35403
1.38507
1.39712
1.38524
1.1485
1.19923
1.41232
1.37027
1.01672
1.0377
1.40939
1.39095
1.33683
1.26216
1.04013
1.11087
0.871723
0.890253
1.1483
1.17454
1.354
1.35259
1.23069
1.23107
1.37731
1.39106
1.26893
1.27752
1.06633
1.10445
1.14241
1.10719
1.1032
1.09668
1.1562
1.17007
0.797003
0.871901
1.37456
1.35508
1.3365
1.36855
1.2911
1.28077
1.38383
1.38219
1.01536
0.998801
1.3644
1.34046
1.13082
1.15124
1.37064
1.40102
1.28549
1.32217
1.34317
1.37931
1.23848
1.18592
1.17832
1.21355
1.31803
1.26253
1.21543
1.17432
1.19826
1.23361
1.17935
1.16854
1.31499
1.31981
1.19156
1.12127
1.0226
1.04193
1.36462
1.32874
1.354
1.31544
1.28182
1.26286
1.3456
1.36241
1.25081
1.31176
1.3902
1.38194
1.14911
1.20381
1.20977
1.23555
1.21793
1.26556
1.08939
1.22363
1.2019
1.15867
1.25493
1.22569
1.32338
1.31214
1.11315
1.15079
1.29473
1.23712
0.980308
0.995718
1.19443
1.16128
1.30319
1.22702
1.34958
1.34955
1.30269
1.33694
1.25365
1.25735
1.34728
1.3313
1.28241
1.29894
1.2561
1.19424
1.36953
1.37461
1.1413
1.17409
1.04119
1.09179
1.09559
1.14472
1.18255
1.22442
1.13609
1.15539
1.29501
1.27048
1.04027
1.01777
1.33615
1.27314
1.36228
1.30014
1.37574
1.31406
1.30557
1.24643
1.32671
1.33877
1.25295
1.26244
1.16742
1.29691
1.18526
1.20838
1.06319
1.05617
1.34163
1.32725
1.28612
1.24592
1.22848
1.24244
1.13452
1.16852
1.1144
1.15113
1.28755
1.33048
1.2873
1.23546
1.39076
1.38278
1.31035
1.23282
1.31027
1.25959
1.31573
1.26396
1.25023
1.2336
1.27551
1.27561
1.10463
1.14224
1.18482
1.22016
1.23292
1.27226
1.31429
1.28258
1.31241
1.33561
1.25882
1.29821
1.23334
1.22269
1.29138
1.22582
1.2531
1.22608
1.20244
1.21712
1.07969
1.09838
1.13125
1.13612
1.24855
1.21083
1.19074
1.17129
1.28364
1.23373
1.13509
1.20489
1.23633
1.2647
1.21622
1.19152
1.19895
1.20852
1.10191
1.12982
1.16995
1.15722
1.24356
1.25549
1.20481
1.21548
1.18751
1.19971
1.10247
1.11827
1.17748
1.1891
1.12469
1.15451
1.2212
1.18147
1.18587
1.19857
1.10296
1.12824
1.15349
1.18701
1.08165
1.0815
1.17151
1.18404
1.10139
1.06505
1.06536
1.04118
1.11251
1.10717
1.15689
1.17153
1.15757
1.16669
1.12526
1.10526
1.18735
1.17893
1.14044
1.14954
1.0911
1.1
1.14602
1.1418
1.13065
1.13785
1.21473
1.17683
1.13856
1.15781
1.1711
1.16529
1.13195
1.15421
1.12425
1.14549
1.11761
1.1237
1.14287
1.15468
1.14753
1.12813
1.10271
1.10458
1.19948
1.21011
0.910629
0.96364
0.811842
0.735077
1.1699
1.12645
1.08507
1.09171
1.13317
1.13239
1.14922
1.12451
1.17407
1.15159
1.20126
1.16852
1.05054
1.07815
1.15649
1.14617
1.08767
1.12338
0.689071
0.655127
0.982141
1.00013
1.11003
1.07747
1.16498
1.14425
0.987002
0.988654
0.990621
0.992494
0.999723
0.999963
0.996091
0.99699
0.999733
0.999734
1.00202
1.00262
1.06696
1.05569
1.07863
1.0684
1.06995
1.06029
1.03077
1.02704
0.986132
1.00007
1.05103
1.04683
1.02795
1.02672
1.01984
1.019
1.00704
1.00517
0.922662
0.910267
0.740979
0.727707
0.892692
0.862373
0.959209
0.96295
0.986714
0.988635
0.983416
0.981269
0.976693
0.977705
0.948339
0.951096
1.03726
1.0422
1.01844
1.02277
1.10195
1.12038
0.99361
0.987488
1.06793
1.10103
1.1702
1.15791
1.06547
1.06399
0.922541
0.876367
1.10351
1.11521
1.02413
1.01489
0.951654
0.948896
0.813479
0.860866
1.02993
1.05076
1.10298
1.10585
1.11201
1.11775
1.10641
1.12814
1.18483
1.16211
1.1268
1.12485
1.1393
1.12519
1.06495
1.07653
1.09695
1.107
0.990571
0.990585
0.987787
0.98791
1.06323
1.06749
1.0025
1.00357
1.00943
1.01012
1.01363
1.0118
1.02123
1.02305
1.03486
1.03533
1.04607
1.03832
1.05264
1.05376
1.07666
1.06707
1.04138
1.04581
0.997487
1.02264
1.06214
1.065
1.00043
1.00013
0.833175
0.839532
0.935863
0.942065
0.950834
0.953863
0.970795
0.96929
0.977762
0.979338
0.984889
0.985241
0.988694
0.988428
0.985637
0.986715
0.966108
0.966744
0.927274
0.916809
0.874585
0.885985
1.04168
1.02951
0.996194
0.997053
0.989296
0.989735
1.00005
1.00027
0.999636
1.00029
0.995068
1.0096
1.02595
1.03953
1.05286
1.07295
0.991868
0.992639
0.780627
0.788142
1.05551
1.05569
0.987192
0.996786
1.00239
1.00095
0.933178
0.919789
1.05681
1.05043
0.895052
0.873645
1.01559
1.025
1.06519
1.06225
1.06413
1.06275
1.0401
1.04091
0.943815
0.95661
0.957412
0.966003
1.02569
1.0247
1.01425
1.01709
0.973324
0.979359
0.980874
0.984475
0.986592
0.989069
1.04279
1.03906
1.00466
1.00666
0.988127
0.989078
0.993356
0.992436
0.997684
0.997529
1.05551
1.05234
1.02845
1.03228
1.10294
1.07997
1.06274
1.05972
1.08409
1.08005
1.10692
1.1161
1.08771
1.10515
1.06763
1.07819
0.813365
0.871031
1.1175
1.11654
1.10356
1.11697
1.01494
1.02117
1.06061
1.06133
0.940123
0.894524
1.07966
1.10282
1.10465
1.0993
0.93063
0.991353
0.98965
0.991117
0.986994
0.989823
0.996723
0.997682
1.05046
1.0565
1.00311
1.00275
1.05305
1.05711
1.06311
1.06683
1.00807
1.00766
1.01841
1.01988
1.02764
1.0293
1.04287
1.04809
1.05927
1.05888
1.03629
1.0205
1.04394
1.05008
1.04836
1.05246
1.03939
1.0345
1.01322
1.0122
1.00105
1.00075
1.0374
1.04018
0.92348
0.910168
0.957415
0.95242
0.967842
0.964564
0.980002
0.978293
0.985085
0.983988
0.986916
0.987455
0.93517
0.925853
0.948164
0.938281
0.971673
0.974718
0.987098
0.988258
0.991801
0.992789
0.918506
0.947712
0.999114
0.999213
0.997627
0.998015
0.994371
0.995316
0.993218
0.994422
0.989357
0.99076
1.04562
1.04544
1.02756
1.02121
1.02963
1.03048
0.831013
0.891869
1.05993
1.06062
1.06283
1.06634
0.963436
0.956073
1.03593
1.03498
0.960403
0.97088
1.02038
1.02055
1.0125
1.01377
0.974635
0.981652
0.981539
0.986044
1.04911
1.05487
1.00409
1.00542
0.993992
1.02981
1.09509
1.10495
0.966069
0.983251
0.957643
0.949014
1.08311
1.09348
1.02863
1.06589
1.07637
1.07848
1.09991
1.10469
1.09051
1.10064
1.06953
1.05845
1.02857
1.03013
0.948878
0.964525
1.03902
1.04183
1.0717
1.06497
1.0623
1.06357
0.90538
0.943833
1.10675
1.09787
0.864185
0.915683
1.05418
1.05535
0.936063
0.909455
1.07109
1.08027
1.04771
1.03912
1.08297
1.0694
1.06081
1.05748
0.938839
0.956846
0.963463
0.95763
0.97131
0.967923
0.981865
0.980046
0.986251
0.985122
0.953981
0.93619
0.97017
0.977504
0.98592
0.98904
0.997339
0.998832
0.988189
0.990709
0.989202
0.991249
0.993329
0.994698
1.05406
1.05039
1.00608
1.00777
1.01466
1.01789
1.02367
1.02726
1.03816
1.04295
1.06718
1.06089
1.04918
1.03587
1.04936
1.06088
1.05776
1.06136
1.02981
1.02978
1.00905
1.00989
1.00294
1.00407
0.99984
1.00045
1.04961
1.06603
0.994787
0.996162
0.998184
0.99892
0.991191
0.993006
0.955645
0.970075
0.96746
0.976174
1.01645
1.0159
1.01021
1.00998
0.977703
0.984535
0.983394
0.987714
1.00299
1.00344
1.08624
1.09198
1.03369
1.03358
1.05933
1.05918
1.05547
1.05779
1.05175
1.07928
1.06713
1.08017
0.940484
0.932803
1.00404
1.01502
0.980932
0.972408
1.00989
1.01227
0.978452
0.966429
1.09556
1.08973
1.0177
1.0209
1.03095
1.03603
0.961423
0.944002
1.04277
1.04592
1.07115
1.06628
1.08913
1.0929
1.0219
1.0244
1.07588
1.06514
0.965243
0.952804
1.06366
1.06547
1.07533
1.06143
1.02473
1.02483
0.976605
0.971732
0.984572
0.982059
0.989114
0.986545
0.972987
0.968701
0.973662
0.981259
0.99811
0.999554
0.986954
0.990168
0.988907
0.991049
0.993382
0.995066
1.00389
1.00582
1.00202
1.00128
1.01127
1.01446
1.00723
1.00693
0.995171
0.996872
0.9993
0.999938
0.99118
0.993159
1.00721
1.00597
0.981334
0.987929
0.985732
0.989728
1.00141
1.00084
1.07733
1.08305
0.993024
1.01355
1.06135
1.06473
1.05
1.05573
1.05406
1.04863
1.01916
1.02127
1.01866
1.0213
1.07386
1.08981
1.09776
1.09583
1.07554
1.09024
0.977033
0.950332
1.0977
1.10499
1.06417
1.06673
1.00134
1.00401
1.00735
1.01016
0.977473
0.968703
1.03762
1.05307
1.0595
1.05385
0.985142
0.97819
1.00756
1.00871
0.984824
0.977541
0.987768
0.98482
0.989835
0.98758
0.978107
0.985544
0.99867
1.00095
0.993469
0.995335
1.0126
1.01771
1.00474
1.00372
1.00358
1.00382
0.995224
0.997667
0.988657
0.993263
0.964837
0.954907
0.985241
0.991963
1.06497
1.06437
0.933309
0.945849
0.97541
1.00279
0.985548
0.984841
1.00173
1.00466
0.981077
0.990112
0.969652
0.971824
1.06856
1.0735
1.09371
1.08507
1.00172
1.03788
1.03197
1.02288
0.995283
0.989866
0.9892
0.980815
1.00437
1.01138
0.989435
0.984486
1.07571
1.08599
1.02576
1.05196
1.0582
1.06428
1.01228
1.01599
1.09129
1.09391
0.998875
1.00047
1.00126
1.00667
1.00168
1.00143
0.991999
0.995606
1.01518
1.02083
0.996199
0.998165
0.991298
0.98815
0.980072
0.973645
0.966045
0.980577
1.02764
1.03434
1.07319
1.06529
1.01379
1.00694
1.04726
1.06241
0.995589
0.997642
1.07829
1.07066
1.06292
1.06669
1.00421
1.00832
0.996393
0.999076
0.995833
1.00214
1.00828
1.01283
0.995296
0.988107
0.915091
0.928491
0.996462
0.994552
1.073
1.0902
0.995868
0.991783
0.995388
0.993053
0.97784
0.988328
1.04412
1.05425
1.07229
1.0707
0.996335
1.00213
1.0246
1.03088
0.979869
1.00322
1.07078
1.07629
1.03981
1.0452
1.06226
1.06494
1.06568
1.06784
0.989377
0.995811
1.0559
1.05327
0.968974
0.996596
1.07777
1.08212
1.01506
1.03653
0.996555
1.01952
1.04241
1.05268
1.06418
1.0721
0.996071
1.00392
0.999275
1.01508
1.02065
1.0236
0.981513
0.995939
1.03231
1.0461
1.06047
1.05287
1.04755
1.04934
1.08167
1.07744
1.03147
1.04612
1.04244
1.05303
1.03436
1.02764
1.04798
1.05586
1.08608
1.0881
1.03963
1.04354
1.04518
1.05045
1.02271
1.02539
1.07919
1.09009
1.0145
1.02162
1.08153
1.07937
1.08433
1.07654
1.03505
1.03086
1.03591
1.03886
1.03116
1.0328
1.00731
1.01554
1.06865
1.07371
1.03682
1.0384
1.07144
1.06985
1.00365
1.00813
1.07969
1.07479
1.04033
1.04461
1.02485
1.02768
1.02776
1.02773
1.01654
1.02492
1.07594
1.06811
1.02027
1.01984
1.01221
1.00845
1.07947
1.07819
1.08698
1.08627
0.999763
1.00766
0.995017
0.994646
1.0083
1.01044
0.992735
1.00252
1.00549
1.0088
1.01646
1.01435
1.01716
1.02299
1.00101
1.01171
0.99786
1.00708

