# vtk DataFile Version 2.0
output of FEM program
ASCII

DATASET UNSTRUCTURED_GRID
POINTS 6802 float
    1.500000e+01    3.250000e+01    0.000000e+00
    1.500000e+01    3.052866e+01    0.000000e+00
    1.500000e+01    0.000000e+00    0.000000e+00
    3.000000e+01    0.000000e+00    0.000000e+00
    3.000000e+01    3.500000e+01    0.000000e+00
    1.947134e+01    3.500000e+01    0.000000e+00
    1.750000e+01    3.500000e+01    0.000000e+00
    3.000000e+01    6.500000e+01    0.000000e+00
    1.500000e+01    6.500000e+01    0.000000e+00
    1.500000e+01    3.947134e+01    0.000000e+00
    1.500000e+01    3.750000e+01    0.000000e+00
    1.250000e+01    3.500000e+01    0.000000e+00
    1.052866e+01    3.500000e+01    0.000000e+00
    0.000000e+00    3.500000e+01    0.000000e+00
    0.000000e+00    0.000000e+00    0.000000e+00
    0.000000e+00    6.500000e+01    0.000000e+00
    1.500000e+01    3.240143e+01    0.000000e+00
    1.500000e+01    3.230287e+01    0.000000e+00
    1.500000e+01    3.220430e+01    0.000000e+00
    1.500000e+01    3.210573e+01    0.000000e+00
    1.500000e+01    3.200716e+01    0.000000e+00
    1.500000e+01    3.190860e+01    0.000000e+00
    1.500000e+01    3.181003e+01    0.000000e+00
    1.500000e+01    3.171147e+01    0.000000e+00
    1.500000e+01    3.161290e+01    0.000000e+00
    1.500000e+01    3.151433e+01    0.000000e+00
    1.500000e+01    3.141577e+01    0.000000e+00
    1.500000e+01    3.131720e+01    0.000000e+00
    1.500000e+01    3.121863e+01    0.000000e+00
    1.500000e+01    3.112006e+01    0.000000e+00
    1.500000e+01    3.102150e+01    0.000000e+00
    1.500000e+01    3.092293e+01    0.000000e+00
    1.500000e+01    3.082436e+01    0.000000e+00
    1.500000e+01    3.072580e+01    0.000000e+00
    1.500000e+01    3.062723e+01    0.000000e+00
    1.500000e+01    3.041569e+01    0.000000e+00
    1.500000e+01    3.022739e+01    0.000000e+00
    1.500000e+01    2.972528e+01    0.000000e+00
    1.500000e+01    2.892189e+01    0.000000e+00
    1.500000e+01    2.811851e+01    0.000000e+00
    1.500000e+01    2.731512e+01    0.000000e+00
    1.500000e+01    2.651173e+01    0.000000e+00
    1.500000e+01    2.570835e+01    0.000000e+00
    1.500000e+01    2.490496e+01    0.000000e+00
    1.500000e+01    2.410158e+01    0.000000e+00
    1.500000e+01    2.329819e+01    0.000000e+00
    1.500000e+01    2.249480e+01    0.000000e+00
    1.500000e+01    2.169142e+01    0.000000e+00
    1.500000e+01    2.088803e+01    0.000000e+00
    1.500000e+01    2.008465e+01    0.000000e+00
    1.500000e+01    1.928126e+01    0.000000e+00
    1.500000e+01    1.847787e+01    0.000000e+00
    1.500000e+01    1.767449e+01    0.000000e+00
    1.500000e+01    1.687110e+01    0.000000e+00
    1.500000e+01    1.606772e+01    0.000000e+00
    1.500000e+01    1.526433e+01    0.000000e+00
    1.500000e+01    1.446095e+01    0.000000e+00
    1.500000e+01    1.365756e+01    0.000000e+00
    1.500000e+01    1.285417e+01    0.000000e+00
    1.500000e+01    1.205079e+01    0.000000e+00
    1.500000e+01    1.124740e+01    0.000000e+00
    1.500000e+01    1.044402e+01    0.000000e+00
    1.500000e+01    9.640631e+00    0.000000e+00
    1.500000e+01    8.837245e+00    0.000000e+00
    1.500000e+01    8.033859e+00    0.000000e+00
    1.500000e+01    7.230473e+00    0.000000e+00
    1.500000e+01    6.427087e+00    0.000000e+00
    1.500000e+01    5.623701e+00    0.000000e+00
    1.500000e+01    4.820315e+00    0.000000e+00
    1.500000e+01    4.016930e+00    0.000000e+00
    1.500000e+01    3.213544e+00    0.000000e+00
    1.500000e+01    2.410158e+00    0.000000e+00
    1.500000e+01    1.606772e+00    0.000000e+00
    1.500000e+01    8.033859e-01    0.000000e+00
    1.578947e+01    0.000000e+00    0.000000e+00
    1.657895e+01    0.000000e+00    0.000000e+00
    1.736842e+01    0.000000e+00    0.000000e+00
    1.815789e+01    0.000000e+00    0.000000e+00
    1.894737e+01    0.000000e+00    0.000000e+00
    1.973684e+01    0.000000e+00    0.000000e+00
    2.052632e+01    0.000000e+00    0.000000e+00
    2.131579e+01    0.000000e+00    0.000000e+00
    2.210526e+01    0.000000e+00    0.000000e+00
    2.289474e+01    0.000000e+00    0.000000e+00
    2.368421e+01    0.000000e+00    0.000000e+00
    2.447368e+01    0.000000e+00    0.000000e+00
    2.526316e+01    0.000000e+00    0.000000e+00
    2.605263e+01    0.000000e+00    0.000000e+00
    2.684211e+01    0.000000e+00    0.000000e+00
    2.763158e+01    0.000000e+00    0.000000e+00
    2.842105e+01    0.000000e+00    0.000000e+00
    2.921053e+01    0.000000e+00    0.000000e+00
    3.000000e+01    7.954546e-01    0.000000e+00
    3.000000e+01    1.590909e+00    0.000000e+00
    3.000000e+01    2.386364e+00    0.000000e+00
    3.000000e+01    3.181818e+00    0.000000e+00
    3.000000e+01    3.977273e+00    0.000000e+00
    3.000000e+01    4.772727e+00    0.000000e+00
    3.000000e+01    5.568182e+00    0.000000e+00
    3.000000e+01    6.363636e+00    0.000000e+00
    3.000000e+01    7.159091e+00    0.000000e+00
    3.000000e+01    7.954545e+00    0.000000e+00
    3.000000e+01    8.750000e+00    0.000000e+00
    3.000000e+01    9.545455e+00    0.000000e+00
    3.000000e+01    1.034091e+01    0.000000e+00
    3.000000e+01    1.113636e+01    0.000000e+00
    3.000000e+01    1.193182e+01    0.000000e+00
    3.000000e+01    1.272727e+01    0.000000e+00
    3.000000e+01    1.352273e+01    0.000000e+00
    3.000000e+01    1.431818e+01    0.000000e+00
    3.000000e+01    1.511364e+01    0.000000e+00
    3.000000e+01    1.590909e+01    0.000000e+00
    3.000000e+01    1.670455e+01    0.000000e+00
    3.000000e+01    1.750000e+01    0.000000e+00
    3.000000e+01    1.829545e+01    0.000000e+00
    3.000000e+01    1.909091e+01    0.000000e+00
    3.000000e+01    1.988636e+01    0.000000e+00
    3.000000e+01    2.068182e+01    0.000000e+00
    3.000000e+01    2.147727e+01    0.000000e+00
    3.000000e+01    2.227273e+01    0.000000e+00
    3.000000e+01    2.306818e+01    0.000000e+00
    3.000000e+01    2.386364e+01    0.000000e+00
    3.000000e+01    2.465909e+01    0.000000e+00
    3.000000e+01    2.545455e+01    0.000000e+00
    3.000000e+01    2.625000e+01    0.000000e+00
    3.000000e+01    2.704545e+01    0.000000e+00
    3.000000e+01    2.784091e+01    0.000000e+00
    3.000000e+01    2.863636e+01    0.000000e+00
    3.000000e+01    2.943182e+01    0.000000e+00
    3.000000e+01    3.022727e+01    0.000000e+00
    3.000000e+01    3.102273e+01    0.000000e+00
    3.000000e+01    3.181818e+01    0.000000e+00
    3.000000e+01    3.261364e+01    0.000000e+00
    3.000000e+01    3.340909e+01    0.000000e+00
    3.000000e+01    3.420454e+01    0.000000e+00
    2.919010e+01    3.500000e+01    0.000000e+00
    2.838021e+01    3.500000e+01    0.000000e+00
    2.757031e+01    3.500000e+01    0.000000e+00
    2.676041e+01    3.500000e+01    0.000000e+00
    2.595051e+01    3.500000e+01    0.000000e+00
    2.514062e+01    3.500000e+01    0.000000e+00
    2.433072e+01    3.500000e+01    0.000000e+00
    2.352082e+01    3.500000e+01    0.000000e+00
    2.271093e+01    3.500000e+01    0.000000e+00
    2.190103e+01    3.500000e+01    0.000000e+00
    2.109113e+01    3.500000e+01    0.000000e+00
    2.028123e+01    3.500000e+01    0.000000e+00
    1.977505e+01    3.500000e+01    0.000000e+00
    1.958523e+01    3.500000e+01    0.000000e+00
    1.937277e+01    3.500000e+01    0.000000e+00
    1.927420e+01    3.500000e+01    0.000000e+00
    1.917564e+01    3.500000e+01    0.000000e+00
    1.907707e+01    3.500000e+01    0.000000e+00
    1.897850e+01    3.500000e+01    0.000000e+00
    1.887994e+01    3.500000e+01    0.000000e+00
    1.878137e+01    3.500000e+01    0.000000e+00
    1.868280e+01    3.500000e+01    0.000000e+00
    1.858423e+01    3.500000e+01    0.000000e+00
    1.848567e+01    3.500000e+01    0.000000e+00
    1.838710e+01    3.500000e+01    0.000000e+00
    1.828853e+01    3.500000e+01    0.000000e+00
    1.818997e+01    3.500000e+01    0.000000e+00
    1.809140e+01    3.500000e+01    0.000000e+00
    1.799283e+01    3.500000e+01    0.000000e+00
    1.789427e+01    3.500000e+01    0.000000e+00
    1.779570e+01    3.500000e+01    0.000000e+00
    1.769713e+01    3.500000e+01    0.000000e+00
    1.759857e+01    3.500000e+01    0.000000e+00
    1.749797e+01    3.489933e+01    0.000000e+00
    1.749189e+01    3.479883e+01    0.000000e+00
    1.748177e+01    3.469866e+01    0.000000e+00
    1.746763e+01    3.459897e+01    0.000000e+00
    1.744948e+01    3.449994e+01    0.000000e+00
    1.742735e+01    3.440171e+01    0.000000e+00
    1.740129e+01    3.430445e+01    0.000000e+00
    1.737134e+01    3.420833e+01    0.000000e+00
    1.733754e+01    3.411349e+01    0.000000e+00
    1.729995e+01    3.402008e+01    0.000000e+00
    1.725863e+01    3.392827e+01    0.000000e+00
    1.721364e+01    3.383819e+01    0.000000e+00
    1.716506e+01    3.375000e+01    0.000000e+00
    1.711298e+01    3.366383e+01    0.000000e+00
    1.705746e+01    3.357984e+01    0.000000e+00
    1.699861e+01    3.349815e+01    0.000000e+00
    1.693651e+01    3.341889e+01    0.000000e+00
    1.687128e+01    3.334219e+01    0.000000e+00
    1.680301e+01    3.326819e+01    0.000000e+00
    1.673181e+01    3.319699e+01    0.000000e+00
    1.665781e+01    3.312872e+01    0.000000e+00
    1.658111e+01    3.306349e+01    0.000000e+00
    1.650186e+01    3.300139e+01    0.000000e+00
    1.642016e+01    3.294254e+01    0.000000e+00
    1.633616e+01    3.288702e+01    0.000000e+00
    1.625000e+01    3.283494e+01    0.000000e+00
    1.616181e+01    3.278636e+01    0.000000e+00
    1.607173e+01    3.274137e+01    0.000000e+00
    1.597992e+01    3.270005e+01    0.000000e+00
    1.588651e+01    3.266246e+01    0.000000e+00
    1.579167e+01    3.262866e+01    0.000000e+00
    1.569554e+01    3.259871e+01    0.000000e+00
    1.559829e+01    3.257265e+01    0.000000e+00
    1.550006e+01    3.255052e+01    0.000000e+00
    1.540103e+01    3.253238e+01    0.000000e+00
    1.530134e+01    3.251823e+01    0.000000e+00
    1.520117e+01    3.250811e+01    0.000000e+00
    1.510067e+01    3.250203e+01    0.000000e+00
    3.000000e+01    3.578947e+01    0.000000e+00
    3.000000e+01    3.657895e+01    0.000000e+00
    3.000000e+01    3.736842e+01    0.000000e+00
    3.000000e+01    3.815789e+01    0.000000e+00
    3.000000e+01    3.894737e+01    0.000000e+00
    3.000000e+01    3.973684e+01    0.000000e+00
    3.000000e+01    4.052632e+01    0.000000e+00
    3.000000e+01    4.131579e+01    0.000000e+00
    3.000000e+01    4.210526e+01    0.000000e+00
    3.000000e+01    4.289474e+01    0.000000e+00
    3.000000e+01    4.368421e+01    0.000000e+00
    3.000000e+01    4.447368e+01    0.000000e+00
    3.000000e+01    4.526316e+01    0.000000e+00
    3.000000e+01    4.605263e+01    0.000000e+00
    3.000000e+01    4.684211e+01    0.000000e+00
    3.000000e+01    4.763158e+01    0.000000e+00
    3.000000e+01    4.842105e+01    0.000000e+00
    3.000000e+01    4.921053e+01    0.000000e+00
    3.000000e+01    5.000000e+01    0.000000e+00
    3.000000e+01    5.078947e+01    0.000000e+00
    3.000000e+01    5.157895e+01    0.000000e+00
    3.000000e+01    5.236842e+01    0.000000e+00
    3.000000e+01    5.315789e+01    0.000000e+00
    3.000000e+01    5.394737e+01    0.000000e+00
    3.000000e+01    5.473684e+01    0.000000e+00
    3.000000e+01    5.552632e+01    0.000000e+00
    3.000000e+01    5.631579e+01    0.000000e+00
    3.000000e+01    5.710526e+01    0.000000e+00
    3.000000e+01    5.789474e+01    0.000000e+00
    3.000000e+01    5.868421e+01    0.000000e+00
    3.000000e+01    5.947368e+01    0.000000e+00
    3.000000e+01    6.026316e+01    0.000000e+00
    3.000000e+01    6.105263e+01    0.000000e+00
    3.000000e+01    6.184211e+01    0.000000e+00
    3.000000e+01    6.263158e+01    0.000000e+00
    3.000000e+01    6.342105e+01    0.000000e+00
    3.000000e+01    6.421053e+01    0.000000e+00
    2.921053e+01    6.500000e+01    0.000000e+00
    2.842105e+01    6.500000e+01    0.000000e+00
    2.763158e+01    6.500000e+01    0.000000e+00
    2.684211e+01    6.500000e+01    0.000000e+00
    2.605263e+01    6.500000e+01    0.000000e+00
    2.526316e+01    6.500000e+01    0.000000e+00
    2.447368e+01    6.500000e+01    0.000000e+00
    2.368421e+01    6.500000e+01    0.000000e+00
    2.289474e+01    6.500000e+01    0.000000e+00
    2.210526e+01    6.500000e+01    0.000000e+00
    2.131579e+01    6.500000e+01    0.000000e+00
    2.052632e+01    6.500000e+01    0.000000e+00
    1.973684e+01    6.500000e+01    0.000000e+00
    1.894737e+01    6.500000e+01    0.000000e+00
    1.815789e+01    6.500000e+01    0.000000e+00
    1.736842e+01    6.500000e+01    0.000000e+00
    1.657895e+01    6.500000e+01    0.000000e+00
    1.578947e+01    6.500000e+01    0.000000e+00
    1.500000e+01    6.420223e+01    0.000000e+00
    1.500000e+01    6.340446e+01    0.000000e+00
    1.500000e+01    6.260669e+01    0.000000e+00
    1.500000e+01    6.180892e+01    0.000000e+00
    1.500000e+01    6.101115e+01    0.000000e+00
    1.500000e+01    6.021338e+01    0.000000e+00
    1.500000e+01    5.941560e+01    0.000000e+00
    1.500000e+01    5.861784e+01    0.000000e+00
    1.500000e+01    5.782006e+01    0.000000e+00
    1.500000e+01    5.702229e+01    0.000000e+00
    1.500000e+01    5.622452e+01    0.000000e+00
    1.500000e+01    5.542675e+01    0.000000e+00
    1.500000e+01    5.462898e+01    0.000000e+00
    1.500000e+01    5.383121e+01    0.000000e+00
    1.500000e+01    5.303344e+01    0.000000e+00
    1.500000e+01    5.223567e+01    0.000000e+00
    1.500000e+01    5.143790e+01    0.000000e+00
    1.500000e+01    5.064013e+01    0.000000e+00
    1.500000e+01    4.984236e+01    0.000000e+00
    1.500000e+01    4.904459e+01    0.000000e+00
    1.500000e+01    4.824681e+01    0.000000e+00
    1.500000e+01    4.744904e+01    0.000000e+00
    1.500000e+01    4.665127e+01    0.000000e+00
    1.500000e+01    4.585350e+01    0.000000e+00
    1.500000e+01    4.505573e+01    0.000000e+00
    1.500000e+01    4.425796e+01    0.000000e+00
    1.500000e+01    4.346019e+01    0.000000e+00
    1.500000e+01    4.266242e+01    0.000000e+00
    1.500000e+01    4.186465e+01    0.000000e+00
    1.500000e+01    4.106688e+01    0.000000e+00
    1.500000e+01    4.026911e+01    0.000000e+00
    1.500000e+01    3.977050e+01    0.000000e+00
    1.500000e+01    3.958352e+01    0.000000e+00
    1.500000e+01    3.937277e+01    0.000000e+00
    1.500000e+01    3.927420e+01    0.000000e+00
    1.500000e+01    3.917564e+01    0.000000e+00
    1.500000e+01    3.907707e+01    0.000000e+00
    1.500000e+01    3.897850e+01    0.000000e+00
    1.500000e+01    3.887994e+01    0.000000e+00
    1.500000e+01    3.878137e+01    0.000000e+00
    1.500000e+01    3.868280e+01    0.000000e+00
    1.500000e+01    3.858424e+01    0.000000e+00
    1.500000e+01    3.848567e+01    0.000000e+00
    1.500000e+01    3.838710e+01    0.000000e+00
    1.500000e+01    3.828854e+01    0.000000e+00
    1.500000e+01    3.818997e+01    0.000000e+00
    1.500000e+01    3.809140e+01    0.000000e+00
    1.500000e+01    3.799284e+01    0.000000e+00
    1.500000e+01    3.789427e+01    0.000000e+00
    1.500000e+01    3.779570e+01    0.000000e+00
    1.500000e+01    3.769713e+01    0.000000e+00
    1.500000e+01    3.759857e+01    0.000000e+00
    1.510067e+01    3.749797e+01    0.000000e+00
    1.520117e+01    3.749189e+01    0.000000e+00
    1.530134e+01    3.748177e+01    0.000000e+00
    1.540103e+01    3.746762e+01    0.000000e+00
    1.550006e+01    3.744948e+01    0.000000e+00
    1.559829e+01    3.742735e+01    0.000000e+00
    1.569554e+01    3.740129e+01    0.000000e+00
    1.579167e+01    3.737134e+01    0.000000e+00
    1.588651e+01    3.733754e+01    0.000000e+00
    1.597992e+01    3.729995e+01    0.000000e+00
    1.607173e+01    3.725863e+01    0.000000e+00
    1.616181e+01    3.721364e+01    0.000000e+00
    1.625000e+01    3.716506e+01    0.000000e+00
    1.633616e+01    3.711298e+01    0.000000e+00
    1.642016e+01    3.705746e+01    0.000000e+00
    1.650186e+01    3.699861e+01    0.000000e+00
    1.658111e+01    3.693651e+01    0.000000e+00
    1.665781e+01    3.687128e+01    0.000000e+00
    1.673181e+01    3.680301e+01    0.000000e+00
    1.680301e+01    3.673181e+01    0.000000e+00
    1.687128e+01    3.665781e+01    0.000000e+00
    1.693651e+01    3.658111e+01    0.000000e+00
    1.699861e+01    3.650185e+01    0.000000e+00
    1.705746e+01    3.642016e+01    0.000000e+00
    1.711298e+01    3.633617e+01    0.000000e+00
    1.716506e+01    3.625000e+01    0.000000e+00
    1.721364e+01    3.616181e+01    0.000000e+00
    1.725863e+01    3.607173e+01    0.000000e+00
    1.729995e+01    3.597992e+01    0.000000e+00
    1.733754e+01    3.588651e+01    0.000000e+00
    1.737134e+01    3.579167e+01    0.000000e+00
    1.740129e+01    3.569555e+01    0.000000e+00
    1.742735e+01    3.559829e+01    0.000000e+00
    1.744948e+01    3.550006e+01    0.000000e+00
    1.746763e+01    3.540103e+01    0.000000e+00
    1.748177e+01    3.530134e+01    0.000000e+00
    1.749189e+01    3.520117e+01    0.000000e+00
    1.749797e+01    3.510067e+01    0.000000e+00
    1.240143e+01    3.500000e+01    0.000000e+00
    1.230287e+01    3.500000e+01    0.000000e+00
    1.220430e+01    3.500000e+01    0.000000e+00
    1.210573e+01    3.500000e+01    0.000000e+00
    1.200717e+01    3.500000e+01    0.000000e+00
    1.190860e+01    3.500000e+01    0.000000e+00
    1.181003e+01    3.500000e+01    0.000000e+00
    1.171147e+01    3.500000e+01    0.000000e+00
    1.161290e+01    3.500000e+01    0.000000e+00
    1.151433e+01    3.500000e+01    0.000000e+00
    1.141576e+01    3.500000e+01    0.000000e+00
    1.131720e+01    3.500000e+01    0.000000e+00
    1.121863e+01    3.500000e+01    0.000000e+00
    1.112006e+01    3.500000e+01    0.000000e+00
    1.102150e+01    3.500000e+01    0.000000e+00
    1.092293e+01    3.500000e+01    0.000000e+00
    1.082436e+01    3.500000e+01    0.000000e+00
    1.072580e+01    3.500000e+01    0.000000e+00
    1.062723e+01    3.500000e+01    0.000000e+00
    1.041477e+01    3.500000e+01    0.000000e+00
    1.022495e+01    3.500000e+01    0.000000e+00
    9.718766e+00    3.500000e+01    0.000000e+00
    8.908869e+00    3.500000e+01    0.000000e+00
    8.098972e+00    3.500000e+01    0.000000e+00
    7.289075e+00    3.500000e+01    0.000000e+00
    6.479177e+00    3.500000e+01    0.000000e+00
    5.669281e+00    3.500000e+01    0.000000e+00
    4.859383e+00    3.500000e+01    0.000000e+00
    4.049486e+00    3.500000e+01    0.000000e+00
    3.239589e+00    3.500000e+01    0.000000e+00
    2.429692e+00    3.500000e+01    0.000000e+00
    1.619794e+00    3.500000e+01    0.000000e+00
    8.098972e-01    3.500000e+01    0.000000e+00
    0.000000e+00    3.420454e+01    0.000000e+00
    0.000000e+00    3.340909e+01    0.000000e+00
    0.000000e+00    3.261364e+01    0.000000e+00
    0.000000e+00    3.181818e+01    0.000000e+00
    0.000000e+00    3.102273e+01    0.000000e+00
    0.000000e+00    3.022727e+01    0.000000e+00
    0.000000e+00    2.943182e+01    0.000000e+00
    0.000000e+00    2.863636e+01    0.000000e+00
    0.000000e+00    2.784091e+01    0.000000e+00
    0.000000e+00    2.704545e+01    0.000000e+00
    0.000000e+00    2.625000e+01    0.000000e+00
    0.000000e+00    2.545455e+01    0.000000e+00
    0.000000e+00    2.465909e+01    0.000000e+00
    0.000000e+00    2.386364e+01    0.000000e+00
    0.000000e+00    2.306818e+01    0.000000e+00
    0.000000e+00    2.227273e+01    0.000000e+00
    0.000000e+00    2.147727e+01    0.000000e+00
    0.000000e+00    2.068182e+01    0.000000e+00
    0.000000e+00    1.988636e+01    0.000000e+00
    0.000000e+00    1.909091e+01    0.000000e+00
    0.000000e+00    1.829545e+01    0.000000e+00
    0.000000e+00    1.750000e+01    0.000000e+00
    0.000000e+00    1.670455e+01    0.000000e+00
    0.000000e+00    1.590909e+01    0.000000e+00
    0.000000e+00    1.511364e+01    0.000000e+00
    0.000000e+00    1.431818e+01    0.000000e+00
    0.000000e+00    1.352273e+01    0.000000e+00
    0.000000e+00    1.272727e+01    0.000000e+00
    0.000000e+00    1.193182e+01    0.000000e+00
    0.000000e+00    1.113636e+01    0.000000e+00
    0.000000e+00    1.034091e+01    0.000000e+00
    0.000000e+00    9.545455e+00    0.000000e+00
    0.000000e+00    8.750000e+00    0.000000e+00
    0.000000e+00    7.954545e+00    0.000000e+00
    0.000000e+00    7.159091e+00    0.000000e+00
    0.000000e+00    6.363636e+00    0.000000e+00
    0.000000e+00    5.568182e+00    0.000000e+00
    0.000000e+00    4.772727e+00    0.000000e+00
    0.000000e+00    3.977273e+00    0.000000e+00
    0.000000e+00    3.181818e+00    0.000000e+00
    0.000000e+00    2.386364e+00    0.000000e+00
    0.000000e+00    1.590909e+00    0.000000e+00
    0.000000e+00    7.954546e-01    0.000000e+00
    7.894737e-01    0.000000e+00    0.000000e+00
    1.578947e+00    0.000000e+00    0.000000e+00
    2.368421e+00    0.000000e+00    0.000000e+00
    3.157895e+00    0.000000e+00    0.000000e+00
    3.947368e+00    0.000000e+00    0.000000e+00
    4.736842e+00    0.000000e+00    0.000000e+00
    5.526316e+00    0.000000e+00    0.000000e+00
    6.315790e+00    0.000000e+00    0.000000e+00
    7.105263e+00    0.000000e+00    0.000000e+00
    7.894737e+00    0.000000e+00    0.000000e+00
    8.684211e+00    0.000000e+00    0.000000e+00
    9.473684e+00    0.000000e+00    0.000000e+00
    1.026316e+01    0.000000e+00    0.000000e+00
    1.105263e+01    0.000000e+00    0.000000e+00
    1.184210e+01    0.000000e+00    0.000000e+00
    1.263158e+01    0.000000e+00    0.000000e+00
    1.342105e+01    0.000000e+00    0.000000e+00
    1.421053e+01    0.000000e+00    0.000000e+00
    1.489933e+01    3.250203e+01    0.000000e+00
    1.479883e+01    3.250811e+01    0.000000e+00
    1.469866e+01    3.251823e+01    0.000000e+00
    1.459897e+01    3.253238e+01    0.000000e+00
    1.449994e+01    3.255052e+01    0.000000e+00
    1.440171e+01    3.257265e+01    0.000000e+00
    1.430446e+01    3.259871e+01    0.000000e+00
    1.420833e+01    3.262866e+01    0.000000e+00
    1.411349e+01    3.266246e+01    0.000000e+00
    1.402008e+01    3.270005e+01    0.000000e+00
    1.392827e+01    3.274137e+01    0.000000e+00
    1.383819e+01    3.278636e+01    0.000000e+00
    1.375000e+01    3.283494e+01    0.000000e+00
    1.366384e+01    3.288702e+01    0.000000e+00
    1.357984e+01    3.294254e+01    0.000000e+00
    1.349814e+01    3.300139e+01    0.000000e+00
    1.341889e+01    3.306349e+01    0.000000e+00
    1.334219e+01    3.312872e+01    0.000000e+00
    1.326819e+01    3.319699e+01    0.000000e+00
    1.319699e+01    3.326819e+01    0.000000e+00
    1.312872e+01    3.334219e+01    0.000000e+00
    1.306349e+01    3.341889e+01    0.000000e+00
    1.300139e+01    3.349815e+01    0.000000e+00
    1.294254e+01    3.357984e+01    0.000000e+00
    1.288702e+01    3.366383e+01    0.000000e+00
    1.283494e+01    3.375000e+01    0.000000e+00
    1.278636e+01    3.383819e+01    0.000000e+00
    1.274137e+01    3.392827e+01    0.000000e+00
    1.270005e+01    3.402008e+01    0.000000e+00
    1.266246e+01    3.411349e+01    0.000000e+00
    1.262866e+01    3.420833e+01    0.000000e+00
    1.259870e+01    3.430445e+01    0.000000e+00
    1.257265e+01    3.440171e+01    0.000000e+00
    1.255052e+01    3.449994e+01    0.000000e+00
    1.253237e+01    3.459897e+01    0.000000e+00
    1.251823e+01    3.469866e+01    0.000000e+00
    1.250811e+01    3.479883e+01    0.000000e+00
    1.250203e+01    3.489933e+01    0.000000e+00
    1.421053e+01    6.500000e+01    0.000000e+00
    1.342105e+01    6.500000e+01    0.000000e+00
    1.263158e+01    6.500000e+01    0.000000e+00
    1.184210e+01    6.500000e+01    0.000000e+00
    1.105263e+01    6.500000e+01    0.000000e+00
    1.026316e+01    6.500000e+01    0.000000e+00
    9.473684e+00    6.500000e+01    0.000000e+00
    8.684211e+00    6.500000e+01    0.000000e+00
    7.894737e+00    6.500000e+01    0.000000e+00
    7.105263e+00    6.500000e+01    0.000000e+00
    6.315790e+00    6.500000e+01    0.000000e+00
    5.526316e+00    6.500000e+01    0.000000e+00
    4.736842e+00    6.500000e+01    0.000000e+00
    3.947368e+00    6.500000e+01    0.000000e+00
    3.157895e+00    6.500000e+01    0.000000e+00
    2.368421e+00    6.500000e+01    0.000000e+00
    1.578947e+00    6.500000e+01    0.000000e+00
    7.894737e-01    6.500000e+01    0.000000e+00
    0.000000e+00    6.421053e+01    0.000000e+00
    0.000000e+00    6.342105e+01    0.000000e+00
    0.000000e+00    6.263158e+01    0.000000e+00
    0.000000e+00    6.184211e+01    0.000000e+00
    0.000000e+00    6.105263e+01    0.000000e+00
    0.000000e+00    6.026316e+01    0.000000e+00
    0.000000e+00    5.947368e+01    0.000000e+00
    0.000000e+00    5.868421e+01    0.000000e+00
    0.000000e+00    5.789474e+01    0.000000e+00
    0.000000e+00    5.710526e+01    0.000000e+00
    0.000000e+00    5.631579e+01    0.000000e+00
    0.000000e+00    5.552632e+01    0.000000e+00
    0.000000e+00    5.473684e+01    0.000000e+00
    0.000000e+00    5.394737e+01    0.000000e+00
    0.000000e+00    5.315789e+01    0.000000e+00
    0.000000e+00    5.236842e+01    0.000000e+00
    0.000000e+00    5.157895e+01    0.000000e+00
    0.000000e+00    5.078947e+01    0.000000e+00
    0.000000e+00    5.000000e+01    0.000000e+00
    0.000000e+00    4.921053e+01    0.000000e+00
    0.000000e+00    4.842105e+01    0.000000e+00
    0.000000e+00    4.763158e+01    0.000000e+00
    0.000000e+00    4.684211e+01    0.000000e+00
    0.000000e+00    4.605263e+01    0.000000e+00
    0.000000e+00    4.526316e+01    0.000000e+00
    0.000000e+00    4.447368e+01    0.000000e+00
    0.000000e+00    4.368421e+01    0.000000e+00
    0.000000e+00    4.289474e+01    0.000000e+00
    0.000000e+00    4.210526e+01    0.000000e+00
    0.000000e+00    4.131579e+01    0.000000e+00
    0.000000e+00    4.052632e+01    0.000000e+00
    0.000000e+00    3.973684e+01    0.000000e+00
    0.000000e+00    3.894737e+01    0.000000e+00
    0.000000e+00    3.815789e+01    0.000000e+00
    0.000000e+00    3.736842e+01    0.000000e+00
    0.000000e+00    3.657895e+01    0.000000e+00
    0.000000e+00    3.578947e+01    0.000000e+00
    1.250203e+01    3.510067e+01    0.000000e+00
    1.250811e+01    3.520117e+01    0.000000e+00
    1.251823e+01    3.530134e+01    0.000000e+00
    1.253237e+01    3.540103e+01    0.000000e+00
    1.255052e+01    3.550006e+01    0.000000e+00
    1.257265e+01    3.559829e+01    0.000000e+00
    1.259870e+01    3.569555e+01    0.000000e+00
    1.262866e+01    3.579167e+01    0.000000e+00
    1.266246e+01    3.588651e+01    0.000000e+00
    1.270005e+01    3.597992e+01    0.000000e+00
    1.274137e+01    3.607173e+01    0.000000e+00
    1.278636e+01    3.616181e+01    0.000000e+00
    1.283494e+01    3.625000e+01    0.000000e+00
    1.288702e+01    3.633617e+01    0.000000e+00
    1.294254e+01    3.642016e+01    0.000000e+00
    1.300139e+01    3.650185e+01    0.000000e+00
    1.306349e+01    3.658111e+01    0.000000e+00
    1.312872e+01    3.665781e+01    0.000000e+00
    1.319699e+01    3.673181e+01    0.000000e+00
    1.326819e+01    3.680301e+01    0.000000e+00
    1.334219e+01    3.687128e+01    0.000000e+00
    1.341889e+01    3.693651e+01    0.000000e+00
    1.349814e+01    3.699861e+01    0.000000e+00
    1.357984e+01    3.705746e+01    0.000000e+00
    1.366384e+01    3.711298e+01    0.000000e+00
    1.375000e+01    3.716506e+01    0.000000e+00
    1.383819e+01    3.721364e+01    0.000000e+00
    1.392827e+01    3.725863e+01    0.000000e+00
    1.402008e+01    3.729995e+01    0.000000e+00
    1.411349e+01    3.733754e+01    0.000000e+00
    1.420833e+01    3.737134e+01    0.000000e+00
    1.430446e+01    3.740129e+01    0.000000e+00
    1.440171e+01    3.742735e+01    0.000000e+00
    1.449994e+01    3.744948e+01    0.000000e+00
    1.459897e+01    3.746762e+01    0.000000e+00
    1.469866e+01    3.748177e+01    0.000000e+00
    1.479883e+01    3.749189e+01    0.000000e+00
    1.489933e+01    3.749797e+01    0.000000e+00
    1.607854e+01    3.047861e+01    0.000000e+00
    1.714151e+01    3.160403e+01    0.000000e+00
    1.816768e+01    3.154492e+01    0.000000e+00
    1.926006e+01    3.158983e+01    0.000000e+00
    2.035475e+01    3.162922e+01    0.000000e+00
    2.147062e+01    3.157861e+01    0.000000e+00
    2.255011e+01    3.175008e+01    0.000000e+00
    2.362720e+01    3.162022e+01    0.000000e+00
    2.486407e+01    3.152731e+01    0.000000e+00
    2.572129e+01    3.177261e+01    0.000000e+00
    2.652888e+01    3.172119e+01    0.000000e+00
    2.777350e+01    3.153714e+01    0.000000e+00
    2.889488e+01    3.153584e+01    0.000000e+00
    2.912881e+01    3.280695e+01    0.000000e+00
    2.784237e+01    3.290233e+01    0.000000e+00
    2.655843e+01    3.289405e+01    0.000000e+00
    2.562675e+01    3.279846e+01    0.000000e+00
    2.466498e+01    3.271870e+01    0.000000e+00
    2.379209e+01    3.277611e+01    0.000000e+00
    2.249275e+01    3.281548e+01    0.000000e+00
    2.136452e+01    3.263234e+01    0.000000e+00
    2.035126e+01    3.271758e+01    0.000000e+00
    1.928756e+01    3.273225e+01    0.000000e+00
    1.821326e+01    3.273358e+01    0.000000e+00
    1.709536e+01    3.046578e+01    0.000000e+00
    1.822497e+01    3.043477e+01    0.000000e+00
    1.929808e+01    3.050971e+01    0.000000e+00
    2.044713e+01    3.047143e+01    0.000000e+00
    2.144777e+01    3.051476e+01    0.000000e+00
    2.258049e+01    3.041748e+01    0.000000e+00
    2.359283e+01    3.048572e+01    0.000000e+00
    2.469951e+01    3.043951e+01    0.000000e+00
    2.598878e+01    3.041540e+01    0.000000e+00
    2.682075e+01    3.056102e+01    0.000000e+00
    2.780761e+01    3.076663e+01    0.000000e+00
    2.899491e+01    3.075694e+01    0.000000e+00
    1.612087e+01    2.845572e+01    0.000000e+00
    1.714738e+01    2.824356e+01    0.000000e+00
    1.808983e+01    2.811361e+01    0.000000e+00
    1.924313e+01    2.822201e+01    0.000000e+00
    2.016956e+01    2.835720e+01    0.000000e+00
    2.151491e+01    2.830191e+01    0.000000e+00
    2.263555e+01    2.826325e+01    0.000000e+00
    2.355438e+01    2.820573e+01    0.000000e+00
    2.487147e+01    2.832501e+01    0.000000e+00
    2.580869e+01    2.823830e+01    0.000000e+00
    2.690804e+01    2.802912e+01    0.000000e+00
    2.770454e+01    2.816493e+01    0.000000e+00
    2.918735e+01    2.822560e+01    0.000000e+00
    2.854731e+01    2.935221e+01    0.000000e+00
    2.778413e+01    2.932753e+01    0.000000e+00
    2.690825e+01    2.930241e+01    0.000000e+00
    2.598633e+01    2.921752e+01    0.000000e+00
    2.463000e+01    2.938085e+01    0.000000e+00
    2.341097e+01    2.936000e+01    0.000000e+00
    2.239484e+01    2.933957e+01    0.000000e+00
    2.130935e+01    2.947515e+01    0.000000e+00
    2.038238e+01    2.934300e+01    0.000000e+00
    1.935951e+01    2.925048e+01    0.000000e+00
    1.818637e+01    2.945176e+01    0.000000e+00
    1.708283e+01    2.942067e+01    0.000000e+00
    1.615692e+01    2.937438e+01    0.000000e+00
    1.604169e+01    2.681209e+01    0.000000e+00
    1.712049e+01    2.702078e+01    0.000000e+00
    1.823003e+01    2.717468e+01    0.000000e+00
    1.932348e+01    2.709532e+01    0.000000e+00
    2.035804e+01    2.717615e+01    0.000000e+00
    2.139311e+01    2.721853e+01    0.000000e+00
    2.245535e+01    2.700488e+01    0.000000e+00
    2.358277e+01    2.715039e+01    0.000000e+00
    2.485327e+01    2.725299e+01    0.000000e+00
    2.560509e+01    2.738181e+01    0.000000e+00
    2.702834e+01    2.718495e+01    0.000000e+00
    2.790274e+01    2.712882e+01    0.000000e+00
    2.860125e+01    2.708986e+01    0.000000e+00
    1.624767e+01    2.611914e+01    0.000000e+00
    1.712733e+01    2.589425e+01    0.000000e+00
    1.827608e+01    2.591841e+01    0.000000e+00
    1.929902e+01    2.587492e+01    0.000000e+00
    2.039459e+01    2.590066e+01    0.000000e+00
    2.150806e+01    2.597075e+01    0.000000e+00
    2.260876e+01    2.588403e+01    0.000000e+00
    2.350484e+01    2.594896e+01    0.000000e+00
    2.480186e+01    2.599171e+01    0.000000e+00
    2.552502e+01    2.583609e+01    0.000000e+00
    2.702716e+01    2.585508e+01    0.000000e+00
    2.790208e+01    2.594995e+01    0.000000e+00
    2.866965e+01    2.591302e+01    0.000000e+00
    1.636225e+01    2.488620e+01    0.000000e+00
    1.701630e+01    2.484873e+01    0.000000e+00
    1.834754e+01    2.487631e+01    0.000000e+00
    1.937042e+01    2.464320e+01    0.000000e+00
    2.034965e+01    2.476600e+01    0.000000e+00
    2.146130e+01    2.468800e+01    0.000000e+00
    2.257338e+01    2.491584e+01    0.000000e+00
    2.365978e+01    2.472630e+01    0.000000e+00
    2.483719e+01    2.478916e+01    0.000000e+00
    2.556125e+01    2.499188e+01    0.000000e+00
    2.704646e+01    2.498234e+01    0.000000e+00
    2.798460e+01    2.492801e+01    0.000000e+00
    2.899850e+01    2.510879e+01    0.000000e+00
    1.576885e+01    2.374105e+01    0.000000e+00
    1.721565e+01    2.372357e+01    0.000000e+00
    1.797885e+01    2.374970e+01    0.000000e+00
    1.920541e+01    2.375593e+01    0.000000e+00
    2.028789e+01    2.370795e+01    0.000000e+00
    2.146733e+01    2.367761e+01    0.000000e+00
    2.251220e+01    2.355522e+01    0.000000e+00
    2.357832e+01    2.357868e+01    0.000000e+00
    2.453005e+01    2.377786e+01    0.000000e+00
    2.574863e+01    2.359598e+01    0.000000e+00
    2.704875e+01    2.362864e+01    0.000000e+00
    2.796402e+01    2.365437e+01    0.000000e+00
    2.894322e+01    2.356104e+01    0.000000e+00
    1.612405e+01    2.255281e+01    0.000000e+00
    1.705455e+01    2.258302e+01    0.000000e+00
    1.789094e+01    2.262032e+01    0.000000e+00
    1.918859e+01    2.271306e+01    0.000000e+00
    2.035958e+01    2.261238e+01    0.000000e+00
    2.144058e+01    2.255529e+01    0.000000e+00
    2.253319e+01    2.252801e+01    0.000000e+00
    2.383563e+01    2.264169e+01    0.000000e+00
    2.459557e+01    2.244469e+01    0.000000e+00
    2.571560e+01    2.270909e+01    0.000000e+00
    2.707472e+01    2.248693e+01    0.000000e+00
    2.798776e+01    2.247708e+01    0.000000e+00
    2.912193e+01    2.248471e+01    0.000000e+00
    1.599713e+01    2.115428e+01    0.000000e+00
    1.717855e+01    2.119348e+01    0.000000e+00
    1.810566e+01    2.138440e+01    0.000000e+00
    1.902509e+01    2.133050e+01    0.000000e+00
    2.038131e+01    2.137409e+01    0.000000e+00
    2.141216e+01    2.161704e+01    0.000000e+00
    2.240768e+01    2.146280e+01    0.000000e+00
    2.374790e+01    2.147450e+01    0.000000e+00
    2.486404e+01    2.133493e+01    0.000000e+00
    2.588756e+01    2.158216e+01    0.000000e+00
    2.689839e+01    2.151745e+01    0.000000e+00
    2.772786e+01    2.145740e+01    0.000000e+00
    2.905233e+01    2.137924e+01    0.000000e+00
    1.614383e+01    2.042450e+01    0.000000e+00
    1.737833e+01    2.045341e+01    0.000000e+00
    1.816141e+01    2.035092e+01    0.000000e+00
    1.903651e+01    2.042739e+01    0.000000e+00
    2.049824e+01    2.037669e+01    0.000000e+00
    2.127681e+01    2.038934e+01    0.000000e+00
    2.257760e+01    2.030767e+01    0.000000e+00
    2.348592e+01    2.037925e+01    0.000000e+00
    2.468649e+01    2.024639e+01    0.000000e+00
    2.591059e+01    2.026628e+01    0.000000e+00
    2.690380e+01    2.052183e+01    0.000000e+00
    2.792099e+01    2.027593e+01    0.000000e+00
    2.907286e+01    2.044473e+01    0.000000e+00
    1.611798e+01    1.921845e+01    0.000000e+00
    1.715062e+01    1.902423e+01    0.000000e+00
    1.813709e+01    1.909212e+01    0.000000e+00
    1.906859e+01    1.904483e+01    0.000000e+00
    2.035735e+01    1.912271e+01    0.000000e+00
    2.124094e+01    1.900260e+01    0.000000e+00
    2.251868e+01    1.906770e+01    0.000000e+00
    2.361340e+01    1.929846e+01    0.000000e+00
    2.467644e+01    1.932726e+01    0.000000e+00
    2.599432e+01    1.934885e+01    0.000000e+00
    2.690943e+01    1.926785e+01    0.000000e+00
    2.784120e+01    1.934331e+01    0.000000e+00
    2.863240e+01    1.916764e+01    0.000000e+00
    1.575272e+01    1.803977e+01    0.000000e+00
    1.715204e+01    1.826055e+01    0.000000e+00
    1.836512e+01    1.806048e+01    0.000000e+00
    1.922645e+01    1.807291e+01    0.000000e+00
    2.025953e+01    1.811419e+01    0.000000e+00
    2.116798e+01    1.816555e+01    0.000000e+00
    2.245726e+01    1.809354e+01    0.000000e+00
    2.383537e+01    1.822303e+01    0.000000e+00
    2.456533e+01    1.805307e+01    0.000000e+00
    2.598272e+01    1.795172e+01    0.000000e+00
    2.684970e+01    1.801279e+01    0.000000e+00
    2.761386e+01    1.790116e+01    0.000000e+00
    2.913116e+01    1.784076e+01    0.000000e+00
    1.647529e+01    1.693723e+01    0.000000e+00
    1.726372e+01    1.701089e+01    0.000000e+00
    1.818752e+01    1.701913e+01    0.000000e+00
    1.922312e+01    1.703800e+01    0.000000e+00
    2.023480e+01    1.693241e+01    0.000000e+00
    2.118730e+01    1.683370e+01    0.000000e+00
    2.255077e+01    1.693399e+01    0.000000e+00
    2.377228e+01    1.680372e+01    0.000000e+00
    2.454862e+01    1.697779e+01    0.000000e+00
    2.598247e+01    1.705983e+01    0.000000e+00
    2.686932e+01    1.699512e+01    0.000000e+00
    2.773603e+01    1.714294e+01    0.000000e+00
    2.865841e+01    1.709370e+01    0.000000e+00
    1.645109e+01    1.574654e+01    0.000000e+00
    1.733491e+01    1.581785e+01    0.000000e+00
    1.823508e+01    1.584057e+01    0.000000e+00
    1.918505e+01    1.589206e+01    0.000000e+00
    2.020874e+01    1.566846e+01    0.000000e+00
    2.132479e+01    1.591021e+01    0.000000e+00
    2.247507e+01    1.567681e+01    0.000000e+00
    2.366349e+01    1.577573e+01    0.000000e+00
    2.455294e+01    1.575628e+01    0.000000e+00
    2.595706e+01    1.568302e+01    0.000000e+00
    2.689635e+01    1.573583e+01    0.000000e+00
    2.777921e+01    1.575136e+01    0.000000e+00
    2.854535e+01    1.582597e+01    0.000000e+00
    1.610000e+01    1.492774e+01    0.000000e+00
    1.725104e+01    1.471879e+01    0.000000e+00
    1.821978e+01    1.466834e+01    0.000000e+00
    1.913988e+01    1.467844e+01    0.000000e+00
    2.010220e+01    1.476113e+01    0.000000e+00
    2.155793e+01    1.471541e+01    0.000000e+00
    2.245725e+01    1.467991e+01    0.000000e+00
    2.364411e+01    1.470855e+01    0.000000e+00
    2.473198e+01    1.470202e+01    0.000000e+00
    2.580165e+01    1.471201e+01    0.000000e+00
    2.665013e+01    1.468676e+01    0.000000e+00
    2.782503e+01    1.448190e+01    0.000000e+00
    2.922569e+01    1.470150e+01    0.000000e+00
    1.612037e+01    1.351631e+01    0.000000e+00
    1.715102e+01    1.330534e+01    0.000000e+00
    1.824089e+01    1.327614e+01    0.000000e+00
    1.920190e+01    1.340470e+01    0.000000e+00
    2.014235e+01    1.338682e+01    0.000000e+00
    2.156868e+01    1.351801e+01    0.000000e+00
    2.247619e+01    1.361295e+01    0.000000e+00
    2.349852e+01    1.382333e+01    0.000000e+00
    2.492813e+01    1.353154e+01    0.000000e+00
    2.583578e+01    1.374617e+01    0.000000e+00
    2.680209e+01    1.365771e+01    0.000000e+00
    2.778760e+01    1.373392e+01    0.000000e+00
    2.862704e+01    1.359655e+01    0.000000e+00
    1.575154e+01    1.240868e+01    0.000000e+00
    1.713176e+01    1.260396e+01    0.000000e+00
    1.827483e+01    1.259718e+01    0.000000e+00
    1.943727e+01    1.240786e+01    0.000000e+00
    2.031534e+01    1.241799e+01    0.000000e+00
    2.141861e+01    1.245868e+01    0.000000e+00
    2.248383e+01    1.251438e+01    0.000000e+00
    2.339283e+01    1.241171e+01    0.000000e+00
    2.488527e+01    1.230232e+01    0.000000e+00
    2.582077e+01    1.236800e+01    0.000000e+00
    2.673228e+01    1.223884e+01    0.000000e+00
    2.764796e+01    1.222013e+01    0.000000e+00
    2.923633e+01    1.241017e+01    0.000000e+00
    1.645024e+01    1.131316e+01    0.000000e+00
    1.726124e+01    1.134582e+01    0.000000e+00
    1.824920e+01    1.134998e+01    0.000000e+00
    1.923092e+01    1.133586e+01    0.000000e+00
    2.030775e+01    1.136724e+01    0.000000e+00
    2.139102e+01    1.127499e+01    0.000000e+00
    2.249205e+01    1.119599e+01    0.000000e+00
    2.360875e+01    1.126583e+01    0.000000e+00
    2.475085e+01    1.133190e+01    0.000000e+00
    2.578259e+01    1.130809e+01    0.000000e+00
    2.673633e+01    1.141214e+01    0.000000e+00
    2.780457e+01    1.139455e+01    0.000000e+00
    2.888365e+01    1.123415e+01    0.000000e+00
    1.596175e+01    9.916136e+00    0.000000e+00
    1.718426e+01    9.847951e+00    0.000000e+00
    1.830306e+01    9.873774e+00    0.000000e+00
    1.933209e+01    9.954060e+00    0.000000e+00
    2.032215e+01    1.018313e+01    0.000000e+00
    2.135234e+01    1.001117e+01    0.000000e+00
    2.250509e+01    1.013958e+01    0.000000e+00
    2.343150e+01    1.017157e+01    0.000000e+00
    2.490163e+01    1.011220e+01    0.000000e+00
    2.576089e+01    1.013010e+01    0.000000e+00
    2.653396e+01    1.000952e+01    0.000000e+00
    2.778760e+01    9.980884e+00    0.000000e+00
    2.915644e+01    9.872786e+00    0.000000e+00
    1.589813e+01    9.099673e+00    0.000000e+00
    1.719022e+01    9.149207e+00    0.000000e+00
    1.849155e+01    9.159011e+00    0.000000e+00
    1.939365e+01    9.160743e+00    0.000000e+00
    2.036583e+01    9.051300e+00    0.000000e+00
    2.138713e+01    9.180368e+00    0.000000e+00
    2.256262e+01    9.144361e+00    0.000000e+00
    2.368081e+01    9.137044e+00    0.000000e+00
    2.475639e+01    9.255954e+00    0.000000e+00
    2.573488e+01    9.130479e+00    0.000000e+00
    2.667375e+01    9.272820e+00    0.000000e+00
    2.773192e+01    9.295479e+00    0.000000e+00
    2.866604e+01    9.175023e+00    0.000000e+00
    1.610504e+01    7.916506e+00    0.000000e+00
    1.715188e+01    7.727097e+00    0.000000e+00
    1.827195e+01    7.655304e+00    0.000000e+00
    1.933534e+01    7.608698e+00    0.000000e+00
    2.037168e+01    7.593413e+00    0.000000e+00
    2.147987e+01    7.613694e+00    0.000000e+00
    2.258719e+01    7.878234e+00    0.000000e+00
    2.367687e+01    7.689307e+00    0.000000e+00
    2.473549e+01    7.788916e+00    0.000000e+00
    2.572463e+01    7.789542e+00    0.000000e+00
    2.673033e+01    7.800086e+00    0.000000e+00
    2.771452e+01    7.834841e+00    0.000000e+00
    2.852303e+01    7.905770e+00    0.000000e+00
    1.575178e+01    6.781492e+00    0.000000e+00
    1.713513e+01    6.984129e+00    0.000000e+00
    1.826763e+01    6.970811e+00    0.000000e+00
    1.932368e+01    6.958486e+00    0.000000e+00
    2.032801e+01    6.944429e+00    0.000000e+00
    2.150538e+01    6.736932e+00    0.000000e+00
    2.281121e+01    6.760499e+00    0.000000e+00
    2.361567e+01    6.709765e+00    0.000000e+00
    2.449941e+01    6.570645e+00    0.000000e+00
    2.568266e+01    6.555592e+00    0.000000e+00
    2.673823e+01    6.553427e+00    0.000000e+00
    2.783933e+01    6.558972e+00    0.000000e+00
    2.922303e+01    6.765279e+00    0.000000e+00
    1.644964e+01    5.681724e+00    0.000000e+00
    1.726366e+01    5.714093e+00    0.000000e+00
    1.827687e+01    5.708410e+00    0.000000e+00
    1.931421e+01    5.722579e+00    0.000000e+00
    2.031305e+01    5.759120e+00    0.000000e+00
    2.145874e+01    5.740866e+00    0.000000e+00
    2.254544e+01    5.737478e+00    0.000000e+00
    2.357011e+01    5.700895e+00    0.000000e+00
    2.462695e+01    5.856133e+00    0.000000e+00
    2.566287e+01    5.875045e+00    0.000000e+00
    2.672294e+01    5.843287e+00    0.000000e+00
    2.779434e+01    5.805864e+00    0.000000e+00
    2.862604e+01    5.655519e+00    0.000000e+00
    1.595612e+01    4.291947e+00    0.000000e+00
    1.715997e+01    4.250577e+00    0.000000e+00
    1.805040e+01    4.389106e+00    0.000000e+00
    1.954037e+01    4.303518e+00    0.000000e+00
    2.040525e+01    4.488261e+00    0.000000e+00
    2.145955e+01    4.560842e+00    0.000000e+00
    2.251839e+01    4.568714e+00    0.000000e+00
    2.355242e+01    4.538441e+00    0.000000e+00
    2.464484e+01    4.378713e+00    0.000000e+00
    2.544064e+01    4.507314e+00    0.000000e+00
    2.667402e+01    4.307042e+00    0.000000e+00
    2.780434e+01    4.338412e+00    0.000000e+00
    2.915321e+01    4.313653e+00    0.000000e+00
    1.588318e+01    3.472064e+00    0.000000e+00
    1.718699e+01    3.514048e+00    0.000000e+00
    1.847705e+01    3.387968e+00    0.000000e+00
    1.941143e+01    3.400980e+00    0.000000e+00
    2.042013e+01    3.404937e+00    0.000000e+00
    2.146441e+01    3.426975e+00    0.000000e+00
    2.251115e+01    3.437663e+00    0.000000e+00
    2.353035e+01    3.435385e+00    0.000000e+00
    2.467636e+01    3.429645e+00    0.000000e+00
    2.568308e+01    3.448192e+00    0.000000e+00
    2.671110e+01    3.444424e+00    0.000000e+00
    2.781229e+01    3.595233e+00    0.000000e+00
    2.872934e+01    3.552847e+00    0.000000e+00
    1.604790e+01    2.311948e+00    0.000000e+00
    1.692262e+01    2.185316e+00    0.000000e+00
    1.844872e+01    2.190354e+00    0.000000e+00
    1.937358e+01    2.411205e+00    0.000000e+00
    2.037197e+01    2.168545e+00    0.000000e+00
    2.147235e+01    2.292470e+00    0.000000e+00
    2.252122e+01    2.282679e+00    0.000000e+00
    2.357290e+01    2.313937e+00    0.000000e+00
    2.467995e+01    2.455521e+00    0.000000e+00
    2.569150e+01    2.187876e+00    0.000000e+00
    2.673449e+01    2.278405e+00    0.000000e+00
    2.768764e+01    2.071201e+00    0.000000e+00
    2.911147e+01    2.163830e+00    0.000000e+00
    1.594090e+01    8.562957e-01    0.000000e+00
    1.711518e+01    1.313810e+00    0.000000e+00
    1.825143e+01    1.325134e+00    0.000000e+00
    1.933222e+01    8.955818e-01    0.000000e+00
    2.040334e+01    1.287699e+00    0.000000e+00
    2.144232e+01    1.284465e+00    0.000000e+00
    2.256666e+01    7.892876e-01    0.000000e+00
    2.369182e+01    1.146480e+00    0.000000e+00
    2.468674e+01    9.949879e-01    0.000000e+00
    2.573716e+01    1.310740e+00    0.000000e+00
    2.675534e+01    1.336028e+00    0.000000e+00
    2.789117e+01    1.040760e+00    0.000000e+00
    2.910348e+01    1.232769e+00    0.000000e+00
    2.910737e+01    3.375451e+01    0.000000e+00
    2.789548e+01    3.393460e+01    0.000000e+00
    2.670625e+01    3.372208e+01    0.000000e+00
    2.558318e+01    3.397761e+01    0.000000e+00
    2.457287e+01    3.381511e+01    0.000000e+00
    2.380310e+01    3.360367e+01    0.000000e+00
    2.250921e+01    3.374763e+01    0.000000e+00
    2.152976e+01    3.393306e+01    0.000000e+00
    2.029428e+01    3.393243e+01    0.000000e+00
    1.932169e+01    3.381076e+01    0.000000e+00
    1.510134e+01    3.216123e+01    0.000000e+00
    1.509289e+01    3.205810e+01    0.000000e+00
    1.508635e+01    3.136654e+01    0.000000e+00
    1.508629e+01    3.146507e+01    0.000000e+00
    1.843633e+01    3.491377e+01    0.000000e+00
    1.508652e+01    3.185943e+01    0.000000e+00
    1.508630e+01    3.176077e+01    0.000000e+00
    1.508626e+01    3.166219e+01    0.000000e+00
    1.508629e+01    3.156362e+01    0.000000e+00
    1.508683e+01    3.126812e+01    0.000000e+00
    1.508767e+01    3.116974e+01    0.000000e+00
    1.508887e+01    3.107133e+01    0.000000e+00
    1.509011e+01    3.097276e+01    0.000000e+00
    1.509137e+01    3.087416e+01    0.000000e+00
    1.509270e+01    3.077449e+01    0.000000e+00
    1.509528e+01    3.067211e+01    0.000000e+00
    1.773049e+01    3.488414e+01    0.000000e+00
    1.784285e+01    3.489703e+01    0.000000e+00
    1.794507e+01    3.490623e+01    0.000000e+00
    1.804325e+01    3.491151e+01    0.000000e+00
    1.814093e+01    3.491332e+01    0.000000e+00
    1.823930e+01    3.491374e+01    0.000000e+00
    1.833780e+01    3.491377e+01    0.000000e+00
    1.853479e+01    3.491341e+01    0.000000e+00
    1.863320e+01    3.491276e+01    0.000000e+00
    1.873167e+01    3.491181e+01    0.000000e+00
    1.883027e+01    3.491085e+01    0.000000e+00
    1.892895e+01    3.491005e+01    0.000000e+00
    1.902755e+01    3.490947e+01    0.000000e+00
    1.912544e+01    3.490961e+01    0.000000e+00
    1.922386e+01    3.490947e+01    0.000000e+00
    1.932484e+01    3.490616e+01    0.000000e+00
    1.511562e+01    3.227286e+01    0.000000e+00
    1.508833e+01    3.195828e+01    0.000000e+00
    1.726485e+01    3.375268e+01    0.000000e+00
    1.715783e+01    3.357404e+01    0.000000e+00
    1.667564e+01    3.303072e+01    0.000000e+00
    1.556684e+01    3.247926e+01    0.000000e+00
    1.754159e+01    3.453568e+01    0.000000e+00
    1.596499e+01    3.260223e+01    0.000000e+00
    1.749645e+01    3.433125e+01    0.000000e+00
    1.624735e+01    3.273513e+01    0.000000e+00
    1.731276e+01    3.384507e+01    0.000000e+00
    1.752111e+01    3.443314e+01    0.000000e+00
    1.675319e+01    3.309968e+01    0.000000e+00
    1.576886e+01    3.253252e+01    0.000000e+00
    1.606081e+01    3.264286e+01    0.000000e+00
    1.739768e+01    3.403503e+01    0.000000e+00
    1.633768e+01    3.278686e+01    0.000000e+00
    1.642591e+01    3.284247e+01    0.000000e+00
    1.659516e+01    3.296471e+01    0.000000e+00
    1.746745e+01    3.423114e+01    0.000000e+00
    1.682811e+01    3.317149e+01    0.000000e+00
    1.546419e+01    3.246004e+01    0.000000e+00
    1.735695e+01    3.393928e+01    0.000000e+00
    1.703607e+01    3.340486e+01    0.000000e+00
    1.709876e+01    3.348820e+01    0.000000e+00
    1.586758e+01    3.256556e+01    0.000000e+00
    1.566850e+01    3.250394e+01    0.000000e+00
    1.615497e+01    3.268718e+01    0.000000e+00
    1.743442e+01    3.413242e+01    0.000000e+00
    1.690038e+01    3.324636e+01    0.000000e+00
    1.721316e+01    3.366232e+01    0.000000e+00
    1.513066e+01    3.048068e+01    0.000000e+00
    1.951642e+01    3.486744e+01    0.000000e+00
    1.518685e+01    3.030449e+01    0.000000e+00
    1.968802e+01    3.480286e+01    0.000000e+00
    1.526834e+01    3.000168e+01    0.000000e+00
    1.998045e+01    3.470594e+01    0.000000e+00
    1.867996e+01    3.482410e+01    0.000000e+00
    1.517729e+01    3.112324e+01    0.000000e+00
    1.517300e+01    3.171148e+01    0.000000e+00
    1.848483e+01    3.482721e+01    0.000000e+00
    1.517297e+01    3.151381e+01    0.000000e+00
    1.518403e+01    3.092517e+01    0.000000e+00
    1.519324e+01    3.072361e+01    0.000000e+00
    1.809307e+01    3.482514e+01    0.000000e+00
    1.828849e+01    3.482721e+01    0.000000e+00
    1.887872e+01    3.481858e+01    0.000000e+00
    1.907685e+01    3.481758e+01    0.000000e+00
    1.927016e+01    3.481661e+01    0.000000e+00
    1.517434e+01    3.190898e+01    0.000000e+00
    1.819029e+01    3.482670e+01    0.000000e+00
    1.518813e+01    3.082642e+01    0.000000e+00
    1.517256e+01    3.141445e+01    0.000000e+00
    1.517338e+01    3.181013e+01    0.000000e+00
    1.517307e+01    3.161282e+01    0.000000e+00
    1.518131e+01    3.102489e+01    0.000000e+00
    1.799721e+01    3.481899e+01    0.000000e+00
    1.838672e+01    3.482718e+01    0.000000e+00
    1.858186e+01    3.482653e+01    0.000000e+00
    1.877873e+01    3.482079e+01    0.000000e+00
    1.897793e+01    3.481680e+01    0.000000e+00
    1.520995e+01    3.059960e+01    0.000000e+00
    1.939098e+01    3.479420e+01    0.000000e+00
    1.511389e+01    3.239120e+01    0.000000e+00
    1.696977e+01    3.332422e+01    0.000000e+00
    1.761006e+01    3.488585e+01    0.000000e+00
    1.651179e+01    3.290191e+01    0.000000e+00
    1.761648e+01    3.446930e+01    0.000000e+00
    1.669265e+01    3.292924e+01    0.000000e+00
    1.614548e+01    3.258525e+01    0.000000e+00
    1.574244e+01    3.243487e+01    0.000000e+00
    1.541491e+01    3.236823e+01    0.000000e+00
    1.642945e+01    3.273892e+01    0.000000e+00
    1.736732e+01    3.375812e+01    0.000000e+00
    1.685207e+01    3.307121e+01    0.000000e+00
    1.552852e+01    3.238534e+01    0.000000e+00
    1.741426e+01    3.385480e+01    0.000000e+00
    1.731643e+01    3.366333e+01    0.000000e+00
    1.584557e+01    3.246669e+01    0.000000e+00
    1.720261e+01    3.348010e+01    0.000000e+00
    1.594703e+01    3.250249e+01    0.000000e+00
    1.756533e+01    3.425721e+01    0.000000e+00
    1.633683e+01    3.268353e+01    0.000000e+00
    1.713941e+01    3.339244e+01    0.000000e+00
    1.753329e+01    3.415434e+01    0.000000e+00
    1.677422e+01    3.299903e+01    0.000000e+00
    1.759270e+01    3.436208e+01    0.000000e+00
    1.749734e+01    3.405294e+01    0.000000e+00
    1.624208e+01    3.263241e+01    0.000000e+00
    1.745751e+01    3.395312e+01    0.000000e+00
    1.726154e+01    3.357056e+01    0.000000e+00
    1.692786e+01    3.314615e+01    0.000000e+00
    1.563642e+01    3.240784e+01    0.000000e+00
    1.604698e+01    3.254206e+01    0.000000e+00
    1.763453e+01    3.458278e+01    0.000000e+00
    1.530028e+01    3.044983e+01    0.000000e+00
    1.953431e+01    3.469387e+01    0.000000e+00
    1.541621e+01    3.024507e+01    0.000000e+00
    1.972492e+01    3.456147e+01    0.000000e+00
    1.541458e+01    2.954585e+01    0.000000e+00
    2.043111e+01    3.453790e+01    0.000000e+00
    1.526258e+01    3.204989e+01    0.000000e+00
    1.526042e+01    3.156126e+01    0.000000e+00
    1.525116e+01    3.126806e+01    0.000000e+00
    1.526127e+01    3.186033e+01    0.000000e+00
    1.526049e+01    3.166154e+01    0.000000e+00
    1.525835e+01    3.145711e+01    0.000000e+00
    1.526072e+01    3.176085e+01    0.000000e+00
    1.843652e+01    3.474126e+01    0.000000e+00
    1.833776e+01    3.474018e+01    0.000000e+00
    1.823928e+01    3.473991e+01    0.000000e+00
    1.814117e+01    3.473743e+01    0.000000e+00
    1.795441e+01    3.473132e+01    0.000000e+00
    1.903029e+01    3.472104e+01    0.000000e+00
    1.892770e+01    3.472189e+01    0.000000e+00
    1.882530e+01    3.472589e+01    0.000000e+00
    1.528786e+01    3.078441e+01    0.000000e+00
    1.527594e+01    3.098016e+01    0.000000e+00
    1.872357e+01    3.473264e+01    0.000000e+00
    1.526885e+01    3.108241e+01    0.000000e+00
    1.529473e+01    3.224974e+01    0.000000e+00
    1.775591e+01    3.470060e+01    0.000000e+00
    1.660762e+01    3.286238e+01    0.000000e+00
    1.707215e+01    3.330747e+01    0.000000e+00
    1.700140e+01    3.322497e+01    0.000000e+00
    1.651975e+01    3.279881e+01    0.000000e+00
    1.548475e+01    3.229092e+01    0.000000e+00
    1.771062e+01    3.450933e+01    0.000000e+00
    1.559784e+01    3.231060e+01    0.000000e+00
    1.581981e+01    3.236645e+01    0.000000e+00
    1.592568e+01    3.240108e+01    0.000000e+00
    1.571015e+01    3.233637e+01    0.000000e+00
    1.768988e+01    3.439750e+01    0.000000e+00
    1.766385e+01    3.428720e+01    0.000000e+00
    1.759879e+01    3.407401e+01    0.000000e+00
    1.763318e+01    3.417982e+01    0.000000e+00
    1.756003e+01    3.397007e+01    0.000000e+00
    1.602990e+01    3.243925e+01    0.000000e+00
    1.751783e+01    3.386769e+01    0.000000e+00
    1.747218e+01    3.376679e+01    0.000000e+00
    1.613267e+01    3.248108e+01    0.000000e+00
    1.623387e+01    3.252674e+01    0.000000e+00
    1.687610e+01    3.297017e+01    0.000000e+00
    1.633326e+01    3.257676e+01    0.000000e+00
    1.679603e+01    3.289642e+01    0.000000e+00
    1.742259e+01    3.366741e+01    0.000000e+00
    1.695238e+01    3.304339e+01    0.000000e+00
    1.643062e+01    3.263174e+01    0.000000e+00
    1.736866e+01    3.356982e+01    0.000000e+00
    1.724675e+01    3.338183e+01    0.000000e+00
    1.731005e+01    3.347449e+01    0.000000e+00
    1.537133e+01    3.059821e+01    0.000000e+00
    1.937785e+01    3.464118e+01    0.000000e+00
    1.549251e+01    3.045817e+01    0.000000e+00
    1.950534e+01    3.450662e+01    0.000000e+00
    1.559159e+01    2.996170e+01    0.000000e+00
    1.998351e+01    3.435207e+01    0.000000e+00
    1.534704e+01    3.115440e+01    0.000000e+00
    1.922831e+01    3.463649e+01    0.000000e+00
    1.866135e+01    3.465137e+01    0.000000e+00
    1.909452e+01    3.461938e+01    0.000000e+00
    1.534892e+01    3.171124e+01    0.000000e+00
    1.534612e+01    3.149895e+01    0.000000e+00
    1.535050e+01    3.181253e+01    0.000000e+00
    1.534849e+01    3.160737e+01    0.000000e+00
    1.533687e+01    3.138557e+01    0.000000e+00
    1.829027e+01    3.465258e+01    0.000000e+00
    1.535472e+01    3.191629e+01    0.000000e+00
    1.535648e+01    3.202591e+01    0.000000e+00
    1.839205e+01    3.465414e+01    0.000000e+00
    1.849405e+01    3.465906e+01    0.000000e+00
    1.818919e+01    3.464848e+01    0.000000e+00
    1.808557e+01    3.464085e+01    0.000000e+00
    1.797706e+01    3.463708e+01    0.000000e+00
    1.785070e+01    3.466700e+01    0.000000e+00
    1.897999e+01    3.461947e+01    0.000000e+00
    1.536865e+01    3.093450e+01    0.000000e+00
    1.887175e+01    3.462558e+01    0.000000e+00
    1.876476e+01    3.463649e+01    0.000000e+00
    1.536408e+01    3.104439e+01    0.000000e+00
    1.764234e+01    3.473158e+01    0.000000e+00
    1.670877e+01    3.282457e+01    0.000000e+00
    1.703016e+01    3.312028e+01    0.000000e+00
    1.652570e+01    3.269182e+01    0.000000e+00
    1.717853e+01    3.329221e+01    0.000000e+00
    1.753134e+01    3.367498e+01    0.000000e+00
    1.747898e+01    3.357251e+01    0.000000e+00
    1.544188e+01    3.220517e+01    0.000000e+00
    1.600917e+01    3.233490e+01    0.000000e+00
    1.611613e+01    3.237490e+01    0.000000e+00
    1.766407e+01    3.399052e+01    0.000000e+00
    1.762322e+01    3.388409e+01    0.000000e+00
    1.578833e+01    3.226490e+01    0.000000e+00
    1.757914e+01    3.377901e+01    0.000000e+00
    1.590015e+01    3.229849e+01    0.000000e+00
    1.776426e+01    3.432327e+01    0.000000e+00
    1.773448e+01    3.420938e+01    0.000000e+00
    1.697012e+01    3.294992e+01    0.000000e+00
    1.770098e+01    3.409903e+01    0.000000e+00
    1.690864e+01    3.287073e+01    0.000000e+00
    1.622198e+01    3.241851e+01    0.000000e+00
    1.554973e+01    3.221209e+01    0.000000e+00
    1.779665e+01    3.455057e+01    0.000000e+00
    1.567054e+01    3.223568e+01    0.000000e+00
    1.632641e+01    3.246672e+01    0.000000e+00
    1.778833e+01    3.444377e+01    0.000000e+00
    1.642906e+01    3.252064e+01    0.000000e+00
    1.735818e+01    3.337366e+01    0.000000e+00
    1.742135e+01    3.347188e+01    0.000000e+00
    1.710605e+01    3.320463e+01    0.000000e+00
    1.661845e+01    3.275638e+01    0.000000e+00
    1.526656e+01    3.236037e+01    0.000000e+00
    1.532678e+01    3.215348e+01    0.000000e+00
    1.540796e+01    3.074562e+01    0.000000e+00
    1.553038e+01    3.063853e+01    0.000000e+00
    1.932108e+01    3.449537e+01    0.000000e+00
    1.566805e+01    3.028034e+01    0.000000e+00
    1.965914e+01    3.432216e+01    0.000000e+00
    1.585062e+01    2.962589e+01    0.000000e+00
    1.540653e+01    3.127352e+01    0.000000e+00
    1.857454e+01    3.458048e+01    0.000000e+00
    1.916676e+01    3.449923e+01    0.000000e+00
    1.544891e+01    3.112609e+01    0.000000e+00
    1.869428e+01    3.455512e+01    0.000000e+00
    1.903600e+01    3.450604e+01    0.000000e+00
    1.543602e+01    3.154223e+01    0.000000e+00
    1.542640e+01    3.141847e+01    0.000000e+00
    1.544161e+01    3.176538e+01    0.000000e+00
    1.543901e+01    3.165665e+01    0.000000e+00
    1.824059e+01    3.456049e+01    0.000000e+00
    1.813427e+01    3.455129e+01    0.000000e+00
    1.802793e+01    3.453693e+01    0.000000e+00
    1.544645e+01    3.186897e+01    0.000000e+00
    1.545787e+01    3.197445e+01    0.000000e+00
    1.545529e+01    3.087336e+01    0.000000e+00
    1.891859e+01    3.451721e+01    0.000000e+00
    1.880469e+01    3.453360e+01    0.000000e+00
    1.546229e+01    3.099703e+01    0.000000e+00
    1.705282e+01    3.300827e+01    0.000000e+00
    1.681709e+01    3.279024e+01    0.000000e+00
    1.652944e+01    3.258062e+01    0.000000e+00
    1.728918e+01    3.327884e+01    0.000000e+00
    1.764215e+01    3.368665e+01    0.000000e+00
    1.721546e+01    3.318607e+01    0.000000e+00
    1.759212e+01    3.357933e+01    0.000000e+00
    1.620571e+01    3.230825e+01    0.000000e+00
    1.598428e+01    3.222968e+01    0.000000e+00
    1.609527e+01    3.226738e+01    0.000000e+00
    1.768779e+01    3.379500e+01    0.000000e+00
    1.776945e+01    3.401495e+01    0.000000e+00
    1.773000e+01    3.390445e+01    0.000000e+00
    1.780616e+01    3.412795e+01    0.000000e+00
    1.784102e+01    3.424571e+01    0.000000e+00
    1.631521e+01    3.235371e+01    0.000000e+00
    1.586981e+01    3.219412e+01    0.000000e+00
    1.574988e+01    3.215973e+01    0.000000e+00
    1.562218e+01    3.212836e+01    0.000000e+00
    1.672294e+01    3.271585e+01    0.000000e+00
    1.787281e+01    3.437182e+01    0.000000e+00
    1.790023e+01    3.451774e+01    0.000000e+00
    1.642378e+01    3.240562e+01    0.000000e+00
    1.713716e+01    3.309543e+01    0.000000e+00
    1.662739e+01    3.264603e+01    0.000000e+00
    1.753644e+01    3.347311e+01    0.000000e+00
    1.747386e+01    3.336884e+01    0.000000e+00
    1.547608e+01    3.210201e+01    0.000000e+00
    1.568224e+01    3.052450e+01    0.000000e+00
    1.942116e+01    3.433154e+01    0.000000e+00
    1.594178e+01    3.006824e+01    0.000000e+00
    1.622339e+01    2.976071e+01    0.000000e+00
    1.550406e+01    3.134381e+01    0.000000e+00
    1.553475e+01    3.122083e+01    0.000000e+00
    1.851101e+01    3.448349e+01    0.000000e+00
    1.862199e+01    3.448793e+01    0.000000e+00
    1.908934e+01    3.437787e+01    0.000000e+00
    1.840411e+01    3.449952e+01    0.000000e+00
    1.830467e+01    3.447707e+01    0.000000e+00
    1.818660e+01    3.446085e+01    0.000000e+00
    1.553275e+01    3.170955e+01    0.000000e+00
    1.552852e+01    3.158850e+01    0.000000e+00
    1.552272e+01    3.145828e+01    0.000000e+00
    1.808902e+01    3.446104e+01    0.000000e+00
    1.553684e+01    3.191659e+01    0.000000e+00
    1.872176e+01    3.444989e+01    0.000000e+00
    1.555981e+01    3.107486e+01    0.000000e+00
    1.896354e+01    3.439936e+01    0.000000e+00
    1.884235e+01    3.442179e+01    0.000000e+00
    1.556595e+01    3.093434e+01    0.000000e+00
    1.693438e+01    3.276118e+01    0.000000e+00
    1.653040e+01    3.246480e+01    0.000000e+00
    1.775441e+01    3.370280e+01    0.000000e+00
    1.732969e+01    3.316975e+01    0.000000e+00
    1.770741e+01    3.359095e+01    0.000000e+00
    1.740439e+01    3.326760e+01    0.000000e+00
    1.607036e+01    3.215915e+01    0.000000e+00
    1.618427e+01    3.219680e+01    0.000000e+00
    1.683402e+01    3.267896e+01    0.000000e+00
    1.779751e+01    3.381532e+01    0.000000e+00
    1.725046e+01    3.307483e+01    0.000000e+00
    1.716478e+01    3.298002e+01    0.000000e+00
    1.788029e+01    3.404397e+01    0.000000e+00
    1.595426e+01    3.212266e+01    0.000000e+00
    1.783937e+01    3.392902e+01    0.000000e+00
    1.792164e+01    3.416320e+01    0.000000e+00
    1.663415e+01    3.253066e+01    0.000000e+00
    1.629854e+01    3.223851e+01    0.000000e+00
    1.583396e+01    3.208467e+01    0.000000e+00
    1.557721e+01    3.201178e+01    0.000000e+00
    1.796304e+01    3.428938e+01    0.000000e+00
    1.570713e+01    3.204310e+01    0.000000e+00
    1.799354e+01    3.441934e+01    0.000000e+00
    1.673517e+01    3.260239e+01    0.000000e+00
    1.765458e+01    3.347927e+01    0.000000e+00
    1.641331e+01    3.228715e+01    0.000000e+00
    1.759379e+01    3.336840e+01    0.000000e+00
    1.567921e+01    3.070803e+01    0.000000e+00
    1.555347e+01    3.079336e+01    0.000000e+00
    1.923697e+01    3.435392e+01    0.000000e+00
    1.589655e+01    3.041412e+01    0.000000e+00
    1.951308e+01    3.412298e+01    0.000000e+00
    1.657033e+01    2.946592e+01    0.000000e+00
    1.627309e+01    3.012217e+01    0.000000e+00
    1.859356e+01    3.437590e+01    0.000000e+00
    1.561701e+01    3.134508e+01    0.000000e+00
    1.840900e+01    3.439527e+01    0.000000e+00
    1.565584e+01    3.116974e+01    0.000000e+00
    1.561723e+01    3.150902e+01    0.000000e+00
    1.826071e+01    3.437648e+01    0.000000e+00
    1.561918e+01    3.163935e+01    0.000000e+00
    1.563147e+01    3.176067e+01    0.000000e+00
    1.899856e+01    3.427593e+01    0.000000e+00
    1.875098e+01    3.433189e+01    0.000000e+00
    1.567651e+01    3.101111e+01    0.000000e+00
    1.887928e+01    3.430639e+01    0.000000e+00
    1.703877e+01    3.272554e+01    0.000000e+00
    1.567942e+01    3.086113e+01    0.000000e+00
    1.652723e+01    3.234437e+01    0.000000e+00
    1.615803e+01    3.208504e+01    0.000000e+00
    1.782422e+01    3.360796e+01    0.000000e+00
    1.786726e+01    3.372416e+01    0.000000e+00
    1.603992e+01    3.204861e+01    0.000000e+00
    1.694808e+01    3.264567e+01    0.000000e+00
    1.791012e+01    3.383987e+01    0.000000e+00
    1.720049e+01    3.287823e+01    0.000000e+00
    1.736773e+01    3.305645e+01    0.000000e+00
    1.795677e+01    3.395600e+01    0.000000e+00
    1.728242e+01    3.296263e+01    0.000000e+00
    1.627583e+01    3.212227e+01    0.000000e+00
    1.752457e+01    3.326003e+01    0.000000e+00
    1.800680e+01    3.407512e+01    0.000000e+00
    1.684863e+01    3.256222e+01    0.000000e+00
    1.591929e+01    3.200967e+01    0.000000e+00
    1.805317e+01    3.419931e+01    0.000000e+00
    1.566140e+01    3.189894e+01    0.000000e+00
    1.579702e+01    3.196623e+01    0.000000e+00
    1.663835e+01    3.240996e+01    0.000000e+00
    1.777515e+01    3.349124e+01    0.000000e+00
    1.674561e+01    3.248311e+01    0.000000e+00
    1.811787e+01    3.433954e+01    0.000000e+00
    1.744846e+01    3.315579e+01    0.000000e+00
    1.639624e+01    3.216623e+01    0.000000e+00
    1.771739e+01    3.337370e+01    0.000000e+00
    1.912913e+01    3.423405e+01    0.000000e+00
    1.583371e+01    3.063966e+01    0.000000e+00
    1.929689e+01    3.418361e+01    0.000000e+00
    1.981281e+01    3.406083e+01    0.000000e+00
    1.609501e+01    3.030340e+01    0.000000e+00
    1.654851e+01    2.990388e+01    0.000000e+00
    1.635321e+01    2.899944e+01    0.000000e+00
    1.847346e+01    3.425113e+01    0.000000e+00
    1.572340e+01    3.144481e+01    0.000000e+00
    1.833541e+01    3.429841e+01    0.000000e+00
    1.569624e+01    3.157237e+01    0.000000e+00
    1.571687e+01    3.168517e+01    0.000000e+00
    1.865333e+01    3.423497e+01    0.000000e+00
    1.578500e+01    3.110349e+01    0.000000e+00
    1.891172e+01    3.420694e+01    0.000000e+00
    1.879828e+01    3.421514e+01    0.000000e+00
    1.612654e+01    3.197036e+01    0.000000e+00
    1.706676e+01    3.262276e+01    0.000000e+00
    1.624715e+01    3.200565e+01    0.000000e+00
    1.794059e+01    3.363158e+01    0.000000e+00
    1.798032e+01    3.374911e+01    0.000000e+00
    1.803292e+01    3.386176e+01    0.000000e+00
    1.651794e+01    3.221984e+01    0.000000e+00
    1.730454e+01    3.284705e+01    0.000000e+00
    1.600523e+01    3.192765e+01    0.000000e+00
    1.739995e+01    3.293939e+01    0.000000e+00
    1.696730e+01    3.252807e+01    0.000000e+00
    1.808842e+01    3.397895e+01    0.000000e+00
    1.789705e+01    3.350995e+01    0.000000e+00
    1.764955e+01    3.325734e+01    0.000000e+00
    1.748938e+01    3.303839e+01    0.000000e+00
    1.579385e+01    3.078860e+01    0.000000e+00
    1.588221e+01    3.188601e+01    0.000000e+00
    1.686354e+01    3.243912e+01    0.000000e+00
    1.675383e+01    3.235713e+01    0.000000e+00
    1.637183e+01    3.204420e+01    0.000000e+00
    1.663794e+01    3.228390e+01    0.000000e+00
    1.784384e+01    3.338584e+01    0.000000e+00
    1.757273e+01    3.314500e+01    0.000000e+00
    1.575337e+01    3.127674e+01    0.000000e+00
    1.580544e+01    3.093300e+01    0.000000e+00
    1.914977e+01    3.406982e+01    0.000000e+00
    1.598395e+01    3.059455e+01    0.000000e+00
    1.629117e+01    3.043136e+01    0.000000e+00
    1.956126e+01    3.385287e+01    0.000000e+00
    1.655673e+01    3.024696e+01    0.000000e+00
    1.679067e+01    2.906582e+01    0.000000e+00
    1.577622e+01    2.905190e+01    0.000000e+00
    1.844323e+01    3.413215e+01    0.000000e+00
    1.581300e+01    3.157590e+01    0.000000e+00
    1.830526e+01    3.417789e+01    0.000000e+00
    1.582761e+01    3.175097e+01    0.000000e+00
    1.871997e+01    3.411296e+01    0.000000e+00
    1.886722e+01    3.410656e+01    0.000000e+00
    1.817308e+01    3.422129e+01    0.000000e+00
    1.577815e+01    3.185921e+01    0.000000e+00
    1.585519e+01    3.139168e+01    0.000000e+00
    1.718217e+01    3.273928e+01    0.000000e+00
    1.705652e+01    3.286415e+01    0.000000e+00
    1.621433e+01    3.188802e+01    0.000000e+00
    1.609549e+01    3.184586e+01    0.000000e+00
    1.805635e+01    3.366135e+01    0.000000e+00
    1.808513e+01    3.377009e+01    0.000000e+00
    1.818610e+01    3.386538e+01    0.000000e+00
    1.801960e+01    3.353592e+01    0.000000e+00
    1.709232e+01    3.250171e+01    0.000000e+00
    1.742487e+01    3.281718e+01    0.000000e+00
    1.597170e+01    3.177969e+01    0.000000e+00
    1.777893e+01    3.326105e+01    0.000000e+00
    1.634030e+01    3.192185e+01    0.000000e+00
    1.650075e+01    3.209235e+01    0.000000e+00
    1.752491e+01    3.291491e+01    0.000000e+00
    1.698876e+01    3.240108e+01    0.000000e+00
    1.597257e+01    3.080574e+01    0.000000e+00
    1.687719e+01    3.230797e+01    0.000000e+00
    1.588983e+01    3.121491e+01    0.000000e+00
    1.797243e+01    3.340549e+01    0.000000e+00
    1.761795e+01    3.302278e+01    0.000000e+00
    1.675723e+01    3.222451e+01    0.000000e+00
    1.663044e+01    3.215279e+01    0.000000e+00
    1.770272e+01    3.313919e+01    0.000000e+00
    1.614611e+01    3.063760e+01    0.000000e+00
    1.717324e+01    3.259827e+01    0.000000e+00
    1.933328e+01    3.398872e+01    0.000000e+00
    1.900542e+01    3.414511e+01    0.000000e+00
    1.856980e+01    3.412941e+01    0.000000e+00
    1.592965e+01    3.103519e+01    0.000000e+00
    1.987228e+01    3.378620e+01    0.000000e+00
    1.655552e+01    3.053904e+01    0.000000e+00
    1.683693e+01    3.006528e+01    0.000000e+00
    1.724857e+01    2.884945e+01    0.000000e+00
    1.670422e+01    2.860115e+01    0.000000e+00
    1.597512e+01    3.151705e+01    0.000000e+00
    1.826302e+01    3.406290e+01    0.000000e+00
    1.815520e+01    3.410202e+01    0.000000e+00
    1.878897e+01    3.398739e+01    0.000000e+00
    1.599093e+01    3.133165e+01    0.000000e+00
    1.618404e+01    3.177173e+01    0.000000e+00
    1.849438e+01    3.403084e+01    0.000000e+00
    1.630287e+01    3.180227e+01    0.000000e+00
    1.732623e+01    3.274280e+01    0.000000e+00
    1.817339e+01    3.370589e+01    0.000000e+00
    1.608392e+01    3.172124e+01    0.000000e+00
    1.814386e+01    3.357042e+01    0.000000e+00
    1.791221e+01    3.327231e+01    0.000000e+00
    1.647462e+01    3.196320e+01    0.000000e+00
    1.755524e+01    3.278238e+01    0.000000e+00
    1.712446e+01    3.236904e+01    0.000000e+00
    1.810321e+01    3.343343e+01    0.000000e+00
    1.700962e+01    3.226338e+01    0.000000e+00
    1.765931e+01    3.289283e+01    0.000000e+00
    1.688599e+01    3.216824e+01    0.000000e+00
    1.863348e+01    3.400826e+01    0.000000e+00
    1.675263e+01    3.208575e+01    0.000000e+00
    1.775387e+01    3.301243e+01    0.000000e+00
    1.661371e+01    3.201788e+01    0.000000e+00
    1.783833e+01    3.314017e+01    0.000000e+00
    1.829123e+01    3.396668e+01    0.000000e+00
    1.724124e+01    3.249018e+01    0.000000e+00
    1.836778e+01    3.405227e+01    0.000000e+00
    1.603359e+01    3.116809e+01    0.000000e+00
    1.897593e+01    3.398015e+01    0.000000e+00
    1.609654e+01    3.100006e+01    0.000000e+00
    1.620229e+01    3.083757e+01    0.000000e+00
    1.683970e+01    3.040497e+01    0.000000e+00
    1.635354e+01    3.068494e+01    0.000000e+00
    1.968301e+01    3.357132e+01    0.000000e+00
    1.940494e+01    3.362825e+01    0.000000e+00
    1.683338e+01    2.974482e+01    0.000000e+00
    1.755327e+01    2.927762e+01    0.000000e+00
    1.600790e+01    3.165399e+01    0.000000e+00
    1.626175e+01    3.169201e+01    0.000000e+00
    1.728681e+01    3.263344e+01    0.000000e+00
    1.616661e+01    3.167386e+01    0.000000e+00
    1.832593e+01    3.386658e+01    0.000000e+00
    1.626565e+01    3.101563e+01    0.000000e+00
    1.854259e+01    3.391000e+01    0.000000e+00
    1.804910e+01    3.329212e+01    0.000000e+00
    1.643797e+01    3.183413e+01    0.000000e+00
    1.868716e+01    3.387668e+01    0.000000e+00
    1.743359e+01    3.267273e+01    0.000000e+00
    1.823845e+01    3.347033e+01    0.000000e+00
    1.715172e+01    3.222136e+01    0.000000e+00
    1.770306e+01    3.275594e+01    0.000000e+00
    1.702597e+01    3.211438e+01    0.000000e+00
    1.780552e+01    3.287837e+01    0.000000e+00
    1.830108e+01    3.375180e+01    0.000000e+00
    1.688694e+01    3.201828e+01    0.000000e+00
    1.608240e+01    3.142029e+01    0.000000e+00
    1.827308e+01    3.361197e+01    0.000000e+00
    1.658518e+01    3.187861e+01    0.000000e+00
    1.797993e+01    3.314959e+01    0.000000e+00
    1.841109e+01    3.393828e+01    0.000000e+00
    1.789818e+01    3.301107e+01    0.000000e+00
    1.727019e+01    3.233148e+01    0.000000e+00
    1.673730e+01    3.193970e+01    0.000000e+00
    1.612045e+01    3.128997e+01    0.000000e+00
    1.654751e+01    3.077629e+01    0.000000e+00
    1.885218e+01    3.384415e+01    0.000000e+00
    1.915436e+01    3.368839e+01    0.000000e+00
    1.915796e+01    3.389261e+01    0.000000e+00
    1.675927e+01    3.067835e+01    0.000000e+00
    1.638715e+01    3.088921e+01    0.000000e+00
    1.948037e+01    3.337728e+01    0.000000e+00
    2.002279e+01    3.351401e+01    0.000000e+00
    1.779561e+01    2.890951e+01    0.000000e+00
    1.745681e+01    2.968921e+01    0.000000e+00
    1.621877e+01    3.158544e+01    0.000000e+00
    1.616049e+01    3.149141e+01    0.000000e+00
    1.844570e+01    3.380074e+01    0.000000e+00
    1.638968e+01    3.170777e+01    0.000000e+00
    1.858857e+01    3.379702e+01    0.000000e+00
    1.819131e+01    3.332177e+01    0.000000e+00
    1.759634e+01    3.264262e+01    0.000000e+00
    1.837764e+01    3.351506e+01    0.000000e+00
    1.618015e+01    3.115178e+01    0.000000e+00
    1.738688e+01    3.243230e+01    0.000000e+00
    1.901365e+01    3.381881e+01    0.000000e+00
    1.717900e+01    3.206296e+01    0.000000e+00
    1.786423e+01    3.273836e+01    0.000000e+00
    1.654085e+01    3.173461e+01    0.000000e+00
    1.618642e+01    3.138751e+01    0.000000e+00
    1.730470e+01    3.217653e+01    0.000000e+00
    1.703828e+01    3.194835e+01    0.000000e+00
    1.812764e+01    3.316946e+01    0.000000e+00
    1.653806e+01    3.095224e+01    0.000000e+00
    1.796312e+01    3.287505e+01    0.000000e+00
    1.840653e+01    3.365541e+01    0.000000e+00
    1.687601e+01    3.185214e+01    0.000000e+00
    1.805105e+01    3.302000e+01    0.000000e+00
    1.670522e+01    3.178355e+01    0.000000e+00
    1.642628e+01    3.106638e+01    0.000000e+00
    1.872150e+01    3.371114e+01    0.000000e+00
    1.671434e+01    3.090190e+01    0.000000e+00
    1.696856e+01    3.061320e+01    0.000000e+00
    1.923704e+01    3.346273e+01    0.000000e+00
    1.977143e+01    3.326755e+01    0.000000e+00
    1.712266e+01    2.986646e+01    0.000000e+00
    1.782314e+01    2.957027e+01    0.000000e+00
    1.767599e+01    2.844116e+01    0.000000e+00
    1.633110e+01    3.160338e+01    0.000000e+00
    1.749411e+01    3.253204e+01    0.000000e+00
    1.834085e+01    3.336035e+01    0.000000e+00
    1.625716e+01    3.128335e+01    0.000000e+00
    1.892992e+01    3.368565e+01    0.000000e+00
    1.742310e+01    3.228357e+01    0.000000e+00
    1.663246e+01    3.112195e+01    0.000000e+00
    1.775985e+01    3.261324e+01    0.000000e+00
    1.647310e+01    3.157662e+01    0.000000e+00
    1.631217e+01    3.115621e+01    0.000000e+00
    1.828144e+01    3.319825e+01    0.000000e+00
    1.849478e+01    3.356450e+01    0.000000e+00
    1.734353e+01    3.201445e+01    0.000000e+00
    1.720955e+01    3.188931e+01    0.000000e+00
    1.803570e+01    3.273189e+01    0.000000e+00
    1.736852e+01    3.255214e+01    0.000000e+00
    1.631789e+01    3.145208e+01    0.000000e+00
    1.665472e+01    3.162218e+01    0.000000e+00
    1.821036e+01    3.303775e+01    0.000000e+00
    1.812873e+01    3.288231e+01    0.000000e+00
    1.704823e+01    3.174844e+01    0.000000e+00
    1.902144e+01    3.350925e+01    0.000000e+00
    1.683952e+01    3.167334e+01    0.000000e+00
    1.927215e+01    3.322823e+01    0.000000e+00
    1.721407e+01    3.068979e+01    0.000000e+00
    1.694533e+01    3.082004e+01    0.000000e+00
    1.951762e+01    3.310012e+01    0.000000e+00
    2.013389e+01    3.310004e+01    0.000000e+00
    1.710923e+01    3.021019e+01    0.000000e+00
    1.740739e+01    3.006418e+01    0.000000e+00
    1.773892e+01    2.993753e+01    0.000000e+00
    1.760495e+01    2.791722e+01    0.000000e+00
    1.830089e+01    3.289679e+01    0.000000e+00
    1.765066e+01    3.249518e+01    0.000000e+00
    1.851106e+01    3.341007e+01    0.000000e+00
    1.745923e+01    3.212992e+01    0.000000e+00
    1.844163e+01    3.323254e+01    0.000000e+00
    1.793360e+01    3.259035e+01    0.000000e+00
    1.753819e+01    3.238553e+01    0.000000e+00
    1.881748e+01    3.353034e+01    0.000000e+00
    1.660128e+01    3.148840e+01    0.000000e+00
    1.739034e+01    3.184560e+01    0.000000e+00
    1.837721e+01    3.306411e+01    0.000000e+00
    1.854807e+01    3.368003e+01    0.000000e+00
    1.648873e+01    3.142445e+01    0.000000e+00
    1.678126e+01    3.147876e+01    0.000000e+00
    1.811817e+01    3.257880e+01    0.000000e+00
    1.734651e+01    3.039299e+01    0.000000e+00
    1.688797e+01    3.105552e+01    0.000000e+00
    1.909165e+01    3.333300e+01    0.000000e+00
    1.766360e+01    3.028837e+01    0.000000e+00
    1.643635e+01    3.126366e+01    0.000000e+00
    1.927786e+01    3.296885e+01    0.000000e+00
    1.714820e+01    3.097621e+01    0.000000e+00
    1.978724e+01    3.294201e+01    0.000000e+00
    1.808887e+01    2.982939e+01    0.000000e+00
    1.863221e+01    3.354599e+01    0.000000e+00
    1.757257e+01    3.223112e+01    0.000000e+00
    1.840067e+01    3.274251e+01    0.000000e+00
    1.859162e+01    3.325674e+01    0.000000e+00
    1.782053e+01    3.245544e+01    0.000000e+00
    1.750793e+01    3.197825e+01    0.000000e+00
    1.890220e+01    3.333895e+01    0.000000e+00
    1.698217e+01    3.155898e+01    0.000000e+00
    1.725501e+01    3.171714e+01    0.000000e+00
    1.830853e+01    3.257809e+01    0.000000e+00
    1.855273e+01    3.309688e+01    0.000000e+00
    1.662663e+01    3.134139e+01    0.000000e+00
    1.848340e+01    3.291713e+01    0.000000e+00
    1.800795e+01    3.242440e+01    0.000000e+00
    1.904874e+01    3.281982e+01    0.000000e+00
    1.742236e+01    3.091063e+01    0.000000e+00
    1.902965e+01    3.311650e+01    0.000000e+00
    1.708476e+01    3.123561e+01    0.000000e+00
    1.682804e+01    3.127192e+01    0.000000e+00
    1.799318e+01    3.018308e+01    0.000000e+00
    1.951387e+01    3.281063e+01    0.000000e+00
    1.791470e+01    2.925050e+01    0.000000e+00
    1.758658e+01    3.064117e+01    0.000000e+00
    1.870160e+01    3.337388e+01    0.000000e+00
    1.729570e+01    3.154599e+01    0.000000e+00
    1.758914e+01    3.209507e+01    0.000000e+00
    1.769660e+01    3.233344e+01    0.000000e+00
    1.850705e+01    3.257037e+01    0.000000e+00
    1.696071e+01    3.139926e+01    0.000000e+00
    1.821122e+01    3.241034e+01    0.000000e+00
    1.860017e+01    3.275467e+01    0.000000e+00
    1.757666e+01    3.181617e+01    0.000000e+00
    1.744338e+01    3.167139e+01    0.000000e+00
    1.712961e+01    3.144980e+01    0.000000e+00
    1.875852e+01    3.315655e+01    0.000000e+00
    1.867696e+01    3.294478e+01    0.000000e+00
    1.787360e+01    3.227403e+01    0.000000e+00
    1.734049e+01    3.113928e+01    0.000000e+00
    1.914333e+01    3.255572e+01    0.000000e+00
    1.944671e+01    3.250077e+01    0.000000e+00
    1.975989e+01    3.261679e+01    0.000000e+00
    1.790729e+01    3.050832e+01    0.000000e+00
    1.886418e+01    3.296313e+01    0.000000e+00
    1.833891e+01    3.009901e+01    0.000000e+00
    1.768790e+01    3.093358e+01    0.000000e+00
    1.821677e+01    2.905691e+01    0.000000e+00
    1.872863e+01    3.257400e+01    0.000000e+00
    1.768143e+01    3.198180e+01    0.000000e+00
    1.764802e+01    3.162706e+01    0.000000e+00
    1.748905e+01    3.148000e+01    0.000000e+00
    1.839569e+01    3.242446e+01    0.000000e+00
    1.880869e+01    3.277934e+01    0.000000e+00
    1.771991e+01    3.215892e+01    0.000000e+00
    1.808573e+01    3.223017e+01    0.000000e+00
    1.731090e+01    3.135398e+01    0.000000e+00
    1.811678e+01    3.073612e+01    0.000000e+00
    1.754202e+01    3.108577e+01    0.000000e+00
    1.785543e+01    3.076903e+01    0.000000e+00
    1.846474e+01    2.973525e+01    0.000000e+00
    1.972028e+01    3.229701e+01    0.000000e+00
    1.921649e+01    3.227797e+01    0.000000e+00
    1.857079e+01    3.037763e+01    0.000000e+00
    1.862189e+01    2.931320e+01    0.000000e+00
    1.770341e+01    3.141105e+01    0.000000e+00
    1.834490e+01    3.221536e+01    0.000000e+00
    1.778720e+01    3.180763e+01    0.000000e+00
    1.892951e+01    3.262097e+01    0.000000e+00
    1.751991e+01    3.127370e+01    0.000000e+00
    1.772938e+01    3.117683e+01    0.000000e+00
    1.790701e+01    3.203833e+01    0.000000e+00
    1.891451e+01    3.237459e+01    0.000000e+00
    1.843373e+01    3.069484e+01    0.000000e+00
    1.860473e+01    3.234423e+01    0.000000e+00
    1.947043e+01    3.220119e+01    0.000000e+00
    2.007042e+01    3.239833e+01    0.000000e+00
    1.870204e+01    3.003621e+01    0.000000e+00
    1.860605e+01    2.882169e+01    0.000000e+00
    1.788037e+01    3.158690e+01    0.000000e+00
    1.931320e+01    3.194154e+01    0.000000e+00
    1.965503e+01    3.198335e+01    0.000000e+00
    1.817252e+01    3.201422e+01    0.000000e+00
    1.803374e+01    3.179959e+01    0.000000e+00
    1.794464e+01    3.133380e+01    0.000000e+00
    1.992274e+01    3.208044e+01    0.000000e+00
    1.830679e+01    3.098584e+01    0.000000e+00
    1.856848e+01    3.208416e+01    0.000000e+00
    1.876751e+01    3.066413e+01    0.000000e+00
    1.896159e+01    3.033884e+01    0.000000e+00
    1.885153e+01    2.969546e+01    0.000000e+00
    1.797848e+01    3.102748e+01    0.000000e+00
    1.900051e+01    2.903132e+01    0.000000e+00
    2.050015e+01    3.232328e+01    0.000000e+00
    1.838161e+01    3.199347e+01    0.000000e+00
    1.877286e+01    3.216417e+01    0.000000e+00
    1.994345e+01    3.171728e+01    0.000000e+00
    1.900152e+01    3.208036e+01    0.000000e+00
    1.820901e+01    3.125690e+01    0.000000e+00
    1.862403e+01    3.096813e+01    0.000000e+00
    1.828956e+01    3.180320e+01    0.000000e+00
    1.902154e+01    2.998533e+01    0.000000e+00
    2.080009e+01    3.267043e+01    0.000000e+00
    1.897983e+01    2.862551e+01    0.000000e+00
    1.902241e+01    2.940009e+01    0.000000e+00
    1.853266e+01    3.184473e+01    0.000000e+00
    1.844460e+01    3.161382e+01    0.000000e+00
    1.901477e+01    3.178199e+01    0.000000e+00
    1.847993e+01    3.122568e+01    0.000000e+00
    1.877095e+01    3.193145e+01    0.000000e+00
    1.928494e+01    2.971079e+01    0.000000e+00
    1.956528e+01    3.166214e+01    0.000000e+00
    1.895179e+01    3.094448e+01    0.000000e+00
    1.905136e+01    3.066173e+01    0.000000e+00
    2.095201e+01    3.223500e+01    0.000000e+00
    2.060412e+01    3.308640e+01    0.000000e+00
    1.940960e+01    2.875986e+01    0.000000e+00
    1.863509e+01    2.828391e+01    0.000000e+00
    1.945801e+01    3.138517e+01    0.000000e+00
    1.926773e+01    3.085677e+01    0.000000e+00
    1.879288e+01    3.127979e+01    0.000000e+00
    1.899799e+01    3.150454e+01    0.000000e+00
    2.039279e+01    3.343876e+01    0.000000e+00
    1.970440e+01    2.950113e+01    0.000000e+00
    1.873160e+01    3.162770e+01    0.000000e+00
    1.837371e+01    3.141578e+01    0.000000e+00
    1.816989e+01    2.860446e+01    0.000000e+00
    2.105370e+01    3.304643e+01    0.000000e+00
    2.062574e+01    3.192560e+01    0.000000e+00
    1.844928e+01    2.774762e+01    0.000000e+00
    2.002054e+01    3.275495e+01    0.000000e+00
    1.856454e+01    3.143256e+01    0.000000e+00
    1.917906e+01    3.123494e+01    0.000000e+00
    1.958356e+01    3.071348e+01    0.000000e+00
    1.975738e+01    2.907306e+01    0.000000e+00
    1.973337e+01    2.999602e+01    0.000000e+00
    2.091748e+01    3.356609e+01    0.000000e+00
    2.023621e+01    3.201236e+01    0.000000e+00
    2.102836e+01    3.178030e+01    0.000000e+00
    2.158754e+01    3.327736e+01    0.000000e+00
    1.799924e+01    2.766616e+01    0.000000e+00
    1.957721e+01    3.037226e+01    0.000000e+00
    1.984552e+01    2.870185e+01    0.000000e+00
    2.009112e+01    2.966356e+01    0.000000e+00
    2.141984e+01    3.208082e+01    0.000000e+00
    2.011977e+01    3.130326e+01    0.000000e+00
    1.762123e+01    2.736465e+01    0.000000e+00
    1.931279e+01    3.015216e+01    0.000000e+00
    1.995656e+01    3.050043e+01    0.000000e+00
    1.974722e+01    3.135378e+01    0.000000e+00
    2.052787e+01    3.125699e+01    0.000000e+00
    1.968497e+01    2.840056e+01    0.000000e+00
    2.100787e+01    3.127649e+01    0.000000e+00
    2.191498e+01    3.190650e+01    0.000000e+00
    1.986725e+01    3.097466e+01    0.000000e+00
    1.951714e+01    3.108647e+01    0.000000e+00
    1.975541e+01    2.796511e+01    0.000000e+00
    2.150231e+01    3.103647e+01    0.000000e+00
    2.199246e+01    3.133045e+01    0.000000e+00
    2.200685e+01    3.066258e+01    0.000000e+00
    2.112072e+01    3.081385e+01    0.000000e+00
    2.094032e+01    3.037649e+01    0.000000e+00
    2.071922e+01    3.084804e+01    0.000000e+00
    2.027297e+01    3.089247e+01    0.000000e+00
    2.134918e+01    3.001297e+01    0.000000e+00
    2.070892e+01    3.157372e+01    0.000000e+00
    2.021993e+01    3.008240e+01    0.000000e+00
    2.179803e+01    3.013766e+01    0.000000e+00
    2.091675e+01    2.985699e+01    0.000000e+00
    2.050295e+01    2.974541e+01    0.000000e+00
    2.060542e+01    3.010654e+01    0.000000e+00
    2.168126e+01    2.973687e+01    0.000000e+00
    2.184869e+01    2.932584e+01    0.000000e+00
    2.081095e+01    2.941926e+01    0.000000e+00
    2.067933e+01    2.901031e+01    0.000000e+00
    2.207950e+01    2.976177e+01    0.000000e+00
    2.148248e+01    2.893342e+01    0.000000e+00
    2.254505e+01    2.986945e+01    0.000000e+00
    2.020520e+01    2.891536e+01    0.000000e+00
    2.106215e+01    2.910231e+01    0.000000e+00
    2.102290e+01    2.868444e+01    0.000000e+00
    2.002810e+01    2.929922e+01    0.000000e+00
    2.081300e+01    2.814401e+01    0.000000e+00
    2.212055e+01    2.874161e+01    0.000000e+00
    2.126754e+01    2.778065e+01    0.000000e+00
    2.287296e+01    2.950000e+01    0.000000e+00
    2.196320e+01    3.278031e+01    0.000000e+00
    1.709833e+01    2.763993e+01    0.000000e+00
    1.931424e+01    2.765500e+01    0.000000e+00
    2.254394e+01    3.103679e+01    0.000000e+00
    1.889596e+01    2.785864e+01    0.000000e+00
    2.029246e+01    2.776032e+01    0.000000e+00
    2.096523e+01    3.424481e+01    0.000000e+00
    2.178873e+01    3.234742e+01    0.000000e+00
    1.656415e+01    2.798541e+01    0.000000e+00
    2.057800e+01    2.862226e+01    0.000000e+00
    1.767636e+01    2.674650e+01    0.000000e+00
    2.227827e+01    3.233721e+01    0.000000e+00
    1.883293e+01    2.738908e+01    0.000000e+00
    2.865656e+01    5.683823e-01    0.000000e+00
    1.771894e+01    6.274580e-01    0.000000e+00
    1.848157e+01    5.696349e-01    0.000000e+00
    2.092173e+01    6.133967e-01    0.000000e+00
    2.413411e+01    5.353669e-01    0.000000e+00
    2.631700e+01    6.237271e-01    0.000000e+00
    2.708744e+01    6.001031e-01    0.000000e+00
    2.927036e+01    2.933926e+00    0.000000e+00
    2.914219e+01    8.434421e+00    0.000000e+00
    2.924302e+01    1.317765e+01    0.000000e+00
    2.921958e+01    1.873145e+01    0.000000e+00
    2.927651e+01    2.429965e+01    0.000000e+00
    2.917018e+01    2.658842e+01    0.000000e+00
    2.917077e+01    2.979330e+01    0.000000e+00
    2.930553e+01    3.205959e+01    0.000000e+00
    2.914784e+01    1.636634e+01    0.000000e+00
    2.928071e+01    1.061655e+01    0.000000e+00
    2.922811e+01    5.204210e+00    0.000000e+00
    1.575739e+01    1.990497e+01    0.000000e+00
    1.575007e+01    2.196049e+01    0.000000e+00
    1.580178e+01    2.541441e+01    0.000000e+00
    1.578244e+01    1.413558e+01    0.000000e+00
    1.581938e+01    5.246463e+00    0.000000e+00
    1.570465e+01    2.879107e+00    0.000000e+00
    1.582126e+01    1.087307e+01    0.000000e+00
    1.572888e+01    8.502404e+00    0.000000e+00
    1.578444e+01    2.766756e+01    0.000000e+00
    1.588733e+01    1.641886e+01    0.000000e+00
    2.310344e+01    3.417943e+01    0.000000e+00
    2.401001e+01    3.433700e+01    0.000000e+00
    2.641514e+01    3.442192e+01    0.000000e+00
    2.706952e+01    3.441572e+01    0.000000e+00
    1.553631e+01    2.844312e+01    0.000000e+00
    2.864329e+01    3.442228e+01    0.000000e+00
    2.308814e+01    3.133662e+01    0.000000e+00
    1.878277e+01    2.680322e+01    0.000000e+00
    2.225866e+01    3.326594e+01    0.000000e+00
    2.296855e+01    3.241998e+01    0.000000e+00
    2.178017e+01    2.772169e+01    0.000000e+00
    2.082942e+01    2.751466e+01    0.000000e+00
    1.981792e+01    2.741276e+01    0.000000e+00
    2.315770e+01    3.004079e+01    0.000000e+00
    2.287022e+01    2.889881e+01    0.000000e+00
    1.654084e+01    2.729257e+01    0.000000e+00
    1.716859e+01    2.640533e+01    0.000000e+00
    2.153393e+01    3.449591e+01    0.000000e+00
    1.823563e+01    2.647536e+01    0.000000e+00
    2.542173e+01    4.882426e-01    0.000000e+00
    2.018409e+01    5.593355e-01    0.000000e+00
    1.694448e+01    5.595127e-01    0.000000e+00
    2.938748e+01    1.710107e+01    0.000000e+00
    2.943058e+01    3.591903e+00    0.000000e+00
    2.926607e+01    5.983146e+00    0.000000e+00
    2.939293e+01    9.155537e+00    0.000000e+00
    2.933028e+01    1.174116e+01    0.000000e+00
    2.951629e+01    2.324439e+01    0.000000e+00
    2.936767e+01    2.586296e+01    0.000000e+00
    2.920204e+01    2.901602e+01    0.000000e+00
    2.943906e+01    3.143866e+01    0.000000e+00
    2.924518e+01    1.951310e+01    0.000000e+00
    2.926870e+01    1.392909e+01    0.000000e+00
    2.920428e+01    7.563614e+00    0.000000e+00
    2.955374e+01    1.843468e+00    0.000000e+00
    1.569345e+01    2.307437e+01    0.000000e+00
    1.559522e+01    2.624647e+01    0.000000e+00
    1.568769e+01    1.568504e+01    0.000000e+00
    1.577869e+01    1.165328e+01    0.000000e+00
    1.546497e+01    9.373421e+00    0.000000e+00
    1.565496e+01    7.430995e+00    0.000000e+00
    1.566846e+01    1.771739e+00    0.000000e+00
    1.565807e+01    1.305063e+01    0.000000e+00
    1.577855e+01    6.025603e+00    0.000000e+00
    1.545982e+01    3.748621e+00    0.000000e+00
    1.557967e+01    2.049129e+01    0.000000e+00
    1.565794e+01    1.869865e+01    0.000000e+00
    2.472748e+01    3.442595e+01    0.000000e+00
    2.842918e+01    1.846023e+00    0.000000e+00
    2.726716e+01    1.681599e+00    0.000000e+00
    2.433100e+01    1.729672e+00    0.000000e+00
    2.092249e+01    1.758295e+00    0.000000e+00
    1.769405e+01    1.974885e+00    0.000000e+00
    2.846937e+01    3.311141e+01    0.000000e+00
    2.724673e+01    3.313094e+01    0.000000e+00
    2.435931e+01    3.324303e+01    0.000000e+00
    2.298969e+01    3.325832e+01    0.000000e+00
    2.622962e+01    1.778262e+00    0.000000e+00
    1.901758e+01    1.704036e+00    0.000000e+00
    2.611865e+01    3.334805e+01    0.000000e+00
    2.922176e+01    2.742707e+01    0.000000e+00
    1.579354e+01    1.726664e+01    0.000000e+00
    1.575341e+01    2.453572e+01    0.000000e+00
    2.921208e+01    1.549999e+01    0.000000e+00
    2.955905e+01    3.314605e+01    0.000000e+00
    2.819951e+01    1.643038e+01    0.000000e+00
    1.685916e+01    1.638832e+01    0.000000e+00
    2.837692e+01    3.218430e+01    0.000000e+00
    2.827321e+01    2.999289e+01    0.000000e+00
    1.666866e+01    2.552625e+01    0.000000e+00
    2.844980e+01    2.430809e+01    0.000000e+00
    1.661461e+01    2.190137e+01    0.000000e+00
    1.670202e+01    1.991854e+01    0.000000e+00
    2.829659e+01    1.846739e+01    0.000000e+00
    1.668761e+01    1.410609e+01    0.000000e+00
    2.836017e+01    1.048693e+01    0.000000e+00
    1.673762e+01    1.065360e+01    0.000000e+00
    2.816542e+01    8.530925e+00    0.000000e+00
    1.663117e+01    8.618661e+00    0.000000e+00
    2.831802e+01    4.910071e+00    0.000000e+00
    1.672839e+01    5.031920e+00    0.000000e+00
    2.835785e+01    2.713226e+00    0.000000e+00
    1.657738e+01    2.990618e+00    0.000000e+00
    2.833468e+01    1.286974e+01    0.000000e+00
    2.829027e+01    2.653317e+01    0.000000e+00
    2.167035e+01    5.374298e-01    0.000000e+00
    2.218574e+01    3.429527e+01    0.000000e+00
    1.931550e+01    2.649908e+01    0.000000e+00
    1.664698e+01    2.662649e+01    0.000000e+00
    2.309406e+01    3.072511e+01    0.000000e+00
    1.548427e+01    2.691059e+01    0.000000e+00
    1.985966e+01    2.682528e+01    0.000000e+00
    1.769341e+01    2.603893e+01    0.000000e+00
    2.201418e+01    3.370385e+01    0.000000e+00
    2.084344e+01    2.700965e+01    0.000000e+00
    2.220199e+01    3.016979e+01    0.000000e+00
    2.748938e+01    2.652784e+01    0.000000e+00
    2.754792e+01    2.430127e+01    0.000000e+00
    1.736851e+01    2.543018e+01    0.000000e+00
    2.405145e+01    2.992724e+01    0.000000e+00
    1.876617e+01    2.617561e+01    0.000000e+00
    2.314563e+01    2.837686e+01    0.000000e+00
    2.209591e+01    2.813340e+01    0.000000e+00
    2.352160e+01    2.871949e+01    0.000000e+00
    2.198581e+01    2.724813e+01    0.000000e+00
    2.315543e+01    3.185375e+01    0.000000e+00
    2.834584e+01    1.507884e+01    0.000000e+00
    2.836344e+01    4.142043e+00    0.000000e+00
    1.641286e+01    1.848334e+01    0.000000e+00
    1.641031e+01    1.281858e+01    0.000000e+00
    1.657311e+01    9.326325e+00    0.000000e+00
    1.640822e+01    7.205562e+00    0.000000e+00
    1.655273e+01    3.703851e+00    0.000000e+00
    1.633901e+01    1.687822e+00    0.000000e+00
    2.851438e+01    6.321893e+00    0.000000e+00
    2.834043e+01    9.762220e+00    0.000000e+00
    2.853958e+01    1.197832e+01    0.000000e+00
    2.851332e+01    1.425363e+01    0.000000e+00
    2.854253e+01    1.974894e+01    0.000000e+00
    2.823957e+01    2.546588e+01    0.000000e+00
    2.835839e+01    2.776478e+01    0.000000e+00
    2.836956e+01    3.135617e+01    0.000000e+00
    2.722010e+01    3.223812e+01    0.000000e+00
    2.424346e+01    3.203756e+01    0.000000e+00
    2.830508e+01    2.865104e+01    0.000000e+00
    1.658804e+01    2.418365e+01    0.000000e+00
    2.831081e+01    2.304766e+01    0.000000e+00
    1.667997e+01    2.062884e+01    0.000000e+00
    2.828721e+01    1.768919e+01    0.000000e+00
    1.698470e+01    1.529556e+01    0.000000e+00
    1.664417e+01    1.203487e+01    0.000000e+00
    2.832646e+01    7.145782e+00    0.000000e+00
    1.664621e+01    6.408433e+00    0.000000e+00
    1.773369e+01    2.857786e+00    0.000000e+00
    2.075537e+01    2.829298e+00    0.000000e+00
    2.411489e+01    2.908622e+00    0.000000e+00
    2.746067e+01    2.820498e+00    0.000000e+00
    2.496142e+01    3.331058e+01    0.000000e+00
    2.633109e+01    3.228489e+01    0.000000e+00
    1.868889e+01    2.849658e+00    0.000000e+00
    2.603570e+01    2.846738e+00    0.000000e+00
    2.732236e+01    1.640491e+01    0.000000e+00
    1.665111e+01    1.767165e+01    0.000000e+00
    1.775366e+01    1.641569e+01    0.000000e+00
    2.734056e+01    2.997299e+01    0.000000e+00
    1.656305e+01    2.329025e+01    0.000000e+00
    1.756352e+01    2.196487e+01    0.000000e+00
    1.768219e+01    1.976295e+01    0.000000e+00
    2.732833e+01    1.860396e+01    0.000000e+00
    1.770880e+01    1.401838e+01    0.000000e+00
    2.723986e+01    1.054099e+01    0.000000e+00
    1.774866e+01    1.061808e+01    0.000000e+00
    2.720629e+01    8.540540e+00    0.000000e+00
    1.776725e+01    8.583573e+00    0.000000e+00
    2.724357e+01    4.896957e+00    0.000000e+00
    1.771162e+01    4.997279e+00    0.000000e+00
    2.502527e+01    1.735759e+00    0.000000e+00
    2.290518e+01    1.640828e+00    0.000000e+00
    2.218155e+01    1.657946e+00    0.000000e+00
    1.969974e+01    1.693413e+00    0.000000e+00
    2.726974e+01    1.295215e+01    0.000000e+00
    2.315896e+01    2.780975e+01    0.000000e+00
    2.412488e+01    2.838918e+01    0.000000e+00
    2.355735e+01    3.214152e+01    0.000000e+00
    1.986544e+01    2.620968e+01    0.000000e+00
    1.870204e+01    2.548857e+01    0.000000e+00
    2.047989e+01    2.654835e+01    0.000000e+00
    1.677184e+01    2.611429e+01    0.000000e+00
    2.116282e+01    2.658866e+01    0.000000e+00
    2.187773e+01    2.665246e+01    0.000000e+00
    1.863470e+01    1.643746e+01    0.000000e+00
    2.646776e+01    2.988935e+01    0.000000e+00
    1.856070e+01    1.973792e+01    0.000000e+00
    2.646061e+01    1.637652e+01    0.000000e+00
    2.646934e+01    1.863879e+01    0.000000e+00
    2.361710e+01    3.103174e+01    0.000000e+00
    1.851437e+01    2.211572e+01    0.000000e+00
    2.758041e+01    2.765452e+01    0.000000e+00
    2.763997e+01    2.543625e+01    0.000000e+00
    1.742291e+01    2.429000e+01    0.000000e+00
    2.755993e+01    2.305911e+01    0.000000e+00
    1.747636e+01    2.318048e+01    0.000000e+00
    2.243282e+01    2.763658e+01    0.000000e+00
    2.678281e+01    2.652480e+01    0.000000e+00
    2.681897e+01    2.429749e+01    0.000000e+00
    2.712617e+01    1.751044e+01    0.000000e+00
    2.723307e+01    1.984917e+01    0.000000e+00
    1.778661e+01    1.526788e+01    0.000000e+00
    1.770479e+01    1.277665e+01    0.000000e+00
    1.783918e+01    1.844633e+01    0.000000e+00
    1.778727e+01    9.322703e+00    0.000000e+00
    1.771262e+01    7.160754e+00    0.000000e+00
    1.788360e+01    3.739692e+00    0.000000e+00
    2.727230e+01    6.366330e+00    0.000000e+00
    2.719342e+01    9.819937e+00    0.000000e+00
    2.723029e+01    1.181641e+01    0.000000e+00
    2.713957e+01    1.430161e+01    0.000000e+00
    2.827174e+01    2.105363e+01    0.000000e+00
    2.706814e+01    3.132013e+01    0.000000e+00
    2.502411e+01    3.217093e+01    0.000000e+00
    2.736428e+01    2.869652e+01    0.000000e+00
    1.785329e+01    2.084982e+01    0.000000e+00
    2.829371e+01    2.180020e+01    0.000000e+00
    2.730916e+01    1.502975e+01    0.000000e+00
    1.772022e+01    1.211014e+01    0.000000e+00
    2.726280e+01    7.044339e+00    0.000000e+00
    1.772974e+01    6.488403e+00    0.000000e+00
    2.724906e+01    4.116414e+00    0.000000e+00
    2.077019e+01    3.961726e+00    0.000000e+00
    2.410099e+01    3.945546e+00    0.000000e+00
    2.006650e+01    2.842993e+00    0.000000e+00
    2.216613e+01    2.863172e+00    0.000000e+00
    2.286035e+01    2.866567e+00    0.000000e+00
    2.535332e+01    2.873594e+00    0.000000e+00
    2.624596e+01    3.111820e+01    0.000000e+00
    1.869221e+01    4.018472e+00    0.000000e+00
    2.598865e+01    4.106468e+00    0.000000e+00
    1.868811e+01    1.401927e+01    0.000000e+00
    1.771393e+01    1.771911e+01    0.000000e+00
    2.623737e+01    1.068520e+01    0.000000e+00
    1.876118e+01    1.063759e+01    0.000000e+00
    2.621973e+01    8.505023e+00    0.000000e+00
    1.885321e+01    8.425334e+00    0.000000e+00
    2.612412e+01    4.950352e+00    0.000000e+00
    1.877717e+01    4.883443e+00    0.000000e+00
    2.631067e+01    1.299081e+01    0.000000e+00
    2.413051e+01    3.069781e+01    0.000000e+00
    2.622024e+01    2.464314e+01    0.000000e+00
    2.617177e+01    2.618511e+01    0.000000e+00
    2.620646e+01    2.690102e+01    0.000000e+00
    2.627435e+01    2.391709e+01    0.000000e+00
    2.385634e+01    2.777662e+01    0.000000e+00
    2.292900e+01    2.727261e+01    0.000000e+00
    2.089224e+01    2.611987e+01    0.000000e+00
    1.801430e+01    2.543410e+01    0.000000e+00
    2.418725e+01    3.131635e+01    0.000000e+00
    2.404765e+01    2.910036e+01    0.000000e+00
    1.985700e+01    2.559193e+01    0.000000e+00
    1.970866e+01    1.070181e+01    0.000000e+00
    2.537034e+01    1.070785e+01    0.000000e+00
    1.960373e+01    1.405731e+01    0.000000e+00
    2.541090e+01    1.298300e+01    0.000000e+00
    2.754456e+01    2.096525e+01    0.000000e+00
    2.644584e+01    1.422085e+01    0.000000e+00
    1.852729e+01    1.854333e+01    0.000000e+00
    2.659024e+01    1.985080e+01    0.000000e+00
    1.843639e+01    2.086861e+01    0.000000e+00
    2.252244e+01    2.643285e+01    0.000000e+00
    2.659512e+01    2.869678e+01    0.000000e+00
    2.656207e+01    1.750598e+01    0.000000e+00
    2.652287e+01    1.516947e+01    0.000000e+00
    1.854323e+01    1.758193e+01    0.000000e+00
    2.212942e+01    2.608514e+01    0.000000e+00
    2.535005e+01    3.092135e+01    0.000000e+00
    2.759649e+01    2.194781e+01    0.000000e+00
    1.920778e+01    1.643543e+01    0.000000e+00
    2.574818e+01    1.637667e+01    0.000000e+00
    2.579389e+01    2.986146e+01    0.000000e+00
    1.928007e+01    1.973977e+01    0.000000e+00
    2.576648e+01    1.865259e+01    0.000000e+00
    1.812544e+01    2.313851e+01    0.000000e+00
    2.699851e+01    2.306646e+01    0.000000e+00
    2.069823e+01    5.118765e+00    0.000000e+00
    2.430610e+01    5.118106e+00    0.000000e+00
    2.010947e+01    3.911884e+00    0.000000e+00
    2.216390e+01    3.999563e+00    0.000000e+00
    2.285524e+01    3.995953e+00    0.000000e+00
    2.528671e+01    3.974066e+00    0.000000e+00
    2.620503e+01    6.375657e+00    0.000000e+00
    1.888009e+01    9.536897e+00    0.000000e+00
    1.880094e+01    7.133099e+00    0.000000e+00
    1.867504e+01    1.526718e+01    0.000000e+00
    2.603035e+01    9.637239e+00    0.000000e+00
    2.610901e+01    1.183245e+01    0.000000e+00
    1.892100e+01    1.277148e+01    0.000000e+00
    1.877681e+01    1.206926e+01    0.000000e+00
    2.621958e+01    7.026304e+00    0.000000e+00
    1.879065e+01    6.494667e+00    0.000000e+00
    2.513425e+01    5.114277e+00    0.000000e+00
    2.523383e+01    8.491426e+00    0.000000e+00
    1.986704e+01    8.371620e+00    0.000000e+00
    1.984138e+01    5.045948e+00    0.000000e+00
    2.953130e+01    2.099577e+01    0.000000e+00
    2.213902e+01    2.547540e+01    0.000000e+00
    2.302173e+01    2.675372e+01    0.000000e+00
    2.305990e+01    2.619168e+01    0.000000e+00
    2.456748e+01    2.882539e+01    0.000000e+00
    2.092902e+01    2.557392e+01    0.000000e+00
    2.527180e+01    2.958232e+01    0.000000e+00
    1.873709e+01    2.338326e+01    0.000000e+00
    1.987781e+01    2.007606e+01    0.000000e+00
    2.520902e+01    1.902309e+01    0.000000e+00
    2.517187e+01    1.671872e+01    0.000000e+00
    2.516928e+01    1.603996e+01    0.000000e+00
    2.518561e+01    1.831764e+01    0.000000e+00
    1.986097e+01    1.939466e+01    0.000000e+00
    2.633142e+01    2.310141e+01    0.000000e+00
    2.531194e+01    3.018828e+01    0.000000e+00
    2.038733e+01    2.528758e+01    0.000000e+00
    1.933321e+01    2.524896e+01    0.000000e+00
    2.422642e+01    2.733018e+01    0.000000e+00
    1.770167e+01    2.487691e+01    0.000000e+00
    2.616063e+01    2.541680e+01    0.000000e+00
    2.631133e+01    2.754704e+01    0.000000e+00
    2.421768e+01    8.473280e+00    0.000000e+00
    2.543682e+01    9.653195e+00    0.000000e+00
    2.546970e+01    1.182855e+01    0.000000e+00
    1.960357e+01    1.287777e+01    0.000000e+00
    1.946218e+01    1.525345e+01    0.000000e+00
    1.961362e+01    1.191964e+01    0.000000e+00
    2.464628e+01    3.098047e+01    0.000000e+00
    2.030766e+01    1.073866e+01    0.000000e+00
    2.478484e+01    1.068131e+01    0.000000e+00
    2.034142e+01    1.408135e+01    0.000000e+00
    2.469114e+01    1.296266e+01    0.000000e+00
    2.479294e+01    2.990364e+01    0.000000e+00
    2.551097e+01    2.423476e+01    0.000000e+00
    2.535787e+01    2.660392e+01    0.000000e+00
    2.001843e+01    9.590221e+00    0.000000e+00
    1.983604e+01    7.117181e+00    0.000000e+00
    2.512978e+01    1.414572e+01    0.000000e+00
    2.519202e+01    7.043632e+00    0.000000e+00
    2.513278e+01    6.380209e+00    0.000000e+00
    1.980370e+01    6.493392e+00    0.000000e+00
    2.071416e+01    6.458910e+00    0.000000e+00
    2.407804e+01    6.209360e+00    0.000000e+00
    2.217159e+01    5.150192e+00    0.000000e+00
    2.287159e+01    5.139144e+00    0.000000e+00
    2.620071e+01    2.097956e+01    0.000000e+00
    2.089603e+01    8.378125e+00    0.000000e+00
    2.359420e+01    2.645312e+01    0.000000e+00
    1.987556e+01    2.497873e+01    0.000000e+00
    2.447975e+01    1.634537e+01    0.000000e+00
    2.449529e+01    1.873004e+01    0.000000e+00
    2.518929e+01    2.892823e+01    0.000000e+00
    1.804152e+01    2.440348e+01    0.000000e+00
    2.092821e+01    1.442812e+01    0.000000e+00
    2.414990e+01    1.334468e+01    0.000000e+00
    2.407343e+01    1.267341e+01    0.000000e+00
    2.094010e+01    1.376923e+01    0.000000e+00
    1.976987e+01    1.638464e+01    0.000000e+00
    2.271577e+01    2.541034e+01    0.000000e+00
    2.450814e+01    2.780999e+01    0.000000e+00
    2.559013e+01    2.541578e+01    0.000000e+00
    1.849129e+01    2.279417e+01    0.000000e+00
    1.874892e+01    2.423174e+01    0.000000e+00
    1.991250e+01    2.087592e+01    0.000000e+00
    2.621007e+01    2.226258e+01    0.000000e+00
    2.191378e+01    8.447989e+00    0.000000e+00
    2.068918e+01    9.603237e+00    0.000000e+00
    2.434707e+01    1.404264e+01    0.000000e+00
    2.540992e+01    2.100382e+01    0.000000e+00
    2.434389e+01    7.160453e+00    0.000000e+00
    2.148646e+01    2.523501e+01    0.000000e+00
    1.890042e+01    2.489776e+01    0.000000e+00
    2.321583e+01    8.469231e+00    0.000000e+00
    2.067616e+01    1.964416e+01    0.000000e+00
    2.509340e+01    1.751237e+01    0.000000e+00
    1.989817e+01    1.874294e+01    0.000000e+00
    2.087982e+01    7.069476e+00    0.000000e+00
    2.402379e+01    9.820296e+00    0.000000e+00
    2.509316e+01    1.535860e+01    0.000000e+00
    2.514709e+01    1.978075e+01    0.000000e+00
    2.225494e+01    6.396751e+00    0.000000e+00
    2.295947e+01    6.261077e+00    0.000000e+00
    1.992988e+01    1.753065e+01    0.000000e+00
    2.435296e+01    2.668251e+01    0.000000e+00
    2.512933e+01    2.780162e+01    0.000000e+00
    2.334578e+01    1.306341e+01    0.000000e+00
    2.090115e+01    1.070627e+01    0.000000e+00
    1.939752e+01    2.413779e+01    0.000000e+00
    2.535955e+01    2.218369e+01    0.000000e+00
    2.312388e+01    2.566020e+01    0.000000e+00
    2.091725e+01    2.487124e+01    0.000000e+00
    2.054510e+01    1.634588e+01    0.000000e+00
    2.069808e+01    1.751042e+01    0.000000e+00
    2.324076e+01    9.682570e+00    0.000000e+00
    2.433714e+01    1.526024e+01    0.000000e+00
    2.420873e+01    1.751622e+01    0.000000e+00
    2.060882e+01    1.871135e+01    0.000000e+00
    2.197266e+01    2.479238e+01    0.000000e+00
    1.935490e+01    2.332962e+01    0.000000e+00
    2.256985e+01    8.484954e+00    0.000000e+00
    2.165473e+01    1.412060e+01    0.000000e+00
    1.928695e+01    2.202578e+01    0.000000e+00
    2.227106e+01    7.106895e+00    0.000000e+00
    2.410595e+01    1.057824e+01    0.000000e+00
    2.098083e+01    1.511808e+01    0.000000e+00
    2.102781e+01    1.309596e+01    0.000000e+00
    2.396471e+01    1.197458e+01    0.000000e+00
    2.195180e+01    9.618870e+00    0.000000e+00
    2.299240e+01    7.228940e+00    0.000000e+00
    2.106235e+01    1.187499e+01    0.000000e+00
    2.372866e+01    2.540369e+01    0.000000e+00
    2.175769e+01    2.421192e+01    0.000000e+00
    2.060052e+01    2.427216e+01    0.000000e+00
    1.994123e+01    2.431845e+01    0.000000e+00
    1.984989e+01    2.234021e+01    0.000000e+00
    1.982494e+01    2.165404e+01    0.000000e+00
    2.172833e+01    1.066560e+01    0.000000e+00
    2.188865e+01    1.186207e+01    0.000000e+00
    2.179502e+01    1.303999e+01    0.000000e+00
    2.307104e+01    1.186931e+01    0.000000e+00
    2.175917e+01    1.522008e+01    0.000000e+00
    2.407065e+01    2.598568e+01    0.000000e+00
    2.322867e+01    1.067024e+01    0.000000e+00
    2.139736e+01    1.749958e+01    0.000000e+00
    2.301902e+01    1.420618e+01    0.000000e+00
    2.293890e+01    1.645333e+01    0.000000e+00
    2.314576e+01    2.509838e+01    0.000000e+00
    2.048312e+01    2.200327e+01    0.000000e+00
    1.990852e+01    2.307869e+01    0.000000e+00
    2.194069e+01    1.783069e+01    0.000000e+00
    1.968258e+01    2.372141e+01    0.000000e+00
    2.418314e+01    2.493390e+01    0.000000e+00
    2.118419e+01    2.423663e+01    0.000000e+00
    2.073341e+01    2.093398e+01    0.000000e+00
    2.207612e+01    1.649683e+01    0.000000e+00
    2.445585e+01    2.542041e+01    0.000000e+00
    2.248389e+01    1.186044e+01    0.000000e+00
    2.305998e+01    1.521025e+01    0.000000e+00
    2.424202e+01    2.430731e+01    0.000000e+00
    2.058729e+01    2.312888e+01    0.000000e+00
    2.196711e+01    1.718511e+01    0.000000e+00
    2.088511e+01    2.369019e+01    0.000000e+00
    2.307479e+01    2.446137e+01    0.000000e+00
    2.198460e+01    1.854917e+01    0.000000e+00
    2.512855e+01    2.540751e+01    0.000000e+00
    2.306995e+01    1.704686e+01    0.000000e+00
    2.484311e+01    2.413438e+01    0.000000e+00
    2.360549e+01    2.408331e+01    0.000000e+00
    2.242359e+01    2.418896e+01    0.000000e+00
    2.263841e+01    1.753127e+01    0.000000e+00
    2.511053e+01    2.356348e+01    0.000000e+00
    2.202823e+01    2.363800e+01    0.000000e+00
    2.305044e+01    2.372874e+01    0.000000e+00
    2.403840e+01    2.369415e+01    0.000000e+00
    2.443978e+01    2.317633e+01    0.000000e+00
    2.173026e+01    2.310135e+01    0.000000e+00
    2.280715e+01    2.309784e+01    0.000000e+00
    2.337217e+01    2.314073e+01    0.000000e+00
    2.385286e+01    2.324632e+01    0.000000e+00
    2.560600e+01    2.316775e+01    0.000000e+00
    2.116565e+01    2.311847e+01    0.000000e+00
    2.226738e+01    2.307570e+01    0.000000e+00
    2.513784e+01    2.287417e+01    0.000000e+00
    2.198249e+01    2.254039e+01    0.000000e+00
    2.086409e+01    2.257073e+01    0.000000e+00
    2.312795e+01    2.254803e+01    0.000000e+00
    2.221647e+01    2.199088e+01    0.000000e+00
    2.113829e+01    2.203878e+01    0.000000e+00
    2.343986e+01    2.194087e+01    0.000000e+00
    2.167926e+01    2.203764e+01    0.000000e+00
    2.186702e+01    2.151175e+01    0.000000e+00
    2.279430e+01    2.192520e+01    0.000000e+00
    2.411176e+01    2.195683e+01    0.000000e+00
    2.092423e+01    2.151274e+01    0.000000e+00
    2.138384e+01    2.113628e+01    0.000000e+00
    2.304985e+01    2.107315e+01    0.000000e+00
    2.207575e+01    2.086356e+01    0.000000e+00
    2.195437e+01    2.018111e+01    0.000000e+00
    2.226622e+01    1.968640e+01    0.000000e+00
    2.155596e+01    1.968152e+01    0.000000e+00
    2.306421e+01    1.971623e+01    0.000000e+00
    2.191328e+01    1.919748e+01    0.000000e+00
    2.072082e+01    1.912020e+01    0.000000e+00
    2.264595e+01    1.852362e+01    0.000000e+00
    2.322612e+01    1.882719e+01    0.000000e+00
    2.304008e+01    1.812100e+01    0.000000e+00
    2.386119e+01    1.887698e+01    0.000000e+00
    2.414149e+01    1.931037e+01    0.000000e+00
    2.342747e+01    1.754035e+01    0.000000e+00
    2.442720e+01    1.980652e+01    0.000000e+00
    2.380882e+01    1.981178e+01    0.000000e+00
    2.515478e+01    2.042634e+01    0.000000e+00
    2.304439e+01    2.036907e+01    0.000000e+00
    2.414947e+01    2.033736e+01    0.000000e+00
    2.389430e+01    2.091838e+01    0.000000e+00
    2.463884e+01    2.081125e+01    0.000000e+00
    2.433260e+01    2.138726e+01    0.000000e+00
    2.525196e+01    2.158645e+01    0.000000e+00
    2.475258e+01    2.181564e+01    0.000000e+00
    2.909357e+01    3.622385e+01    0.000000e+00
    2.786936e+01    3.603983e+01    0.000000e+00
    2.674071e+01    3.634258e+01    0.000000e+00
    2.574112e+01    3.631576e+01    0.000000e+00
    2.467118e+01    3.580661e+01    0.000000e+00
    2.374296e+01    3.617430e+01    0.000000e+00
    2.256611e+01    3.615911e+01    0.000000e+00
    2.132396e+01    3.611317e+01    0.000000e+00
    2.035231e+01    3.599134e+01    0.000000e+00
    1.930755e+01    3.613891e+01    0.000000e+00
    1.824515e+01    3.609861e+01    0.000000e+00
    2.910786e+01    3.713778e+01    0.000000e+00
    2.767603e+01    3.706664e+01    0.000000e+00
    2.672484e+01    3.726334e+01    0.000000e+00
    2.567071e+01    3.730804e+01    0.000000e+00
    2.466656e+01    3.740026e+01    0.000000e+00
    2.367806e+01    3.723814e+01    0.000000e+00
    2.265744e+01    3.719693e+01    0.000000e+00
    2.137427e+01    3.724705e+01    0.000000e+00
    2.038887e+01    3.715019e+01    0.000000e+00
    1.922522e+01    3.723543e+01    0.000000e+00
    1.819650e+01    3.720681e+01    0.000000e+00
    1.712578e+01    3.720835e+01    0.000000e+00
    2.866201e+01    3.843424e+01    0.000000e+00
    2.797933e+01    3.831509e+01    0.000000e+00
    2.661975e+01    3.815802e+01    0.000000e+00
    2.565325e+01    3.829133e+01    0.000000e+00
    2.465445e+01    3.818689e+01    0.000000e+00
    2.364120e+01    3.831109e+01    0.000000e+00
    2.246309e+01    3.836418e+01    0.000000e+00
    2.143863e+01    3.826317e+01    0.000000e+00
    2.040525e+01    3.826376e+01    0.000000e+00
    1.934037e+01    3.845745e+01    0.000000e+00
    1.821535e+01    3.822544e+01    0.000000e+00
    1.711029e+01    3.833153e+01    0.000000e+00
    1.607102e+01    3.834489e+01    0.000000e+00
    2.892216e+01    3.927478e+01    0.000000e+00
    2.781420e+01    3.938295e+01    0.000000e+00
    2.702352e+01    3.937088e+01    0.000000e+00
    2.555720e+01    3.921447e+01    0.000000e+00
    2.468626e+01    3.946423e+01    0.000000e+00
    2.368015e+01    3.933501e+01    0.000000e+00
    2.254832e+01    3.959156e+01    0.000000e+00
    2.139859e+01    3.920487e+01    0.000000e+00
    2.047346e+01    3.930189e+01    0.000000e+00
    1.920747e+01    3.950982e+01    0.000000e+00
    1.819216e+01    3.941039e+01    0.000000e+00
    1.711451e+01    3.946708e+01    0.000000e+00
    1.611468e+01    3.946106e+01    0.000000e+00
    2.855602e+01    4.077710e+01    0.000000e+00
    2.766478e+01    4.061113e+01    0.000000e+00
    2.674475e+01    4.052282e+01    0.000000e+00
    2.581075e+01    4.048533e+01    0.000000e+00
    2.490618e+01    4.047509e+01    0.000000e+00
    2.359948e+01    4.072261e+01    0.000000e+00
    2.254362e+01    4.082450e+01    0.000000e+00
    2.135964e+01    4.038192e+01    0.000000e+00
    2.042256e+01    4.043924e+01    0.000000e+00
    1.922327e+01    4.065211e+01    0.000000e+00
    1.832324e+01    4.045325e+01    0.000000e+00
    1.714240e+01    4.044227e+01    0.000000e+00
    1.603977e+01    4.055273e+01    0.000000e+00
    2.883164e+01    4.170130e+01    0.000000e+00
    2.764938e+01    4.168157e+01    0.000000e+00
    2.671417e+01    4.166650e+01    0.000000e+00
    2.577565e+01    4.165071e+01    0.000000e+00
    2.476689e+01    4.164979e+01    0.000000e+00
    2.370117e+01    4.215703e+01    0.000000e+00
    2.245687e+01    4.198326e+01    0.000000e+00
    2.124256e+01    4.167496e+01    0.000000e+00
    2.004633e+01    4.177918e+01    0.000000e+00
    1.912101e+01    4.152917e+01    0.000000e+00
    1.833216e+01    4.156627e+01    0.000000e+00
    1.705963e+01    4.154628e+01    0.000000e+00
    1.606554e+01    4.152538e+01    0.000000e+00
    2.852029e+01    4.263046e+01    0.000000e+00
    2.762948e+01    4.274162e+01    0.000000e+00
    2.673379e+01    4.276664e+01    0.000000e+00
    2.581790e+01    4.278306e+01    0.000000e+00
    2.483187e+01    4.285199e+01    0.000000e+00
    2.380023e+01    4.329813e+01    0.000000e+00
    2.258694e+01    4.307017e+01    0.000000e+00
    2.142957e+01    4.287898e+01    0.000000e+00
    2.027324e+01    4.275928e+01    0.000000e+00
    1.916154e+01    4.256633e+01    0.000000e+00
    1.829133e+01    4.267663e+01    0.000000e+00
    1.691994e+01    4.270412e+01    0.000000e+00
    1.606351e+01    4.284034e+01    0.000000e+00
    2.854799e+01    4.396980e+01    0.000000e+00
    2.766998e+01    4.389564e+01    0.000000e+00
    2.681104e+01    4.388921e+01    0.000000e+00
    2.600086e+01    4.389550e+01    0.000000e+00
    2.469971e+01    4.408515e+01    0.000000e+00
    2.360287e+01    4.426028e+01    0.000000e+00
    2.267162e+01    4.420259e+01    0.000000e+00
    2.157479e+01    4.393298e+01    0.000000e+00
    2.051835e+01    4.377569e+01    0.000000e+00
    1.924818e+01    4.377258e+01    0.000000e+00
    1.816268e+01    4.381368e+01    0.000000e+00
    1.723036e+01    4.373631e+01    0.000000e+00
    1.604913e+01    4.384719e+01    0.000000e+00
    2.889359e+01    4.481373e+01    0.000000e+00
    2.776773e+01    4.497453e+01    0.000000e+00
    2.684112e+01    4.499336e+01    0.000000e+00
    2.589129e+01    4.496518e+01    0.000000e+00
    2.449423e+01    4.499426e+01    0.000000e+00
    2.362769e+01    4.514105e+01    0.000000e+00
    2.256103e+01    4.527436e+01    0.000000e+00
    2.163033e+01    4.491440e+01    0.000000e+00
    2.073696e+01    4.467585e+01    0.000000e+00
    1.899212e+01    4.496116e+01    0.000000e+00
    1.803640e+01    4.496895e+01    0.000000e+00
    1.720961e+01    4.493306e+01    0.000000e+00
    1.638169e+01    4.478303e+01    0.000000e+00
    2.857084e+01    4.631992e+01    0.000000e+00
    2.770958e+01    4.617165e+01    0.000000e+00
    2.682943e+01    4.613536e+01    0.000000e+00
    2.588806e+01    4.615909e+01    0.000000e+00
    2.447380e+01    4.620079e+01    0.000000e+00
    2.357615e+01    4.622570e+01    0.000000e+00
    2.251733e+01    4.630984e+01    0.000000e+00
    2.148804e+01    4.593996e+01    0.000000e+00
    2.058266e+01    4.598951e+01    0.000000e+00
    1.900437e+01    4.596679e+01    0.000000e+00
    1.805819e+01    4.607767e+01    0.000000e+00
    1.717222e+01    4.613198e+01    0.000000e+00
    1.608220e+01    4.630461e+01    0.000000e+00
    2.884056e+01    4.724099e+01    0.000000e+00
    2.768937e+01    4.723025e+01    0.000000e+00
    2.680915e+01    4.722457e+01    0.000000e+00
    2.599982e+01    4.722519e+01    0.000000e+00
    2.468224e+01    4.712087e+01    0.000000e+00
    2.341026e+01    4.727876e+01    0.000000e+00
    2.247333e+01    4.723959e+01    0.000000e+00
    2.160968e+01    4.693652e+01    0.000000e+00
    2.010701e+01    4.716291e+01    0.000000e+00
    1.894777e+01    4.714418e+01    0.000000e+00
    1.814289e+01    4.719481e+01    0.000000e+00
    1.729171e+01    4.721414e+01    0.000000e+00
    1.643878e+01    4.715417e+01    0.000000e+00
    2.852212e+01    4.817354e+01    0.000000e+00
    2.763036e+01    4.829044e+01    0.000000e+00
    2.673442e+01    4.832178e+01    0.000000e+00
    2.582123e+01    4.833960e+01    0.000000e+00
    2.485359e+01    4.837454e+01    0.000000e+00
    2.387517e+01    4.822525e+01    0.000000e+00
    2.269353e+01    4.821284e+01    0.000000e+00
    2.169803e+01    4.784349e+01    0.000000e+00
    2.008276e+01    4.816430e+01    0.000000e+00
    1.914567e+01    4.826212e+01    0.000000e+00
    1.822999e+01    4.832331e+01    0.000000e+00
    1.733765e+01    4.837498e+01    0.000000e+00
    1.646939e+01    4.850116e+01    0.000000e+00
    2.853768e+01    4.951289e+01    0.000000e+00
    2.763033e+01    4.944387e+01    0.000000e+00
    2.671520e+01    4.944402e+01    0.000000e+00
    2.577467e+01    4.946492e+01    0.000000e+00
    2.479129e+01    4.951197e+01    0.000000e+00
    2.380190e+01    4.929855e+01    0.000000e+00
    2.251872e+01    4.933587e+01    0.000000e+00
    2.155215e+01    4.935128e+01    0.000000e+00
    2.015283e+01    4.940376e+01    0.000000e+00
    1.918300e+01    4.942784e+01    0.000000e+00
    1.825383e+01    4.944017e+01    0.000000e+00
    1.733112e+01    4.944462e+01    0.000000e+00
    1.617640e+01    4.944584e+01    0.000000e+00
    2.887828e+01    5.035272e+01    0.000000e+00
    2.770736e+01    5.052267e+01    0.000000e+00
    2.673454e+01    5.055273e+01    0.000000e+00
    2.579526e+01    5.056903e+01    0.000000e+00
    2.484516e+01    5.063040e+01    0.000000e+00
    2.374749e+01    5.039227e+01    0.000000e+00
    2.246036e+01    5.044313e+01    0.000000e+00
    2.152243e+01    5.050404e+01    0.000000e+00
    2.015094e+01    5.054842e+01    0.000000e+00
    1.918488e+01    5.055277e+01    0.000000e+00
    1.825617e+01    5.054417e+01    0.000000e+00
    1.735624e+01    5.051279e+01    0.000000e+00
    1.648565e+01    5.039070e+01    0.000000e+00
    2.855169e+01    5.186227e+01    0.000000e+00
    2.764779e+01    5.172095e+01    0.000000e+00
    2.672526e+01    5.167936e+01    0.000000e+00
    2.581101e+01    5.165034e+01    0.000000e+00
    2.491236e+01    5.159134e+01    0.000000e+00
    2.347552e+01    5.130819e+01    0.000000e+00
    2.249748e+01    5.149624e+01    0.000000e+00
    2.161474e+01    5.167062e+01    0.000000e+00
    2.016196e+01    5.170519e+01    0.000000e+00
    1.918657e+01    5.167478e+01    0.000000e+00
    1.825758e+01    5.166893e+01    0.000000e+00
    1.735107e+01    5.167124e+01    0.000000e+00
    1.646798e+01    5.173646e+01    0.000000e+00
    2.883361e+01    5.277229e+01    0.000000e+00
    2.764796e+01    5.277690e+01    0.000000e+00
    2.671164e+01    5.277620e+01    0.000000e+00
    2.579274e+01    5.277566e+01    0.000000e+00
    2.483598e+01    5.279246e+01    0.000000e+00
    2.344450e+01    5.281052e+01    0.000000e+00
    2.269138e+01    5.281765e+01    0.000000e+00
    2.137998e+01    5.269382e+01    0.000000e+00
    2.002203e+01    5.278775e+01    0.000000e+00
    1.917885e+01    5.278416e+01    0.000000e+00
    1.825198e+01    5.277532e+01    0.000000e+00
    1.728527e+01    5.274035e+01    0.000000e+00
    1.613200e+01    5.257254e+01    0.000000e+00
    2.854236e+01    5.368587e+01    0.000000e+00
    2.763517e+01    5.383224e+01    0.000000e+00
    2.669860e+01    5.387095e+01    0.000000e+00
    2.578561e+01    5.387907e+01    0.000000e+00
    2.497222e+01    5.386884e+01    0.000000e+00
    2.373339e+01    5.379908e+01    0.000000e+00
    2.243491e+01    5.379610e+01    0.000000e+00
    2.099475e+01    5.399349e+01    0.000000e+00
    2.010114e+01    5.391347e+01    0.000000e+00
    1.921358e+01    5.390274e+01    0.000000e+00
    1.826304e+01    5.390118e+01    0.000000e+00
    1.730968e+01    5.389578e+01    0.000000e+00
    1.651594e+01    5.388109e+01    0.000000e+00
    2.888521e+01    5.518732e+01    0.000000e+00
    2.768961e+01    5.502967e+01    0.000000e+00
    2.667824e+01    5.500658e+01    0.000000e+00
    2.571281e+01    5.499763e+01    0.000000e+00
    2.480583e+01    5.496499e+01    0.000000e+00
    2.392399e+01    5.488087e+01    0.000000e+00
    2.245863e+01    5.477463e+01    0.000000e+00
    2.102484e+01    5.486607e+01    0.000000e+00
    2.014458e+01    5.497467e+01    0.000000e+00
    1.924436e+01    5.500272e+01    0.000000e+00
    1.827406e+01    5.501634e+01    0.000000e+00
    1.726456e+01    5.503506e+01    0.000000e+00
    1.606755e+01    5.513752e+01    0.000000e+00
    2.853184e+01    5.603867e+01    0.000000e+00
    2.761631e+01    5.613591e+01    0.000000e+00
    2.665247e+01    5.616702e+01    0.000000e+00
    2.567109e+01    5.617323e+01    0.000000e+00
    2.473173e+01    5.615729e+01    0.000000e+00
    2.389093e+01    5.610202e+01    0.000000e+00
    2.237516e+01    5.568730e+01    0.000000e+00
    2.108547e+01    5.600537e+01    0.000000e+00
    2.024096e+01    5.608461e+01    0.000000e+00
    1.929346e+01    5.611158e+01    0.000000e+00
    1.830260e+01    5.611934e+01    0.000000e+00
    1.730230e+01    5.611684e+01    0.000000e+00
    1.620959e+01    5.603918e+01    0.000000e+00
    2.854178e+01    5.726617e+01    0.000000e+00
    2.771789e+01    5.747169e+01    0.000000e+00
    2.669054e+01    5.752952e+01    0.000000e+00
    2.565453e+01    5.754013e+01    0.000000e+00
    2.460746e+01    5.752570e+01    0.000000e+00
    2.361562e+01    5.737249e+01    0.000000e+00
    2.249072e+01    5.726734e+01    0.000000e+00
    2.132539e+01    5.723432e+01    0.000000e+00
    2.031470e+01    5.726007e+01    0.000000e+00
    1.931284e+01    5.724432e+01    0.000000e+00
    1.831586e+01    5.724538e+01    0.000000e+00
    1.735415e+01    5.726706e+01    0.000000e+00
    1.645259e+01    5.736356e+01    0.000000e+00
    2.912680e+01    5.843476e+01    0.000000e+00
    2.775013e+01    5.812056e+01    0.000000e+00
    2.669853e+01    5.814473e+01    0.000000e+00
    2.566635e+01    5.815839e+01    0.000000e+00
    2.458619e+01    5.820819e+01    0.000000e+00
    2.354772e+01    5.839871e+01    0.000000e+00
    2.234990e+01    5.818824e+01    0.000000e+00
    2.152771e+01    5.849307e+01    0.000000e+00
    2.006589e+01    5.834637e+01    0.000000e+00
    1.925390e+01    5.835212e+01    0.000000e+00
    1.828789e+01    5.835490e+01    0.000000e+00
    1.729012e+01    5.832788e+01    0.000000e+00
    1.612547e+01    5.816865e+01    0.000000e+00
    2.864077e+01    5.921114e+01    0.000000e+00
    2.769002e+01    5.928254e+01    0.000000e+00
    2.670399e+01    5.929957e+01    0.000000e+00
    2.573809e+01    5.933393e+01    0.000000e+00
    2.490133e+01    5.935456e+01    0.000000e+00
    2.334615e+01    5.956608e+01    0.000000e+00
    2.248297e+01    5.942292e+01    0.000000e+00
    2.143939e+01    5.943996e+01    0.000000e+00
    2.028726e+01    5.947507e+01    0.000000e+00
    1.928970e+01    5.954891e+01    0.000000e+00
    1.827785e+01    5.958215e+01    0.000000e+00
    1.727796e+01    5.957064e+01    0.000000e+00
    1.646753e+01    5.951664e+01    0.000000e+00
    2.889571e+01    6.072144e+01    0.000000e+00
    2.771261e+01    6.056676e+01    0.000000e+00
    2.675586e+01    6.053324e+01    0.000000e+00
    2.597672e+01    6.052362e+01    0.000000e+00
    2.449893e+01    6.069918e+01    0.000000e+00
    2.345720e+01    6.055802e+01    0.000000e+00
    2.246836e+01    6.053772e+01    0.000000e+00
    2.148137e+01    6.057059e+01    0.000000e+00
    2.049897e+01    6.075631e+01    0.000000e+00
    1.931108e+01    6.059121e+01    0.000000e+00
    1.828378e+01    6.081699e+01    0.000000e+00
    1.712204e+01    6.078265e+01    0.000000e+00
    1.575141e+01    6.056967e+01    0.000000e+00
    2.857721e+01    6.158289e+01    0.000000e+00
    2.765778e+01    6.171904e+01    0.000000e+00
    2.670368e+01    6.170047e+01    0.000000e+00
    2.575927e+01    6.163185e+01    0.000000e+00
    2.465671e+01    6.163443e+01    0.000000e+00
    2.347855e+01    6.162518e+01    0.000000e+00
    2.248331e+01    6.161731e+01    0.000000e+00
    2.149212e+01    6.162771e+01    0.000000e+00
    2.034375e+01    6.162848e+01    0.000000e+00
    1.929495e+01    6.157240e+01    0.000000e+00
    1.824334e+01    6.160416e+01    0.000000e+00
    1.710115e+01    6.147623e+01    0.000000e+00
    1.609975e+01    6.164727e+01    0.000000e+00
    2.905241e+01    6.289306e+01    0.000000e+00
    2.776104e+01    6.293809e+01    0.000000e+00
    2.648903e+01    6.294009e+01    0.000000e+00
    2.567127e+01    6.279899e+01    0.000000e+00
    2.466306e+01    6.270789e+01    0.000000e+00
    2.350271e+01    6.269069e+01    0.000000e+00
    2.249038e+01    6.271519e+01    0.000000e+00
    2.147557e+01    6.268862e+01    0.000000e+00
    2.031129e+01    6.269901e+01    0.000000e+00
    1.926486e+01    6.274139e+01    0.000000e+00
    1.819271e+01    6.274124e+01    0.000000e+00
    1.711724e+01    6.278326e+01    0.000000e+00
    1.612118e+01    6.292704e+01    0.000000e+00
    2.892421e+01    6.387556e+01    0.000000e+00
    2.774353e+01    6.364206e+01    0.000000e+00
    2.668781e+01    6.370948e+01    0.000000e+00
    2.565295e+01    6.411807e+01    0.000000e+00
    2.459858e+01    6.368806e+01    0.000000e+00
    2.356464e+01    6.368021e+01    0.000000e+00
    2.249546e+01    6.410072e+01    0.000000e+00
    2.141848e+01    6.368232e+01    0.000000e+00
    2.036664e+01    6.370575e+01    0.000000e+00
    1.924945e+01    6.421213e+01    0.000000e+00
    1.809548e+01    6.385237e+01    0.000000e+00
    1.713707e+01    6.391831e+01    0.000000e+00
    1.598657e+01    6.405561e+01    0.000000e+00
    1.508609e+01    3.843633e+01    0.000000e+00
    1.508870e+01    3.932348e+01    0.000000e+00
    1.508930e+01    3.892882e+01    0.000000e+00
    1.508848e+01    3.883022e+01    0.000000e+00
    1.508638e+01    3.853482e+01    0.000000e+00
    1.508597e+01    3.814067e+01    0.000000e+00
    1.508627e+01    3.804190e+01    0.000000e+00
    1.853480e+01    3.508633e+01    0.000000e+00
    1.863321e+01    3.508700e+01    0.000000e+00
    1.772712e+01    3.511509e+01    0.000000e+00
    1.783871e+01    3.510183e+01    0.000000e+00
    1.794184e+01    3.509291e+01    0.000000e+00
    1.804166e+01    3.508807e+01    0.000000e+00
    1.814054e+01    3.508642e+01    0.000000e+00
    1.823921e+01    3.508602e+01    0.000000e+00
    1.833780e+01    3.508596e+01    0.000000e+00
    1.843631e+01    3.508611e+01    0.000000e+00
    1.873167e+01    3.508794e+01    0.000000e+00
    1.883027e+01    3.508890e+01    0.000000e+00
    1.892895e+01    3.508970e+01    0.000000e+00
    1.902756e+01    3.509028e+01    0.000000e+00
    1.912596e+01    3.509080e+01    0.000000e+00
    1.922537e+01    3.509166e+01    0.000000e+00
    1.932727e+01    3.509457e+01    0.000000e+00
    1.508925e+01    3.912681e+01    0.000000e+00
    1.509005e+01    3.902748e+01    0.000000e+00
    1.508760e+01    3.873171e+01    0.000000e+00
    1.508693e+01    3.863325e+01    0.000000e+00
    1.508604e+01    3.833780e+01    0.000000e+00
    1.508603e+01    3.823924e+01    0.000000e+00
    1.508793e+01    3.794259e+01    0.000000e+00
    1.509415e+01    3.784381e+01    0.000000e+00
    1.721400e+01    3.633827e+01    0.000000e+00
    1.749615e+01    3.566883e+01    0.000000e+00
    1.624723e+01    3.726460e+01    0.000000e+00
    1.690007e+01    3.675352e+01    0.000000e+00
    1.675329e+01    3.690010e+01    0.000000e+00
    1.752065e+01    3.556705e+01    0.000000e+00
    1.606069e+01    3.735680e+01    0.000000e+00
    1.739744e+01    3.596486e+01    0.000000e+00
    1.566844e+01    3.749632e+01    0.000000e+00
    1.642578e+01    3.715776e+01    0.000000e+00
    1.731309e+01    3.615495e+01    0.000000e+00
    1.615481e+01    3.731244e+01    0.000000e+00
    1.586754e+01    3.743427e+01    0.000000e+00
    1.746709e+01    3.576876e+01    0.000000e+00
    1.576867e+01    3.746708e+01    0.000000e+00
    1.682802e+01    3.682808e+01    0.000000e+00
    1.545655e+01    3.754715e+01    0.000000e+00
    1.533292e+01    3.757560e+01    0.000000e+00
    1.735694e+01    3.606063e+01    0.000000e+00
    1.556505e+01    3.752240e+01    0.000000e+00
    1.709897e+01    3.651261e+01    0.000000e+00
    1.726547e+01    3.624751e+01    0.000000e+00
    1.667555e+01    3.696929e+01    0.000000e+00
    1.696936e+01    3.667604e+01    0.000000e+00
    1.596484e+01    3.739733e+01    0.000000e+00
    1.715847e+01    3.642674e+01    0.000000e+00
    1.633759e+01    3.721307e+01    0.000000e+00
    1.651164e+01    3.709856e+01    0.000000e+00
    1.743407e+01    3.586747e+01    0.000000e+00
    1.753984e+01    3.546423e+01    0.000000e+00
    1.512921e+01    3.951433e+01    0.000000e+00
    1.951855e+01    3.513247e+01    0.000000e+00
    1.519139e+01    3.968811e+01    0.000000e+00
    1.969221e+01    3.519540e+01    0.000000e+00
    1.528933e+01    3.998188e+01    0.000000e+00
    1.999067e+01    3.528668e+01    0.000000e+00
    1.867997e+01    3.517531e+01    0.000000e+00
    1.517295e+01    3.848533e+01    0.000000e+00
    1.517953e+01    3.887838e+01    0.000000e+00
    1.517254e+01    3.809112e+01    0.000000e+00
    1.828844e+01    3.517220e+01    0.000000e+00
    1.809079e+01    3.517373e+01    0.000000e+00
    1.848484e+01    3.517221e+01    0.000000e+00
    1.887860e+01    3.518084e+01    0.000000e+00
    1.907569e+01    3.518311e+01    0.000000e+00
    1.927527e+01    3.518950e+01    0.000000e+00
    1.518172e+01    3.907790e+01    0.000000e+00
    1.517527e+01    3.868174e+01    0.000000e+00
    1.517240e+01    3.828849e+01    0.000000e+00
    1.518483e+01    3.780179e+01    0.000000e+00
    1.917347e+01    3.518486e+01    0.000000e+00
    1.858188e+01    3.517286e+01    0.000000e+00
    1.818979e+01    3.517260e+01    0.000000e+00
    1.838671e+01    3.517221e+01    0.000000e+00
    1.877870e+01    3.517860e+01    0.000000e+00
    1.897730e+01    3.518279e+01    0.000000e+00
    1.518044e+01    3.918128e+01    0.000000e+00
    1.518167e+01    3.897743e+01    0.000000e+00
    1.517750e+01    3.877985e+01    0.000000e+00
    1.517406e+01    3.858348e+01    0.000000e+00
    1.517264e+01    3.838694e+01    0.000000e+00
    1.517244e+01    3.818990e+01    0.000000e+00
    1.517463e+01    3.799046e+01    0.000000e+00
    1.520325e+01    3.938621e+01    0.000000e+00
    1.939770e+01    3.520845e+01    0.000000e+00
    1.760884e+01    3.511382e+01    0.000000e+00
    1.659494e+01    3.703554e+01    0.000000e+00
    1.703576e+01    3.659573e+01    0.000000e+00
    1.642960e+01    3.726183e+01    0.000000e+00
    1.726349e+01    3.643114e+01    0.000000e+00
    1.685192e+01    3.692753e+01    0.000000e+00
    1.604676e+01    3.745709e+01    0.000000e+00
    1.624186e+01    3.736720e+01    0.000000e+00
    1.759211e+01    3.563791e+01    0.000000e+00
    1.563698e+01    3.759375e+01    0.000000e+00
    1.741466e+01    3.614493e+01    0.000000e+00
    1.700060e+01    3.677436e+01    0.000000e+00
    1.677347e+01    3.700046e+01    0.000000e+00
    1.756427e+01    3.574248e+01    0.000000e+00
    1.736854e+01    3.624191e+01    0.000000e+00
    1.753236e+01    3.584535e+01    0.000000e+00
    1.749660e+01    3.594674e+01    0.000000e+00
    1.574232e+01    3.756482e+01    0.000000e+00
    1.594682e+01    3.749669e+01    0.000000e+00
    1.540819e+01    3.765735e+01    0.000000e+00
    1.614504e+01    3.741387e+01    0.000000e+00
    1.584533e+01    3.753251e+01    0.000000e+00
    1.745721e+01    3.604649e+01    0.000000e+00
    1.552681e+01    3.762305e+01    0.000000e+00
    1.692736e+01    3.685223e+01    0.000000e+00
    1.761459e+01    3.553032e+01    0.000000e+00
    1.731834e+01    3.633750e+01    0.000000e+00
    1.720367e+01    3.652186e+01    0.000000e+00
    1.651989e+01    3.720243e+01    0.000000e+00
    1.763217e+01    3.541616e+01    0.000000e+00
    1.633681e+01    3.731670e+01    0.000000e+00
    1.516479e+01    3.759886e+01    0.000000e+00
    1.530173e+01    3.953864e+01    0.000000e+00
    1.954309e+01    3.530716e+01    0.000000e+00
    1.542373e+01    3.973411e+01    0.000000e+00
    1.974024e+01    3.543701e+01    0.000000e+00
    1.550609e+01    4.043901e+01    0.000000e+00
    2.044026e+01    3.543932e+01    0.000000e+00
    1.526005e+01    3.843645e+01    0.000000e+00
    1.525937e+01    3.814032e+01    0.000000e+00
    1.525960e+01    3.833782e+01    0.000000e+00
    1.525941e+01    3.823914e+01    0.000000e+00
    1.843784e+01    3.525629e+01    0.000000e+00
    1.833949e+01    3.525767e+01    0.000000e+00
    1.824038e+01    3.525854e+01    0.000000e+00
    1.813989e+01    3.525986e+01    0.000000e+00
    1.795177e+01    3.526138e+01    0.000000e+00
    1.526136e+01    3.803921e+01    0.000000e+00
    1.526579e+01    3.793566e+01    0.000000e+00
    1.527621e+01    3.913042e+01    0.000000e+00
    1.527606e+01    3.902623e+01    0.000000e+00
    1.902634e+01    3.527793e+01    0.000000e+00
    1.528377e+01    3.925365e+01    0.000000e+00
    1.526082e+01    3.853510e+01    0.000000e+00
    1.892644e+01    3.527690e+01    0.000000e+00
    1.882495e+01    3.527298e+01    0.000000e+00
    1.921782e+01    3.527844e+01    0.000000e+00
    1.527390e+01    3.892478e+01    0.000000e+00
    1.526932e+01    3.882510e+01    0.000000e+00
    1.872350e+01    3.526623e+01    0.000000e+00
    1.775245e+01    3.529506e+01    0.000000e+00
    1.660740e+01    3.713853e+01    0.000000e+00
    1.707138e+01    3.669343e+01    0.000000e+00
    1.713931e+01    3.660933e+01    0.000000e+00
    1.669191e+01    3.707091e+01    0.000000e+00
    1.771151e+01    3.549259e+01    0.000000e+00
    1.768821e+01    3.560431e+01    0.000000e+00
    1.766199e+01    3.571286e+01    0.000000e+00
    1.549154e+01    3.772859e+01    0.000000e+00
    1.755921e+01    3.602919e+01    0.000000e+00
    1.751796e+01    3.613136e+01    0.000000e+00
    1.759727e+01    3.592528e+01    0.000000e+00
    1.763142e+01    3.581971e+01    0.000000e+00
    1.582000e+01    3.763242e+01    0.000000e+00
    1.592544e+01    3.759729e+01    0.000000e+00
    1.571255e+01    3.766382e+01    0.000000e+00
    1.602944e+01    3.755891e+01    0.000000e+00
    1.560335e+01    3.769482e+01    0.000000e+00
    1.613197e+01    3.751749e+01    0.000000e+00
    1.623321e+01    3.747274e+01    0.000000e+00
    1.633316e+01    3.742400e+01    0.000000e+00
    1.643122e+01    3.737027e+01    0.000000e+00
    1.652664e+01    3.731083e+01    0.000000e+00
    1.687492e+01    3.703062e+01    0.000000e+00
    1.695382e+01    3.695446e+01    0.000000e+00
    1.747382e+01    3.623259e+01    0.000000e+00
    1.703037e+01    3.687602e+01    0.000000e+00
    1.742578e+01    3.633308e+01    0.000000e+00
    1.731307e+01    3.652896e+01    0.000000e+00
    1.737244e+01    3.643220e+01    0.000000e+00
    1.537084e+01    3.938383e+01    0.000000e+00
    1.939315e+01    3.536398e+01    0.000000e+00
    1.549105e+01    3.952385e+01    0.000000e+00
    1.952036e+01    3.549700e+01    0.000000e+00
    1.560596e+01    3.998433e+01    0.000000e+00
    2.001283e+01    3.563605e+01    0.000000e+00
    1.926447e+01    3.537778e+01    0.000000e+00
    1.866026e+01    3.534525e+01    0.000000e+00
    1.908313e+01    3.537465e+01    0.000000e+00
    1.534703e+01    3.849162e+01    0.000000e+00
    1.534699e+01    3.828904e+01    0.000000e+00
    1.534730e+01    3.839030e+01    0.000000e+00
    1.534696e+01    3.818937e+01    0.000000e+00
    1.536209e+01    3.788216e+01    0.000000e+00
    1.829749e+01    3.534316e+01    0.000000e+00
    1.819295e+01    3.534705e+01    0.000000e+00
    1.808745e+01    3.535143e+01    0.000000e+00
    1.849575e+01    3.533287e+01    0.000000e+00
    1.534163e+01    3.867946e+01    0.000000e+00
    1.537043e+01    3.907673e+01    0.000000e+00
    1.534819e+01    3.808825e+01    0.000000e+00
    1.535284e+01    3.798626e+01    0.000000e+00
    1.897700e+01    3.537713e+01    0.000000e+00
    1.536318e+01    3.886567e+01    0.000000e+00
    1.887074e+01    3.537210e+01    0.000000e+00
    1.876383e+01    3.536099e+01    0.000000e+00
    1.537068e+01    3.897076e+01    0.000000e+00
    1.537699e+01    3.777333e+01    0.000000e+00
    1.710521e+01    3.679492e+01    0.000000e+00
    1.679285e+01    3.710495e+01    0.000000e+00
    1.724773e+01    3.662178e+01    0.000000e+00
    1.661881e+01    3.724598e+01    0.000000e+00
    1.758081e+01    3.621931e+01    0.000000e+00
    1.753576e+01    3.632408e+01    0.000000e+00
    1.632570e+01    3.753479e+01    0.000000e+00
    1.705896e+01    3.698097e+01    0.000000e+00
    1.781177e+01    3.545882e+01    0.000000e+00
    1.611514e+01    3.762289e+01    0.000000e+00
    1.766227e+01    3.600820e+01    0.000000e+00
    1.762278e+01    3.611414e+01    0.000000e+00
    1.568140e+01    3.776612e+01    0.000000e+00
    1.622056e+01    3.758086e+01    0.000000e+00
    1.579145e+01    3.773359e+01    0.000000e+00
    1.590060e+01    3.769920e+01    0.000000e+00
    1.600842e+01    3.766228e+01    0.000000e+00
    1.769868e+01    3.590019e+01    0.000000e+00
    1.775990e+01    3.567904e+01    0.000000e+00
    1.773120e+01    3.579007e+01    0.000000e+00
    1.697945e+01    3.706039e+01    0.000000e+00
    1.557176e+01    3.779985e+01    0.000000e+00
    1.642964e+01    3.748326e+01    0.000000e+00
    1.653135e+01    3.742450e+01    0.000000e+00
    1.717798e+01    3.671039e+01    0.000000e+00
    1.748525e+01    3.642886e+01    0.000000e+00
    1.742717e+01    3.653231e+01    0.000000e+00
    1.670753e+01    3.717693e+01    0.000000e+00
    1.764049e+01    3.526709e+01    0.000000e+00
    1.785316e+01    3.532508e+01    0.000000e+00
    1.526525e+01    3.771111e+01    0.000000e+00
    1.542170e+01    3.925301e+01    0.000000e+00
    1.552081e+01    3.935059e+01    0.000000e+00
    1.933680e+01    3.550497e+01    0.000000e+00
    1.566243e+01    3.968687e+01    0.000000e+00
    1.968311e+01    3.568876e+01    0.000000e+00
    1.546468e+01    3.783743e+01    0.000000e+00
    1.856811e+01    3.541023e+01    0.000000e+00
    1.917477e+01    3.547733e+01    0.000000e+00
    1.542808e+01    3.856436e+01    0.000000e+00
    1.544162e+01    3.879526e+01    0.000000e+00
    1.543463e+01    3.845346e+01    0.000000e+00
    1.868978e+01    3.544061e+01    0.000000e+00
    1.903644e+01    3.548371e+01    0.000000e+00
    1.543547e+01    3.834476e+01    0.000000e+00
    1.543526e+01    3.823978e+01    0.000000e+00
    1.836670e+01    3.542391e+01    0.000000e+00
    1.825225e+01    3.543456e+01    0.000000e+00
    1.814095e+01    3.544448e+01    0.000000e+00
    1.802948e+01    3.545333e+01    0.000000e+00
    1.543506e+01    3.813602e+01    0.000000e+00
    1.545879e+01    3.914237e+01    0.000000e+00
    1.546305e+01    3.890735e+01    0.000000e+00
    1.891903e+01    3.547704e+01    0.000000e+00
    1.547241e+01    3.902704e+01    0.000000e+00
    1.880309e+01    3.546280e+01    0.000000e+00
    1.689643e+01    3.713787e+01    0.000000e+00
    1.713681e+01    3.690007e+01    0.000000e+00
    1.736148e+01    3.663226e+01    0.000000e+00
    1.764739e+01    3.631007e+01    0.000000e+00
    1.768911e+01    3.620171e+01    0.000000e+00
    1.728980e+01    3.672695e+01    0.000000e+00
    1.631306e+01    3.764846e+01    0.000000e+00
    1.642317e+01    3.760062e+01    0.000000e+00
    1.662935e+01    3.735882e+01    0.000000e+00
    1.672269e+01    3.728790e+01    0.000000e+00
    1.609413e+01    3.772952e+01    0.000000e+00
    1.620332e+01    3.769068e+01    0.000000e+00
    1.786739e+01    3.553843e+01    0.000000e+00
    1.721427e+01    3.681608e+01    0.000000e+00
    1.587275e+01    3.780282e+01    0.000000e+00
    1.772862e+01    3.609320e+01    0.000000e+00
    1.708625e+01    3.708772e+01    0.000000e+00
    1.776646e+01    3.598315e+01    0.000000e+00
    1.598375e+01    3.776693e+01    0.000000e+00
    1.780229e+01    3.587038e+01    0.000000e+00
    1.576133e+01    3.783924e+01    0.000000e+00
    1.785792e+01    3.563869e+01    0.000000e+00
    1.783364e+01    3.575494e+01    0.000000e+00
    1.564958e+01    3.787648e+01    0.000000e+00
    1.760095e+01    3.641972e+01    0.000000e+00
    1.681097e+01    3.721379e+01    0.000000e+00
    1.653243e+01    3.754384e+01    0.000000e+00
    1.754574e+01    3.653034e+01    0.000000e+00
    1.791759e+01    3.545000e+01    0.000000e+00
    1.566818e+01    3.945296e+01    0.000000e+00
    1.943428e+01    3.567590e+01    0.000000e+00
    1.590153e+01    3.987414e+01    0.000000e+00
    1.986443e+01    3.596778e+01    0.000000e+00
    1.550094e+01    3.868283e+01    0.000000e+00
    1.847180e+01    3.550454e+01    0.000000e+00
    1.860759e+01    3.550878e+01    0.000000e+00
    1.552202e+01    3.853511e+01    0.000000e+00
    1.909664e+01    3.560469e+01    0.000000e+00
    1.552445e+01    3.841047e+01    0.000000e+00
    1.832056e+01    3.552455e+01    0.000000e+00
    1.819837e+01    3.553390e+01    0.000000e+00
    1.552403e+01    3.829653e+01    0.000000e+00
    1.551067e+01    3.799106e+01    0.000000e+00
    1.554483e+01    3.882657e+01    0.000000e+00
    1.552366e+01    3.818650e+01    0.000000e+00
    1.871698e+01    3.554939e+01    0.000000e+00
    1.557448e+01    3.895596e+01    0.000000e+00
    1.897181e+01    3.558784e+01    0.000000e+00
    1.559108e+01    3.911119e+01    0.000000e+00
    1.884733e+01    3.557354e+01    0.000000e+00
    1.700282e+01    3.716925e+01    0.000000e+00
    1.716397e+01    3.700532e+01    0.000000e+00
    1.776044e+01    3.629077e+01    0.000000e+00
    1.779949e+01    3.617940e+01    0.000000e+00
    1.629447e+01    3.776392e+01    0.000000e+00
    1.673810e+01    3.740523e+01    0.000000e+00
    1.740774e+01    3.674216e+01    0.000000e+00
    1.618138e+01    3.780140e+01    0.000000e+00
    1.724603e+01    3.692529e+01    0.000000e+00
    1.641002e+01    3.772142e+01    0.000000e+00
    1.771856e+01    3.640417e+01    0.000000e+00
    1.748065e+01    3.663871e+01    0.000000e+00
    1.732835e+01    3.683761e+01    0.000000e+00
    1.606870e+01    3.783761e+01    0.000000e+00
    1.691644e+01    3.724691e+01    0.000000e+00
    1.783827e+01    3.606727e+01    0.000000e+00
    1.787796e+01    3.595231e+01    0.000000e+00
    1.595584e+01    3.787433e+01    0.000000e+00
    1.796458e+01    3.557260e+01    0.000000e+00
    1.584455e+01    3.791268e+01    0.000000e+00
    1.791482e+01    3.583267e+01    0.000000e+00
    1.573369e+01    3.795404e+01    0.000000e+00
    1.794321e+01    3.570838e+01    0.000000e+00
    1.683112e+01    3.732704e+01    0.000000e+00
    1.552740e+01    3.922527e+01    0.000000e+00
    1.663819e+01    3.747804e+01    0.000000e+00
    1.652752e+01    3.766857e+01    0.000000e+00
    1.766787e+01    3.652133e+01    0.000000e+00
    1.564320e+01    3.927186e+01    0.000000e+00
    1.924586e+01    3.563673e+01    0.000000e+00
    1.589324e+01    3.955601e+01    0.000000e+00
    1.952332e+01    3.591688e+01    0.000000e+00
    1.585911e+01    4.019079e+01    0.000000e+00
    1.996330e+01    3.638879e+01    0.000000e+00
    1.857976e+01    3.564223e+01    0.000000e+00
    1.561855e+01    3.862189e+01    0.000000e+00
    1.561274e+01    3.874422e+01    0.000000e+00
    1.839053e+01    3.562936e+01    0.000000e+00
    1.561114e+01    3.836390e+01    0.000000e+00
    1.824939e+01    3.562716e+01    0.000000e+00
    1.814862e+01    3.561824e+01    0.000000e+00
    1.561430e+01    3.824900e+01    0.000000e+00
    1.561610e+01    3.813069e+01    0.000000e+00
    1.566114e+01    3.885646e+01    0.000000e+00
    1.902046e+01    3.569180e+01    0.000000e+00
    1.561272e+01    3.800155e+01    0.000000e+00
    1.876096e+01    3.567186e+01    0.000000e+00
    1.570350e+01    3.900049e+01    0.000000e+00
    1.890398e+01    3.569219e+01    0.000000e+00
    1.787746e+01    3.626529e+01    0.000000e+00
    1.783854e+01    3.638184e+01    0.000000e+00
    1.626967e+01    3.787998e+01    0.000000e+00
    1.615403e+01    3.791390e+01    0.000000e+00
    1.726772e+01    3.703739e+01    0.000000e+00
    1.791581e+01    3.615030e+01    0.000000e+00
    1.701566e+01    3.727091e+01    0.000000e+00
    1.638897e+01    3.784413e+01    0.000000e+00
    1.736026e+01    3.695457e+01    0.000000e+00
    1.744945e+01    3.685893e+01    0.000000e+00
    1.685554e+01    3.744806e+01    0.000000e+00
    1.694860e+01    3.735811e+01    0.000000e+00
    1.795710e+01    3.603395e+01    0.000000e+00
    1.603921e+01    3.795026e+01    0.000000e+00
    1.592866e+01    3.798591e+01    0.000000e+00
    1.800598e+01    3.591149e+01    0.000000e+00
    1.582494e+01    3.802653e+01    0.000000e+00
    1.805603e+01    3.565859e+01    0.000000e+00
    1.804080e+01    3.578192e+01    0.000000e+00
    1.675376e+01    3.753020e+01    0.000000e+00
    1.760539e+01    3.663916e+01    0.000000e+00
    1.664331e+01    3.760413e+01    0.000000e+00
    1.651415e+01    3.779758e+01    0.000000e+00
    1.779273e+01    3.650427e+01    0.000000e+00
    1.753166e+01    3.675275e+01    0.000000e+00
    1.718216e+01    3.709945e+01    0.000000e+00
    1.913482e+01    3.574696e+01    0.000000e+00
    1.930088e+01    3.581322e+01    0.000000e+00
    1.574869e+01    3.915940e+01    0.000000e+00
    1.580174e+01    3.933382e+01    0.000000e+00
    1.624434e+01    4.010128e+01    0.000000e+00
    1.615571e+01    3.972015e+01    0.000000e+00
    1.963176e+01    3.618314e+01    0.000000e+00
    2.043709e+01    3.655557e+01    0.000000e+00
    1.855576e+01    3.577817e+01    0.000000e+00
    1.571388e+01    3.855275e+01    0.000000e+00
    1.843541e+01    3.574924e+01    0.000000e+00
    1.568783e+01    3.843390e+01    0.000000e+00
    1.828823e+01    3.573923e+01    0.000000e+00
    1.572982e+01    3.871849e+01    0.000000e+00
    1.570671e+01    3.832983e+01    0.000000e+00
    1.572001e+01    3.807642e+01    0.000000e+00
    1.571627e+01    3.820337e+01    0.000000e+00
    1.867865e+01    3.577840e+01    0.000000e+00
    1.579328e+01    3.888089e+01    0.000000e+00
    1.899120e+01    3.582701e+01    0.000000e+00
    1.882514e+01    3.580216e+01    0.000000e+00
    1.796025e+01    3.635312e+01    0.000000e+00
    1.726454e+01    3.716113e+01    0.000000e+00
    1.623776e+01    3.799773e+01    0.000000e+00
    1.800011e+01    3.623277e+01    0.000000e+00
    1.612068e+01    3.803098e+01    0.000000e+00
    1.635938e+01    3.796750e+01    0.000000e+00
    1.738113e+01    3.708429e+01    0.000000e+00
    1.803759e+01    3.611441e+01    0.000000e+00
    1.709247e+01    3.736586e+01    0.000000e+00
    1.748501e+01    3.698581e+01    0.000000e+00
    1.698720e+01    3.748227e+01    0.000000e+00
    1.808558e+01    3.599813e+01    0.000000e+00
    1.600706e+01    3.806878e+01    0.000000e+00
    1.791940e+01    3.647916e+01    0.000000e+00
    1.688076e+01    3.757888e+01    0.000000e+00
    1.590905e+01    3.808816e+01    0.000000e+00
    1.773471e+01    3.663111e+01    0.000000e+00
    1.757920e+01    3.687642e+01    0.000000e+00
    1.664136e+01    3.773703e+01    0.000000e+00
    1.649052e+01    3.792901e+01    0.000000e+00
    1.676504e+01    3.766348e+01    0.000000e+00
    1.584936e+01    3.903827e+01    0.000000e+00
    1.766266e+01    3.675669e+01    0.000000e+00
    1.915446e+01    3.591148e+01    0.000000e+00
    1.590632e+01    3.920343e+01    0.000000e+00
    1.631665e+01    3.954833e+01    0.000000e+00
    1.595855e+01    3.936170e+01    0.000000e+00
    2.080798e+01    3.623084e+01    0.000000e+00
    1.655477e+01    4.053148e+01    0.000000e+00
    1.646636e+01    3.976187e+01    0.000000e+00
    1.846678e+01    3.586985e+01    0.000000e+00
    1.579890e+01    3.844578e+01    0.000000e+00
    1.721149e+01    3.742101e+01    0.000000e+00
    1.860138e+01    3.588418e+01    0.000000e+00
    1.582243e+01    3.828771e+01    0.000000e+00
    1.582592e+01    3.814911e+01    0.000000e+00
    1.587823e+01    3.875722e+01    0.000000e+00
    1.873461e+01    3.590658e+01    0.000000e+00
    1.808234e+01    3.632062e+01    0.000000e+00
    1.815875e+01    3.571479e+01    0.000000e+00
    1.619795e+01    3.811781e+01    0.000000e+00
    1.594142e+01    3.891161e+01    0.000000e+00
    1.632083e+01    3.809225e+01    0.000000e+00
    1.723683e+01    3.729919e+01    0.000000e+00
    1.804581e+01    3.644693e+01    0.000000e+00
    1.751636e+01    3.712544e+01    0.000000e+00
    1.814193e+01    3.607839e+01    0.000000e+00
    1.701956e+01    3.762156e+01    0.000000e+00
    1.645639e+01    3.806313e+01    0.000000e+00
    1.786768e+01    3.661349e+01    0.000000e+00
    1.662888e+01    3.787548e+01    0.000000e+00
    1.762220e+01    3.701033e+01    0.000000e+00
    1.689930e+01    3.772043e+01    0.000000e+00
    1.901721e+01    3.600414e+01    0.000000e+00
    1.771785e+01    3.688530e+01    0.000000e+00
    1.739328e+01    3.724403e+01    0.000000e+00
    1.676717e+01    3.780526e+01    0.000000e+00
    1.779987e+01    3.675097e+01    0.000000e+00
    1.583041e+01    3.860546e+01    0.000000e+00
    1.931497e+01    3.599376e+01    0.000000e+00
    1.607990e+01    3.925391e+01    0.000000e+00
    1.601072e+01    3.907518e+01    0.000000e+00
    1.887459e+01    3.594123e+01    0.000000e+00
    1.630691e+01    3.930796e+01    0.000000e+00
    1.654144e+01    3.946880e+01    0.000000e+00
    1.672750e+01    4.006257e+01    0.000000e+00
    1.630567e+01    4.101476e+01    0.000000e+00
    1.592980e+01    3.838575e+01    0.000000e+00
    1.602399e+01    3.877946e+01    0.000000e+00
    1.813955e+01    3.619519e+01    0.000000e+00
    1.864822e+01    3.600118e+01    0.000000e+00
    1.817295e+01    3.586398e+01    0.000000e+00
    1.627413e+01    3.822057e+01    0.000000e+00
    1.826687e+01    3.592431e+01    0.000000e+00
    1.819049e+01    3.630062e+01    0.000000e+00
    1.816824e+01    3.640979e+01    0.000000e+00
    1.595794e+01    3.863479e+01    0.000000e+00
    1.590699e+01    3.851532e+01    0.000000e+00
    1.641271e+01    3.820113e+01    0.000000e+00
    1.606740e+01    3.823563e+01    0.000000e+00
    1.800269e+01    3.658591e+01    0.000000e+00
    1.660516e+01    3.802036e+01    0.000000e+00
    1.755792e+01    3.726961e+01    0.000000e+00
    1.712503e+01    3.751245e+01    0.000000e+00
    1.766324e+01    3.715131e+01    0.000000e+00
    1.943789e+01    3.609945e+01    0.000000e+00
    1.704944e+01    3.777053e+01    0.000000e+00
    1.610324e+01    3.893492e+01    0.000000e+00
    1.916895e+01    3.608231e+01    0.000000e+00
    1.877798e+01    3.603624e+01    0.000000e+00
    1.890133e+01    3.606894e+01    0.000000e+00
    1.776972e+01    3.702580e+01    0.000000e+00
    1.851863e+01    3.598528e+01    0.000000e+00
    1.690933e+01    3.787249e+01    0.000000e+00
    1.794297e+01    3.673479e+01    0.000000e+00
    1.675952e+01    3.795635e+01    0.000000e+00
    1.786437e+01    3.688408e+01    0.000000e+00
    1.733385e+01    3.739480e+01    0.000000e+00
    1.619007e+01    3.910390e+01    0.000000e+00
    1.654563e+01    3.919925e+01    0.000000e+00
    1.680107e+01    3.966082e+01    0.000000e+00
    1.828923e+01    3.622814e+01    0.000000e+00
    1.609645e+01    3.863991e+01    0.000000e+00
    1.621831e+01    3.835319e+01    0.000000e+00
    1.828466e+01    3.636248e+01    0.000000e+00
    1.636291e+01    3.834125e+01    0.000000e+00
    1.726932e+01    3.752544e+01    0.000000e+00
    1.835716e+01    3.599239e+01    0.000000e+00
    1.835727e+01    3.612478e+01    0.000000e+00
    1.868205e+01    3.612298e+01    0.000000e+00
    1.857574e+01    3.607756e+01    0.000000e+00
    1.813761e+01    3.654843e+01    0.000000e+00
    1.656983e+01    3.817336e+01    0.000000e+00
    1.769995e+01    3.728520e+01    0.000000e+00
    1.882483e+01    3.617028e+01    0.000000e+00
    1.921464e+01    3.625519e+01    0.000000e+00
    1.781778e+01    3.718221e+01    0.000000e+00
    1.808997e+01    3.670601e+01    0.000000e+00
    1.707539e+01    3.793518e+01    0.000000e+00
    1.792954e+01    3.703351e+01    0.000000e+00
    1.674165e+01    3.812112e+01    0.000000e+00
    1.691396e+01    3.803844e+01    0.000000e+00
    1.802019e+01    3.687108e+01    0.000000e+00
    1.746589e+01    3.736965e+01    0.000000e+00
    1.941602e+01    3.626542e+01    0.000000e+00
    1.618300e+01    3.878669e+01    0.000000e+00
    1.717227e+01    3.765101e+01    0.000000e+00
    1.628134e+01    3.894334e+01    0.000000e+00
    1.901144e+01    3.618838e+01    0.000000e+00
    1.636448e+01    3.910028e+01    0.000000e+00
    1.680184e+01    3.932692e+01    0.000000e+00
    1.843304e+01    3.621340e+01    0.000000e+00
    1.596463e+01    3.821367e+01    0.000000e+00
    1.630899e+01    3.848540e+01    0.000000e+00
    1.734898e+01    3.766383e+01    0.000000e+00
    1.827258e+01    3.650166e+01    0.000000e+00
    1.856556e+01    3.618517e+01    0.000000e+00
    1.651720e+01    3.832135e+01    0.000000e+00
    1.743080e+01    3.750476e+01    0.000000e+00
    1.870105e+01    3.626571e+01    0.000000e+00
    1.625100e+01    3.863503e+01    0.000000e+00
    1.908132e+01    3.640208e+01    0.000000e+00
    1.824189e+01    3.666568e+01    0.000000e+00
    1.784704e+01    3.738096e+01    0.000000e+00
    1.722680e+01    3.781084e+01    0.000000e+00
    1.670655e+01    3.831096e+01    0.000000e+00
    1.799531e+01    3.720577e+01    0.000000e+00
    1.650011e+01    3.894448e+01    0.000000e+00
    1.709701e+01    3.811906e+01    0.000000e+00
    1.818577e+01    3.684480e+01    0.000000e+00
    1.635579e+01    3.877985e+01    0.000000e+00
    1.810345e+01    3.702732e+01    0.000000e+00
    1.691050e+01    3.822431e+01    0.000000e+00
    1.761741e+01    3.743542e+01    0.000000e+00
    1.958579e+01    3.646136e+01    0.000000e+00
    1.931378e+01    3.645578e+01    0.000000e+00
    1.887687e+01    3.633541e+01    0.000000e+00
    1.675554e+01    3.903968e+01    0.000000e+00
    1.704146e+01    3.912893e+01    0.000000e+00
    1.713997e+01    3.988116e+01    0.000000e+00
    1.573739e+01    4.101924e+01    0.000000e+00
    1.684105e+01    4.100205e+01    0.000000e+00
    2.090865e+01    3.571517e+01    0.000000e+00
    2.100799e+01    3.677776e+01    0.000000e+00
    1.853859e+01    3.634064e+01    0.000000e+00
    1.840666e+01    3.644189e+01    0.000000e+00
    1.839865e+01    3.661266e+01    0.000000e+00
    1.616061e+01    3.849387e+01    0.000000e+00
    1.602047e+01    3.850242e+01    0.000000e+00
    1.839044e+01    3.631731e+01    0.000000e+00
    1.641484e+01    3.861843e+01    0.000000e+00
    1.914991e+01    3.663520e+01    0.000000e+00
    1.660194e+01    3.843415e+01    0.000000e+00
    1.755072e+01    3.764277e+01    0.000000e+00
    1.726783e+01    3.799303e+01    0.000000e+00
    1.836130e+01    3.680381e+01    0.000000e+00
    1.891916e+01    3.654223e+01    0.000000e+00
    1.731653e+01    3.819125e+01    0.000000e+00
    1.872196e+01    3.644527e+01    0.000000e+00
    1.806954e+01    3.739499e+01    0.000000e+00
    1.829367e+01    3.700496e+01    0.000000e+00
    1.744801e+01    3.784988e+01    0.000000e+00
    1.668996e+01    3.879873e+01    0.000000e+00
    1.776347e+01    3.759360e+01    0.000000e+00
    1.689717e+01    3.842750e+01    0.000000e+00
    1.694419e+01    3.884631e+01    0.000000e+00
    1.942183e+01    3.671030e+01    0.000000e+00
    1.737818e+01    3.921663e+01    0.000000e+00
    1.747538e+01    3.960939e+01    0.000000e+00
    1.974555e+01    3.675316e+01    0.000000e+00
    1.656214e+01    4.142934e+01    0.000000e+00
    1.741148e+01    4.102289e+01    0.000000e+00
    1.855848e+01    3.653889e+01    0.000000e+00
    1.651257e+01    3.874735e+01    0.000000e+00
    1.672679e+01    3.847780e+01    0.000000e+00
    1.894574e+01    3.678250e+01    0.000000e+00
    1.846790e+01    3.609643e+01    0.000000e+00
    1.745192e+01    3.804859e+01    0.000000e+00
    1.854593e+01    3.674329e+01    0.000000e+00
    1.794571e+01    3.754556e+01    0.000000e+00
    1.736164e+01    3.843145e+01    0.000000e+00
    1.841818e+01    3.718989e+01    0.000000e+00
    1.646801e+01    3.846597e+01    0.000000e+00
    1.829096e+01    3.741180e+01    0.000000e+00
    1.873522e+01    3.665694e+01    0.000000e+00
    1.768419e+01    3.779790e+01    0.000000e+00
    1.682794e+01    3.862425e+01    0.000000e+00
    1.850139e+01    3.696337e+01    0.000000e+00
    1.710994e+01    3.860400e+01    0.000000e+00
    1.920084e+01    3.690983e+01    0.000000e+00
    1.724513e+01    3.889660e+01    0.000000e+00
    1.776330e+01    3.931332e+01    0.000000e+00
    2.008432e+01    3.679413e+01    0.000000e+00
    1.755678e+01    4.005420e+01    0.000000e+00
    1.950768e+01    3.702306e+01    0.000000e+00
    1.660601e+01    3.859524e+01    0.000000e+00
    1.872365e+01    3.689261e+01    0.000000e+00
    1.760532e+01    3.797868e+01    0.000000e+00
    1.855594e+01    3.741514e+01    0.000000e+00
    1.867369e+01    3.715360e+01    0.000000e+00
    1.894463e+01    3.706229e+01    0.000000e+00
    1.791128e+01    3.773765e+01    0.000000e+00
    1.955332e+01    3.740151e+01    0.000000e+00
    1.812045e+01    3.760873e+01    0.000000e+00
    1.761810e+01    3.891140e+01    0.000000e+00
    1.763150e+01    3.821984e+01    0.000000e+00
    1.739264e+01    3.868137e+01    0.000000e+00
    1.987253e+01    3.711579e+01    0.000000e+00
    1.787790e+01    3.973403e+01    0.000000e+00
    1.781697e+01    3.796499e+01    0.000000e+00
    1.763734e+01    3.856217e+01    0.000000e+00
    1.812094e+01    3.790127e+01    0.000000e+00
    1.837181e+01    3.766358e+01    0.000000e+00
    1.889246e+01    3.741102e+01    0.000000e+00
    1.995028e+01    3.756835e+01    0.000000e+00
    1.831329e+01    3.988393e+01    0.000000e+00
    1.921063e+01    3.760351e+01    0.000000e+00
    1.803591e+01    3.900060e+01    0.000000e+00
    1.773518e+01    4.052246e+01    0.000000e+00
    1.652542e+01    4.203970e+01    0.000000e+00
    1.866876e+01    3.769577e+01    0.000000e+00
    1.793122e+01    3.841494e+01    0.000000e+00
    1.845449e+01    3.796135e+01    0.000000e+00
    1.952016e+01    3.785533e+01    0.000000e+00
    1.867155e+01    3.949110e+01    0.000000e+00
    1.848459e+01    3.902836e+01    0.000000e+00
    1.801841e+01    4.102101e+01    0.000000e+00
    2.041214e+01    3.776332e+01    0.000000e+00
    1.794320e+01    3.814530e+01    0.000000e+00
    1.789798e+01    3.870249e+01    0.000000e+00
    1.893546e+01    3.773782e+01    0.000000e+00
    1.877681e+01    3.799002e+01    0.000000e+00
    1.994117e+01    3.811060e+01    0.000000e+00
    1.827003e+01    3.861151e+01    0.000000e+00
    1.885621e+01    4.007689e+01    0.000000e+00
    1.856489e+01    3.827953e+01    0.000000e+00
    2.089220e+01    3.744819e+01    0.000000e+00
    1.898694e+01    3.902303e+01    0.000000e+00
    1.796128e+01    4.012957e+01    0.000000e+00
    1.862923e+01    4.096098e+01    0.000000e+00
    2.086783e+01    3.801793e+01    0.000000e+00
    1.729624e+01    4.212405e+01    0.000000e+00
    1.911623e+01    3.798561e+01    0.000000e+00
    1.876013e+01    3.861157e+01    0.000000e+00
    1.946768e+01    3.903376e+01    0.000000e+00
    2.002564e+01    3.874837e+01    0.000000e+00
    2.076823e+01    3.863333e+01    0.000000e+00
    1.875799e+01    4.053581e+01    0.000000e+00
    1.891168e+01    3.826484e+01    0.000000e+00
    1.979875e+01    3.941936e+01    0.000000e+00
    2.128271e+01    3.771312e+01    0.000000e+00
    1.768179e+01    4.157271e+01    0.000000e+00
    2.181828e+01    3.669034e+01    0.000000e+00
    1.950603e+01    3.999843e+01    0.000000e+00
    2.924794e+01    3.788670e+01    0.000000e+00
    2.916454e+01    5.128396e+01    0.000000e+00
    1.753694e+01    6.444924e+01    0.000000e+00
    2.916381e+01    5.425444e+01    0.000000e+00
    2.090574e+01    6.437890e+01    0.000000e+00
    2.911205e+01    5.670546e+01    0.000000e+00
    2.919660e+01    5.979024e+01    0.000000e+00
    2.408064e+01    6.437170e+01    0.000000e+00
    2.921065e+01    6.213172e+01    0.000000e+00
    2.723436e+01    6.436041e+01    0.000000e+00
    2.912312e+01    4.883282e+01    0.000000e+00
    2.917565e+01    4.574819e+01    0.000000e+00
    2.912511e+01    4.329626e+01    0.000000e+00
    2.917577e+01    4.021220e+01    0.000000e+00
    1.585465e+01    5.679977e+01    0.000000e+00
    1.585987e+01    5.907673e+01    0.000000e+00
    1.577134e+01    6.223688e+01    0.000000e+00
    1.588059e+01    5.105476e+01    0.000000e+00
    1.569362e+01    4.207486e+01    0.000000e+00
    1.549931e+01    4.151020e+01    0.000000e+00
    1.588149e+01    5.348137e+01    0.000000e+00
    1.586915e+01    4.783539e+01    0.000000e+00
    1.580088e+01    4.536422e+01    0.000000e+00
    2.183907e+01    3.757913e+01    0.000000e+00
    2.013020e+01    3.990577e+01    0.000000e+00
    1.983204e+01    4.039832e+01    0.000000e+00
    1.796639e+01    4.212858e+01    0.000000e+00
    2.930782e+01    4.958179e+01    0.000000e+00
    2.930795e+01    5.356357e+01    0.000000e+00
    2.930582e+01    5.595471e+01    0.000000e+00
    2.936642e+01    3.854020e+01    0.000000e+00
    2.931269e+01    4.090654e+01    0.000000e+00
    2.929541e+01    4.252560e+01    0.000000e+00
    2.931334e+01    4.404753e+01    0.000000e+00
    2.931741e+01    4.644077e+01    0.000000e+00
    2.929716e+01    4.806000e+01    0.000000e+00
    2.939283e+01    5.911880e+01    0.000000e+00
    2.933671e+01    6.146616e+01    0.000000e+00
    2.930997e+01    5.197318e+01    0.000000e+00
    2.955036e+01    3.682725e+01    0.000000e+00
    2.164815e+01    6.443239e+01    0.000000e+00
    2.481380e+01    6.443557e+01    0.000000e+00
    2.799095e+01    6.437561e+01    0.000000e+00
    1.569611e+01    5.180746e+01    0.000000e+00
    1.570299e+01    4.861476e+01    0.000000e+00
    1.567803e+01    4.707890e+01    0.000000e+00
    1.564634e+01    4.466163e+01    0.000000e+00
    1.552694e+01    6.324845e+01    0.000000e+00
    1.556928e+01    5.570699e+01    0.000000e+00
    1.570853e+01    5.027475e+01    0.000000e+00
    1.552816e+01    4.320253e+01    0.000000e+00
    2.143647e+01    3.551548e+01    0.000000e+00
    2.313634e+01    3.577107e+01    0.000000e+00
    2.630078e+01    3.563680e+01    0.000000e+00
    2.704831e+01    3.560384e+01    0.000000e+00
    2.863331e+01    3.556592e+01    0.000000e+00
    1.987358e+01    4.097692e+01    0.000000e+00
    1.857449e+01    4.209340e+01    0.000000e+00
    1.760188e+01    4.267430e+01    0.000000e+00
    2.195946e+01    3.574635e+01    0.000000e+00
    2.075689e+01    3.984674e+01    0.000000e+00
    2.556084e+01    3.555183e+01    0.000000e+00
    1.785205e+01    4.321731e+01    0.000000e+00
    2.058893e+01    4.105045e+01    0.000000e+00
    1.854316e+01    4.320930e+01    0.000000e+00
    2.315618e+01    3.650791e+01    0.000000e+00
    2.501848e+01    3.670185e+01    0.000000e+00
    2.725274e+01    3.667810e+01    0.000000e+00
    2.841961e+01    3.682783e+01    0.000000e+00
    1.670725e+01    4.325654e+01    0.000000e+00
    1.766043e+01    4.437179e+01    0.000000e+00
    2.835242e+01    6.314668e+01    0.000000e+00
    2.717461e+01    6.313023e+01    0.000000e+00
    2.531187e+01    6.333555e+01    0.000000e+00
    2.408225e+01    6.319172e+01    0.000000e+00
    2.214405e+01    6.329641e+01    0.000000e+00
    2.089300e+01    6.319392e+01    0.000000e+00
    1.746466e+01    6.333624e+01    0.000000e+00
    2.621935e+01    3.680743e+01    0.000000e+00
    1.578823e+01    5.983189e+01    0.000000e+00
    1.587314e+01    5.423470e+01    0.000000e+00
    2.920317e+01    5.755346e+01    0.000000e+00
    1.565209e+01    6.120203e+01    0.000000e+00
    2.949416e+01    6.320531e+01    0.000000e+00
    1.568654e+01    5.743487e+01    0.000000e+00
    1.700815e+01    5.218764e+01    0.000000e+00
    2.836108e+01    3.765079e+01    0.000000e+00
    2.814039e+01    3.882752e+01    0.000000e+00
    1.681753e+01    5.331778e+01    0.000000e+00
    1.693077e+01    5.557965e+01    0.000000e+00
    1.682992e+01    5.671220e+01    0.000000e+00
    1.680056e+01    5.893186e+01    0.000000e+00
    1.661386e+01    6.220352e+01    0.000000e+00
    1.676534e+01    6.340409e+01    0.000000e+00
    2.797545e+01    4.118097e+01    0.000000e+00
    2.796025e+01    4.219352e+01    0.000000e+00
    2.811840e+01    4.331020e+01    0.000000e+00
    1.690624e+01    4.433427e+01    0.000000e+00
    2.802761e+01    4.441890e+01    0.000000e+00
    1.670705e+01    4.550996e+01    0.000000e+00
    2.823742e+01    4.559972e+01    0.000000e+00
    1.693568e+01    4.669352e+01    0.000000e+00
    2.801234e+01    4.673034e+01    0.000000e+00
    1.685907e+01    4.781042e+01    0.000000e+00
    2.797617e+01    4.773974e+01    0.000000e+00
    1.702333e+01    4.893376e+01    0.000000e+00
    2.810572e+01    4.885527e+01    0.000000e+00
    1.688802e+01    5.107821e+01    0.000000e+00
    2.819481e+01    5.114410e+01    0.000000e+00
    2.797058e+01    5.227492e+01    0.000000e+00
    2.796471e+01    5.327621e+01    0.000000e+00
    2.818451e+01    5.440365e+01    0.000000e+00
    2.797413e+01    5.559221e+01    0.000000e+00
    2.811715e+01    5.673282e+01    0.000000e+00
    2.814197e+01    5.859571e+01    0.000000e+00
    2.800450e+01    6.114066e+01    0.000000e+00
    2.825759e+01    6.240471e+01    0.000000e+00
    2.823602e+01    4.003957e+01    0.000000e+00
    1.703124e+01    4.995617e+01    0.000000e+00
    2.798705e+01    4.996473e+01    0.000000e+00
    2.822434e+01    5.992099e+01    0.000000e+00
    2.649397e+01    6.443759e+01    0.000000e+00
    2.334394e+01    6.443053e+01    0.000000e+00
    2.015700e+01    6.445936e+01    0.000000e+00
    1.692159e+01    6.448463e+01    0.000000e+00
    1.726230e+01    4.311771e+01    0.000000e+00
    1.841996e+01    4.437763e+01    0.000000e+00
    1.680127e+01    5.444128e+01    0.000000e+00
    1.700942e+01    5.778489e+01    0.000000e+00
    1.664929e+01    6.021902e+01    0.000000e+00
    2.841362e+01    5.790706e+01    0.000000e+00
    2.744755e+01    3.786407e+01    0.000000e+00
    2.516124e+01    3.779663e+01    0.000000e+00
    2.310995e+01    3.777758e+01    0.000000e+00
    1.758880e+01    4.552436e+01    0.000000e+00
    1.639596e+01    6.098281e+01    0.000000e+00
    2.717697e+01    6.244276e+01    0.000000e+00
    2.538907e+01    6.220797e+01    0.000000e+00
    2.407525e+01    6.216455e+01    0.000000e+00
    2.215295e+01    6.216139e+01    0.000000e+00
    2.090568e+01    6.216095e+01    0.000000e+00
    1.745366e+01    6.216168e+01    0.000000e+00
    2.283945e+01    6.329665e+01    0.000000e+00
    1.961732e+01    6.334511e+01    0.000000e+00
    2.616714e+01    3.775518e+01    0.000000e+00
    2.596259e+01    6.338044e+01    0.000000e+00
    2.435545e+01    3.666423e+01    0.000000e+00
    1.780462e+01    5.109750e+01    0.000000e+00
    2.734672e+01    3.869690e+01    0.000000e+00
    1.781385e+01    5.221088e+01    0.000000e+00
    1.778045e+01    5.332852e+01    0.000000e+00
    1.781232e+01    5.557173e+01    0.000000e+00
    1.782181e+01    5.668993e+01    0.000000e+00
    1.778848e+01    5.894883e+01    0.000000e+00
    1.888397e+01    6.337845e+01    0.000000e+00
    2.716747e+01    4.112744e+01    0.000000e+00
    2.715685e+01    4.221067e+01    0.000000e+00
    2.721492e+01    4.332302e+01    0.000000e+00
    2.725512e+01    4.443479e+01    0.000000e+00
    2.729905e+01    4.557257e+01    0.000000e+00
    1.768983e+01    4.665726e+01    0.000000e+00
    2.724342e+01    4.669552e+01    0.000000e+00
    1.775304e+01    4.777625e+01    0.000000e+00
    2.719399e+01    4.776283e+01    0.000000e+00
    1.781509e+01    4.889928e+01    0.000000e+00
    2.717892e+01    4.887434e+01    0.000000e+00
    2.721229e+01    5.112212e+01    0.000000e+00
    2.715977e+01    5.224194e+01    0.000000e+00
    2.715000e+01    5.330972e+01    0.000000e+00
    2.718152e+01    5.443042e+01    0.000000e+00
    2.712891e+01    5.558329e+01    0.000000e+00
    2.715919e+01    5.680712e+01    0.000000e+00
    2.719970e+01    5.857625e+01    0.000000e+00
    2.718402e+01    6.112148e+01    0.000000e+00
    2.729615e+01    3.995487e+01    0.000000e+00
    1.782493e+01    4.998233e+01    0.000000e+00
    2.717122e+01    4.998861e+01    0.000000e+00
    2.722078e+01    5.992955e+01    0.000000e+00
    1.850966e+01    4.661635e+01    0.000000e+00
    2.641484e+01    4.669692e+01    0.000000e+00
    2.641985e+01    4.442532e+01    0.000000e+00
    2.640566e+01    4.556435e+01    0.000000e+00
    1.833597e+01    4.549979e+01    0.000000e+00
    1.778089e+01    5.445811e+01    0.000000e+00
    1.784507e+01    5.779593e+01    0.000000e+00
    1.773120e+01    6.031638e+01    0.000000e+00
    2.721136e+01    5.796855e+01    0.000000e+00
    2.416007e+01    3.778410e+01    0.000000e+00
    2.497577e+01    3.879877e+01    0.000000e+00
    2.540291e+01    6.094350e+01    0.000000e+00
    2.402285e+01    6.112920e+01    0.000000e+00
    2.214701e+01    6.108549e+01    0.000000e+00
    2.095405e+01    6.114577e+01    0.000000e+00
    1.769630e+01    6.099928e+01    0.000000e+00
    2.282158e+01    6.216195e+01    0.000000e+00
    1.962815e+01    6.216001e+01    0.000000e+00
    2.641568e+01    3.892224e+01    0.000000e+00
    2.619821e+01    6.228702e+01    0.000000e+00
    1.892480e+01    6.216384e+01    0.000000e+00
    1.872101e+01    5.110871e+01    0.000000e+00
    1.871850e+01    5.222427e+01    0.000000e+00
    1.872760e+01    5.333914e+01    0.000000e+00
    1.878157e+01    5.556188e+01    0.000000e+00
    1.881195e+01    5.668104e+01    0.000000e+00
    1.877659e+01    5.894417e+01    0.000000e+00
    2.626079e+01    4.108761e+01    0.000000e+00
    2.625319e+01    4.221524e+01    0.000000e+00
    2.634086e+01    4.333790e+01    0.000000e+00
    1.863041e+01    4.771896e+01    0.000000e+00
    2.633795e+01    4.777215e+01    0.000000e+00
    1.870854e+01    4.886723e+01    0.000000e+00
    2.625859e+01    4.889380e+01    0.000000e+00
    2.627666e+01    5.111154e+01    0.000000e+00
    2.626012e+01    5.222147e+01    0.000000e+00
    2.625022e+01    5.332446e+01    0.000000e+00
    2.622305e+01    5.443591e+01    0.000000e+00
    2.617399e+01    5.558149e+01    0.000000e+00
    2.616360e+01    5.683650e+01    0.000000e+00
    2.619497e+01    5.859301e+01    0.000000e+00
    2.629708e+01    6.107569e+01    0.000000e+00
    1.872290e+01    4.999029e+01    0.000000e+00
    2.631082e+01    3.977077e+01    0.000000e+00
    2.625221e+01    5.000864e+01    0.000000e+00
    2.627526e+01    5.995385e+01    0.000000e+00
    1.959978e+01    5.224540e+01    0.000000e+00
    1.962930e+01    5.111735e+01    0.000000e+00
    2.533940e+01    3.990119e+01    0.000000e+00
    1.962700e+01    4.998522e+01    0.000000e+00
    2.538363e+01    5.333913e+01    0.000000e+00
    1.960705e+01    4.882030e+01    0.000000e+00
    2.537307e+01    5.219819e+01    0.000000e+00
    2.536200e+01    4.106170e+01    0.000000e+00
    1.951733e+01    4.758794e+01    0.000000e+00
    2.541253e+01    5.110968e+01    0.000000e+00
    2.533244e+01    4.223367e+01    0.000000e+00
    2.533713e+01    5.004313e+01    0.000000e+00
    2.534594e+01    4.892519e+01    0.000000e+00
    2.549240e+01    4.339546e+01    0.000000e+00
    2.549677e+01    4.775985e+01    0.000000e+00
    2.432757e+01    3.881920e+01    0.000000e+00
    1.918103e+01    4.663740e+01    0.000000e+00
    2.572811e+01    4.436590e+01    0.000000e+00
    2.572453e+01    4.676300e+01    0.000000e+00
    2.568093e+01    4.556374e+01    0.000000e+00
    2.529201e+01    6.009464e+01    0.000000e+00
    2.426370e+01    5.985145e+01    0.000000e+00
    2.212997e+01    5.999523e+01    0.000000e+00
    2.070325e+01    6.009137e+01    0.000000e+00
    2.280689e+01    6.108474e+01    0.000000e+00
    1.969868e+01    6.095296e+01    0.000000e+00
    1.874626e+01    5.445597e+01    0.000000e+00
    1.880235e+01    5.780120e+01    0.000000e+00
    1.880528e+01    6.028928e+01    0.000000e+00
    2.618098e+01    5.799316e+01    0.000000e+00
    1.893952e+01    6.097117e+01    0.000000e+00
    1.962763e+01    5.334393e+01    0.000000e+00
    1.972572e+01    5.554287e+01    0.000000e+00
    1.979556e+01    5.667072e+01    0.000000e+00
    1.972563e+01    5.890171e+01    0.000000e+00
    2.532742e+01    5.441867e+01    0.000000e+00
    2.523593e+01    5.556936e+01    0.000000e+00
    2.517073e+01    5.683222e+01    0.000000e+00
    2.518677e+01    5.864067e+01    0.000000e+00
    1.987602e+01    4.641720e+01    0.000000e+00
    2.506655e+01    4.458496e+01    0.000000e+00
    2.505268e+01    4.658282e+01    0.000000e+00
    2.510127e+01    4.589212e+01    0.000000e+00
    2.510605e+01    4.526526e+01    0.000000e+00
    2.058796e+01    5.549772e+01    0.000000e+00
    2.437053e+01    5.553743e+01    0.000000e+00
    2.453160e+01    5.436163e+01    0.000000e+00
    2.045992e+01    5.333891e+01    0.000000e+00
    2.031423e+01    5.231629e+01    0.000000e+00
    2.036459e+01    5.111962e+01    0.000000e+00
    2.477489e+01    3.998810e+01    0.000000e+00
    2.469558e+01    5.340274e+01    0.000000e+00
    2.035878e+01    4.997568e+01    0.000000e+00
    2.034460e+01    4.876908e+01    0.000000e+00
    2.464615e+01    5.216918e+01    0.000000e+00
    2.466750e+01    4.102824e+01    0.000000e+00
    2.486640e+01    5.111652e+01    0.000000e+00
    2.011703e+01    4.762059e+01    0.000000e+00
    2.456698e+01    4.229670e+01    0.000000e+00
    2.458558e+01    5.007972e+01    0.000000e+00
    2.460808e+01    4.896675e+01    0.000000e+00
    2.471535e+01    4.358054e+01    0.000000e+00
    2.472325e+01    4.767780e+01    0.000000e+00
    1.964981e+01    5.444967e+01    0.000000e+00
    1.975857e+01    5.782602e+01    0.000000e+00
    1.979918e+01    6.024359e+01    0.000000e+00
    2.514026e+01    5.801462e+01    0.000000e+00
    2.417485e+01    4.011524e+01    0.000000e+00
    2.409733e+01    5.884859e+01    0.000000e+00
    2.216375e+01    5.885605e+01    0.000000e+00
    2.064127e+01    5.876803e+01    0.000000e+00
    2.277693e+01    6.001600e+01    0.000000e+00
    2.075875e+01    5.662010e+01    0.000000e+00
    1.998854e+01    4.542602e+01    0.000000e+00
    2.422123e+01    5.677439e+01    0.000000e+00
    2.439653e+01    4.561986e+01    0.000000e+00
    2.403809e+01    5.321924e+01    0.000000e+00
    2.101968e+01    5.211728e+01    0.000000e+00
    2.410081e+01    5.179942e+01    0.000000e+00
    2.092813e+01    5.081591e+01    0.000000e+00
    2.093011e+01    4.966673e+01    0.000000e+00
    2.092422e+01    4.835580e+01    0.000000e+00
    2.404481e+01    4.127066e+01    0.000000e+00
    2.075220e+01    4.753893e+01    0.000000e+00
    2.432463e+01    5.113969e+01    0.000000e+00
    2.423157e+01    4.982063e+01    0.000000e+00
    2.422506e+01    4.265096e+01    0.000000e+00
    2.095677e+01    5.141481e+01    0.000000e+00
    2.428469e+01    4.871627e+01    0.000000e+00
    2.092278e+01    5.024238e+01    0.000000e+00
    2.418303e+01    4.741777e+01    0.000000e+00
    2.421856e+01    4.393709e+01    0.000000e+00
    2.093641e+01    4.904432e+01    0.000000e+00
    2.405142e+01    5.248503e+01    0.000000e+00
    1.952583e+01    4.698993e+01    0.000000e+00
    2.527988e+01    4.718826e+01    0.000000e+00
    2.528383e+01    4.398458e+01    0.000000e+00
    2.333161e+01    5.664722e+01    0.000000e+00
    2.176291e+01    5.643248e+01    0.000000e+00
    2.088531e+01    4.538914e+01    0.000000e+00
    2.330929e+01    4.011779e+01    0.000000e+00
    2.038303e+01    5.443948e+01    0.000000e+00
    2.123827e+01    5.547264e+01    0.000000e+00
    2.369008e+01    5.553525e+01    0.000000e+00
    2.394105e+01    5.423112e+01    0.000000e+00
    2.120314e+01    5.326066e+01    0.000000e+00
    2.076380e+01    5.796426e+01    0.000000e+00
    2.393531e+01    5.805721e+01    0.000000e+00
    2.169150e+01    5.782945e+01    0.000000e+00
    2.302077e+01    5.875288e+01    0.000000e+00
    2.308319e+01    3.890046e+01    0.000000e+00
    2.428494e+01    4.450047e+01    0.000000e+00
    2.073594e+01    4.666417e+01    0.000000e+00
    2.166332e+01    5.105746e+01    0.000000e+00
    2.165109e+01    4.992391e+01    0.000000e+00
    2.314045e+01    5.518834e+01    0.000000e+00
    2.175846e+01    5.516545e+01    0.000000e+00
    2.326912e+01    5.430259e+01    0.000000e+00
    2.189393e+01    5.309416e+01    0.000000e+00
    2.427856e+01    4.072237e+01    0.000000e+00
    2.431866e+01    5.381377e+01    0.000000e+00
    2.073316e+01    5.275245e+01    0.000000e+00
    1.989683e+01    4.452226e+01    0.000000e+00
    2.326393e+01    5.212769e+01    0.000000e+00
    2.172051e+01    4.869060e+01    0.000000e+00
    2.422969e+01    4.680445e+01    0.000000e+00
    2.262250e+01    5.639609e+01    0.000000e+00
    2.316001e+01    5.800615e+01    0.000000e+00
    2.195480e+01    5.229523e+01    0.000000e+00
    2.165896e+01    5.370891e+01    0.000000e+00
    2.317512e+01    5.592604e+01    0.000000e+00
    2.164405e+01    5.575265e+01    0.000000e+00
    2.326919e+01    4.139161e+01    0.000000e+00
    2.326856e+01    5.345753e+01    0.000000e+00
    2.260190e+01    5.218420e+01    0.000000e+00
    2.304522e+01    5.090996e+01    0.000000e+00
    2.172176e+01    5.438411e+01    0.000000e+00
    2.307055e+01    4.573774e+01    0.000000e+00
    2.313212e+01    4.986745e+01    0.000000e+00
    2.311580e+01    4.471957e+01    0.000000e+00
    2.299426e+01    4.676347e+01    0.000000e+00
    2.322233e+01    4.876813e+01    0.000000e+00
    2.189309e+01    4.124973e+01    0.000000e+00
    1.392514e+01    3.049552e+01    0.000000e+00
    9.054556e-01    3.376208e+01    0.000000e+00
    2.130095e+00    3.396202e+01    0.000000e+00
    3.293974e+00    3.374374e+01    0.000000e+00
    4.392011e+00    3.410500e+01    0.000000e+00
    5.393168e+00    3.367204e+01    0.000000e+00
    6.214270e+00    3.358682e+01    0.000000e+00
    7.312720e+00    3.406524e+01    0.000000e+00
    8.658678e+00    3.386363e+01    0.000000e+00
    9.643369e+00    3.400643e+01    0.000000e+00
    1.068992e+01    3.379735e+01    0.000000e+00
    1.179267e+01    3.388188e+01    0.000000e+00
    8.854447e-01    3.282628e+01    0.000000e+00
    2.336498e+00    3.289754e+01    0.000000e+00
    3.334887e+00    3.273592e+01    0.000000e+00
    4.376042e+00    3.261442e+01    0.000000e+00
    5.343718e+00    3.283609e+01    0.000000e+00
    6.350459e+00    3.272530e+01    0.000000e+00
    7.540865e+00    3.262993e+01    0.000000e+00
    8.453525e+00    3.270617e+01    0.000000e+00
    9.559558e+00    3.282376e+01    0.000000e+00
    1.068706e+01    3.263622e+01    0.000000e+00
    1.178443e+01    3.271405e+01    0.000000e+00
    1.252138e+00    3.143097e+01    0.000000e+00
    2.082692e+00    3.140919e+01    0.000000e+00
    3.487173e+00    3.186384e+01    0.000000e+00
    4.370437e+00    3.181183e+01    0.000000e+00
    5.309104e+00    3.158940e+01    0.000000e+00
    6.273771e+00    3.178207e+01    0.000000e+00
    7.219616e+00    3.168169e+01    0.000000e+00
    8.522038e+00    3.166324e+01    0.000000e+00
    9.683382e+00    3.168591e+01    0.000000e+00
    1.072235e+01    3.149959e+01    0.000000e+00
    1.183261e+01    3.166795e+01    0.000000e+00
    1.287296e+01    3.164524e+01    0.000000e+00
    8.549616e-01    3.067849e+01    0.000000e+00
    2.411589e+00    3.066965e+01    0.000000e+00
    3.314110e+00    3.055843e+01    0.000000e+00
    4.240890e+00    3.048816e+01    0.000000e+00
    5.234737e+00    3.045077e+01    0.000000e+00
    6.162101e+00    3.044131e+01    0.000000e+00
    7.531462e+00    3.035459e+01    0.000000e+00
    8.614798e+00    3.030881e+01    0.000000e+00
    9.600676e+00    3.056992e+01    0.000000e+00
    1.072860e+01    3.048877e+01    0.000000e+00
    1.177666e+01    3.055449e+01    0.000000e+00
    1.288620e+01    3.048319e+01    0.000000e+00
    1.393013e+00    2.933498e+01    0.000000e+00
    2.235507e+00    2.917351e+01    0.000000e+00
    3.216621e+00    2.921716e+01    0.000000e+00
    4.181000e+00    2.906363e+01    0.000000e+00
    5.300939e+00    2.918296e+01    0.000000e+00
    6.201797e+00    2.924757e+01    0.000000e+00
    7.895646e+00    2.911671e+01    0.000000e+00
    8.956972e+00    2.941415e+01    0.000000e+00
    9.803612e+00    2.924339e+01    0.000000e+00
    1.073374e+01    2.930060e+01    0.000000e+00
    1.183879e+01    2.925606e+01    0.000000e+00
    1.286948e+01    2.930628e+01    0.000000e+00
    1.383813e+01    2.933354e+01    0.000000e+00
    7.799132e-01    2.823176e+01    0.000000e+00
    2.189999e+00    2.842277e+01    0.000000e+00
    3.314833e+00    2.820310e+01    0.000000e+00
    4.040795e+00    2.815786e+01    0.000000e+00
    5.552083e+00    2.833651e+01    0.000000e+00
    6.349708e+00    2.818574e+01    0.000000e+00
    7.402976e+00    2.810245e+01    0.000000e+00
    8.732472e+00    2.825276e+01    0.000000e+00
    9.790415e+00    2.847831e+01    0.000000e+00
    1.059829e+01    2.833318e+01    0.000000e+00
    1.177810e+01    2.825324e+01    0.000000e+00
    1.285473e+01    2.834763e+01    0.000000e+00
    1.393654e+01    2.841575e+01    0.000000e+00
    1.467557e+00    2.708380e+01    0.000000e+00
    2.239602e+00    2.714700e+01    0.000000e+00
    3.113028e+00    2.716327e+01    0.000000e+00
    4.038972e+00    2.723850e+01    0.000000e+00
    5.531428e+00    2.711272e+01    0.000000e+00
    6.335200e+00    2.682344e+01    0.000000e+00
    7.408760e+00    2.678969e+01    0.000000e+00
    8.597078e+00    2.711314e+01    0.000000e+00
    9.747423e+00    2.741912e+01    0.000000e+00
    1.052239e+01    2.735458e+01    0.000000e+00
    1.182788e+01    2.685086e+01    0.000000e+00
    1.309425e+01    2.716212e+01    0.000000e+00
    1.403325e+01    2.692193e+01    0.000000e+00
    1.345014e+00    2.582631e+01    0.000000e+00
    2.281277e+00    2.575164e+01    0.000000e+00
    3.152729e+00    2.588931e+01    0.000000e+00
    4.037235e+00    2.582707e+01    0.000000e+00
    5.484613e+00    2.584889e+01    0.000000e+00
    6.328359e+00    2.583787e+01    0.000000e+00
    7.390824e+00    2.570309e+01    0.000000e+00
    8.521487e+00    2.596447e+01    0.000000e+00
    9.733322e+00    2.627190e+01    0.000000e+00
    1.064822e+01    2.612426e+01    0.000000e+00
    1.201259e+01    2.607204e+01    0.000000e+00
    1.289017e+01    2.603094e+01    0.000000e+00
    1.367610e+01    2.606817e+01    0.000000e+00
    8.633077e-01    2.511923e+01    0.000000e+00
    2.397543e+00    2.499817e+01    0.000000e+00
    3.170939e+00    2.487639e+01    0.000000e+00
    4.037199e+00    2.494073e+01    0.000000e+00
    5.477342e+00    2.488715e+01    0.000000e+00
    6.322271e+00    2.480194e+01    0.000000e+00
    7.289706e+00    2.483313e+01    0.000000e+00
    8.366684e+00    2.484123e+01    0.000000e+00
    9.574164e+00    2.512574e+01    0.000000e+00
    1.058845e+01    2.467644e+01    0.000000e+00
    1.203848e+01    2.486315e+01    0.000000e+00
    1.286226e+01    2.479625e+01    0.000000e+00
    1.359573e+01    2.484392e+01    0.000000e+00
    1.120757e+00    2.375057e+01    0.000000e+00
    2.182637e+00    2.357698e+01    0.000000e+00
    3.127709e+00    2.366385e+01    0.000000e+00
    4.028387e+00    2.357427e+01    0.000000e+00
    5.469109e+00    2.361650e+01    0.000000e+00
    6.302110e+00    2.366803e+01    0.000000e+00
    7.198502e+00    2.355442e+01    0.000000e+00
    8.702828e+00    2.380613e+01    0.000000e+00
    9.669806e+00    2.374369e+01    0.000000e+00
    1.069980e+01    2.372560e+01    0.000000e+00
    1.161773e+01    2.374286e+01    0.000000e+00
    1.287343e+01    2.351892e+01    0.000000e+00
    1.426213e+01    2.373687e+01    0.000000e+00
    7.606655e-01    2.258608e+01    0.000000e+00
    2.334356e+00    2.274101e+01    0.000000e+00
    3.152375e+00    2.261486e+01    0.000000e+00
    4.031067e+00    2.267885e+01    0.000000e+00
    5.476697e+00    2.263838e+01    0.000000e+00
    6.341539e+00    2.261626e+01    0.000000e+00
    7.351212e+00    2.281982e+01    0.000000e+00
    8.805914e+00    2.244372e+01    0.000000e+00
    9.750744e+00    2.252229e+01    0.000000e+00
    1.078201e+01    2.263574e+01    0.000000e+00
    1.183238e+01    2.265388e+01    0.000000e+00
    1.286270e+01    2.274453e+01    0.000000e+00
    1.390544e+01    2.257185e+01    0.000000e+00
    1.370422e+00    2.139731e+01    0.000000e+00
    2.192981e+00    2.125590e+01    0.000000e+00
    3.129040e+00    2.133348e+01    0.000000e+00
    4.032600e+00    2.125755e+01    0.000000e+00
    5.506364e+00    2.133584e+01    0.000000e+00
    6.427381e+00    2.143751e+01    0.000000e+00
    7.519405e+00    2.148727e+01    0.000000e+00
    8.605524e+00    2.146662e+01    0.000000e+00
    9.527384e+00    2.142613e+01    0.000000e+00
    1.098002e+01    2.139303e+01    0.000000e+00
    1.183481e+01    2.142080e+01    0.000000e+00
    1.261423e+01    2.129716e+01    0.000000e+00
    1.414966e+01    2.121444e+01    0.000000e+00
    7.776655e-01    2.029264e+01    0.000000e+00
    2.171326e+00    2.050775e+01    0.000000e+00
    3.286761e+00    2.031392e+01    0.000000e+00
    4.018517e+00    2.030812e+01    0.000000e+00
    5.568616e+00    2.030825e+01    0.000000e+00
    6.457258e+00    2.028955e+01    0.000000e+00
    7.568535e+00    2.017188e+01    0.000000e+00
    8.485149e+00    2.053298e+01    0.000000e+00
    9.930270e+00    2.032713e+01    0.000000e+00
    1.087803e+01    2.052070e+01    0.000000e+00
    1.181365e+01    2.041549e+01    0.000000e+00
    1.272673e+01    2.055434e+01    0.000000e+00
    1.367574e+01    2.052263e+01    0.000000e+00
    1.466731e+00    1.915951e+01    0.000000e+00
    2.236651e+00    1.923273e+01    0.000000e+00
    3.105491e+00    1.925990e+01    0.000000e+00
    4.024769e+00    1.935435e+01    0.000000e+00
    5.504476e+00    1.929043e+01    0.000000e+00
    6.404752e+00    1.919300e+01    0.000000e+00
    7.574240e+00    1.914716e+01    0.000000e+00
    8.463008e+00    1.907944e+01    0.000000e+00
    9.938729e+00    1.901520e+01    0.000000e+00
    1.088563e+01    1.909599e+01    0.000000e+00
    1.181977e+01    1.909235e+01    0.000000e+00
    1.281745e+01    1.912613e+01    0.000000e+00
    1.382803e+01    1.921687e+01    0.000000e+00
    1.349627e+00    1.789142e+01    0.000000e+00
    2.285876e+00    1.783363e+01    0.000000e+00
    3.153216e+00    1.798259e+01    0.000000e+00
    4.034985e+00    1.793062e+01    0.000000e+00
    5.489422e+00    1.799003e+01    0.000000e+00
    6.385376e+00    1.805350e+01    0.000000e+00
    7.541021e+00    1.805696e+01    0.000000e+00
    8.398416e+00    1.806138e+01    0.000000e+00
    9.940563e+00    1.805627e+01    0.000000e+00
    1.067842e+01    1.804401e+01    0.000000e+00
    1.176004e+01    1.784904e+01    0.000000e+00
    1.286810e+01    1.785369e+01    0.000000e+00
    1.424686e+01    1.803803e+01    0.000000e+00
    8.823700e-01    1.714836e+01    0.000000e+00
    2.412876e+00    1.707288e+01    0.000000e+00
    3.177706e+00    1.696392e+01    0.000000e+00
    4.039234e+00    1.703935e+01    0.000000e+00
    5.485278e+00    1.699981e+01    0.000000e+00
    6.377477e+00    1.694099e+01    0.000000e+00
    7.557053e+00    1.695289e+01    0.000000e+00
    8.447887e+00    1.704136e+01    0.000000e+00
    9.922816e+00    1.711366e+01    0.000000e+00
    1.084120e+01    1.706168e+01    0.000000e+00
    1.177523e+01    1.718923e+01    0.000000e+00
    1.280160e+01    1.718104e+01    0.000000e+00
    1.360328e+01    1.702028e+01    0.000000e+00
    1.390352e+00    1.580708e+01    0.000000e+00
    2.194406e+00    1.561259e+01    0.000000e+00
    3.129255e+00    1.571101e+01    0.000000e+00
    4.044728e+00    1.564460e+01    0.000000e+00
    5.463090e+00    1.574740e+01    0.000000e+00
    6.358036e+00    1.579433e+01    0.000000e+00
    7.549814e+00    1.579890e+01    0.000000e+00
    8.443754e+00    1.573852e+01    0.000000e+00
    9.930652e+00    1.569612e+01    0.000000e+00
    1.089190e+01    1.580250e+01    0.000000e+00
    1.180487e+01    1.582419e+01    0.000000e+00
    1.275699e+01    1.579658e+01    0.000000e+00
    1.389586e+01    1.562555e+01    0.000000e+00
    9.088056e-01    1.451244e+01    0.000000e+00
    2.137934e+00    1.454650e+01    0.000000e+00
    3.153224e+00    1.456359e+01    0.000000e+00
    4.162395e+00    1.460676e+01    0.000000e+00
    5.273388e+00    1.463830e+01    0.000000e+00
    6.345840e+00    1.466859e+01    0.000000e+00
    7.542592e+00    1.468779e+01    0.000000e+00
    8.437000e+00    1.475003e+01    0.000000e+00
    9.928701e+00    1.478703e+01    0.000000e+00
    1.088859e+01    1.468196e+01    0.000000e+00
    1.179099e+01    1.466721e+01    0.000000e+00
    1.269077e+01    1.469345e+01    0.000000e+00
    1.356073e+01    1.480403e+01    0.000000e+00
    8.877695e-01    1.361340e+01    0.000000e+00
    2.186249e+00    1.358319e+01    0.000000e+00
    3.368608e+00    1.356949e+01    0.000000e+00
    4.082114e+00    1.358285e+01    0.000000e+00
    5.508495e+00    1.356252e+01    0.000000e+00
    6.378925e+00    1.358825e+01    0.000000e+00
    7.550191e+00    1.358279e+01    0.000000e+00
    8.439869e+00    1.352333e+01    0.000000e+00
    9.874908e+00    1.340705e+01    0.000000e+00
    1.084820e+01    1.344120e+01    0.000000e+00
    1.179827e+01    1.341899e+01    0.000000e+00
    1.280099e+01    1.345313e+01    0.000000e+00
    1.381366e+01    1.356054e+01    0.000000e+00
    8.954551e-01    1.254560e+01    0.000000e+00
    2.179235e+00    1.272917e+01    0.000000e+00
    3.191375e+00    1.260073e+01    0.000000e+00
    4.156693e+00    1.267170e+01    0.000000e+00
    5.250079e+00    1.237263e+01    0.000000e+00
    6.396119e+00    1.261041e+01    0.000000e+00
    7.544255e+00    1.254802e+01    0.000000e+00
    8.596189e+00    1.247273e+01    0.000000e+00
    9.696360e+00    1.242293e+01    0.000000e+00
    1.057577e+01    1.239403e+01    0.000000e+00
    1.174034e+01    1.219911e+01    0.000000e+00
    1.286398e+01    1.220631e+01    0.000000e+00
    1.424553e+01    1.240265e+01    0.000000e+00
    1.128717e+00    1.143939e+01    0.000000e+00
    2.220844e+00    1.132483e+01    0.000000e+00
    3.199761e+00    1.130652e+01    0.000000e+00
    4.129662e+00    1.132740e+01    0.000000e+00
    5.114131e+00    1.141480e+01    0.000000e+00
    6.626833e+00    1.133177e+01    0.000000e+00
    7.536330e+00    1.122299e+01    0.000000e+00
    8.615226e+00    1.125844e+01    0.000000e+00
    9.709580e+00    1.135304e+01    0.000000e+00
    1.076630e+01    1.138751e+01    0.000000e+00
    1.174998e+01    1.153733e+01    0.000000e+00
    1.279706e+01    1.153553e+01    0.000000e+00
    1.360557e+01    1.138069e+01    0.000000e+00
    1.012203e+00    9.825883e+00    0.000000e+00
    2.230133e+00    9.863196e+00    0.000000e+00
    3.273819e+00    9.928704e+00    0.000000e+00
    4.204079e+00    1.008498e+01    0.000000e+00
    5.137010e+00    1.006054e+01    0.000000e+00
    6.590418e+00    1.013038e+01    0.000000e+00
    7.501496e+00    1.017417e+01    0.000000e+00
    8.413488e+00    1.017658e+01    0.000000e+00
    9.908394e+00    1.011338e+01    0.000000e+00
    1.086216e+01    1.017272e+01    0.000000e+00
    1.179181e+01    1.018310e+01    0.000000e+00
    1.277330e+01    1.015561e+01    0.000000e+00
    1.394986e+01    1.000195e+01    0.000000e+00
    1.178723e+00    9.054404e+00    0.000000e+00
    2.442420e+00    9.148497e+00    0.000000e+00
    3.332427e+00    9.153413e+00    0.000000e+00
    4.275791e+00    9.051112e+00    0.000000e+00
    5.263916e+00    9.179774e+00    0.000000e+00
    6.385309e+00    8.975283e+00    0.000000e+00
    7.520368e+00    9.177422e+00    0.000000e+00
    8.638570e+00    9.035762e+00    0.000000e+00
    9.765649e+00    9.227466e+00    0.000000e+00
    1.080159e+01    9.065792e+00    0.000000e+00
    1.176227e+01    9.025553e+00    0.000000e+00
    1.274017e+01    9.031164e+00    0.000000e+00
    1.381341e+01    9.110331e+00    0.000000e+00
    1.410124e+00    7.894160e+00    0.000000e+00
    2.240260e+00    7.689281e+00    0.000000e+00
    3.284068e+00    7.621546e+00    0.000000e+00
    4.330185e+00    7.633400e+00    0.000000e+00
    5.289560e+00    7.776175e+00    0.000000e+00
    6.236550e+00    7.767060e+00    0.000000e+00
    7.776658e+00    7.887496e+00    0.000000e+00
    8.671835e+00    7.830969e+00    0.000000e+00
    9.737016e+00    7.823425e+00    0.000000e+00
    1.072654e+01    7.775494e+00    0.000000e+00
    1.175109e+01    7.759834e+00    0.000000e+00
    1.279388e+01    7.793187e+00    0.000000e+00
    1.382121e+01    7.888756e+00    0.000000e+00
    7.812502e-01    6.776752e+00    0.000000e+00
    2.177540e+00    6.972205e+00    0.000000e+00
    3.278105e+00    6.957769e+00    0.000000e+00
    4.366208e+00    6.956439e+00    0.000000e+00
    5.539785e+00    6.769963e+00    0.000000e+00
    6.417000e+00    6.769039e+00    0.000000e+00
    7.564044e+00    6.683363e+00    0.000000e+00
    8.595476e+00    6.887801e+00    0.000000e+00
    9.462555e+00    6.611978e+00    0.000000e+00
    1.068517e+01    6.551729e+00    0.000000e+00
    1.174952e+01    6.548420e+00    0.000000e+00
    1.285813e+01    6.565567e+00    0.000000e+00
    1.424496e+01    6.770165e+00    0.000000e+00
    1.455895e+00    5.660482e+00    0.000000e+00
    2.270198e+00    5.702501e+00    0.000000e+00
    3.280990e+00    5.700880e+00    0.000000e+00
    4.323848e+00    5.701410e+00    0.000000e+00
    5.314779e+00    5.704473e+00    0.000000e+00
    6.415174e+00    5.700846e+00    0.000000e+00
    7.552831e+00    5.812146e+00    0.000000e+00
    8.583643e+00    5.545485e+00    0.000000e+00
    9.605880e+00    5.833452e+00    0.000000e+00
    1.067978e+01    5.880918e+00    0.000000e+00
    1.174947e+01    5.893356e+00    0.000000e+00
    1.280155e+01    5.893291e+00    0.000000e+00
    1.361108e+01    5.745186e+00    0.000000e+00
    1.004333e+00    4.243931e+00    0.000000e+00
    2.181438e+00    4.222927e+00    0.000000e+00
    3.058373e+00    4.374267e+00    0.000000e+00
    4.541482e+00    4.293350e+00    0.000000e+00
    5.400579e+00    4.480145e+00    0.000000e+00
    6.444802e+00    4.551993e+00    0.000000e+00
    7.509680e+00    4.556521e+00    0.000000e+00
    8.553676e+00    4.502943e+00    0.000000e+00
    9.669800e+00    4.355361e+00    0.000000e+00
    1.052830e+01    4.499443e+00    0.000000e+00
    1.198511e+01    4.501728e+00    0.000000e+00
    1.285125e+01    4.478295e+00    0.000000e+00
    1.398780e+01    4.361537e+00    0.000000e+00
    1.102829e+00    3.448932e+00    0.000000e+00
    2.219851e+00    3.450101e+00    0.000000e+00
    3.492118e+00    3.352039e+00    0.000000e+00
    4.421654e+00    3.364997e+00    0.000000e+00
    5.423604e+00    3.404038e+00    0.000000e+00
    6.453597e+00    3.433708e+00    0.000000e+00
    7.497672e+00    3.437398e+00    0.000000e+00
    8.523059e+00    3.419494e+00    0.000000e+00
    9.692177e+00    3.388647e+00    0.000000e+00
    1.070773e+01    3.388798e+00    0.000000e+00
    1.158885e+01    3.233104e+00    0.000000e+00
    1.306609e+01    3.401985e+00    0.000000e+00
    1.390849e+01    3.471724e+00    0.000000e+00
    8.662154e-01    2.187310e+00    0.000000e+00
    2.147542e+00    2.092835e+00    0.000000e+00
    3.443953e+00    2.120614e+00    0.000000e+00
    4.409499e+00    2.233450e+00    0.000000e+00
    5.411055e+00    2.295240e+00    0.000000e+00
    6.443925e+00    2.322957e+00    0.000000e+00
    7.492030e+00    2.308051e+00    0.000000e+00
    8.523389e+00    2.325450e+00    0.000000e+00
    9.699443e+00    2.310834e+00    0.000000e+00
    1.072047e+01    2.313200e+00    0.000000e+00
    1.175642e+01    2.320911e+00    0.000000e+00
    1.286705e+01    2.280684e+00    0.000000e+00
    1.388011e+01    2.106991e+00    0.000000e+00
    8.814970e-01    1.243197e+00    0.000000e+00
    2.076443e+00    1.063345e+00    0.000000e+00
    3.262924e+00    1.281188e+00    0.000000e+00
    4.379451e+00    1.026304e+00    0.000000e+00
    5.450706e+00    1.162180e+00    0.000000e+00
    6.405614e+00    1.290607e+00    0.000000e+00
    7.488353e+00    8.935405e-01    0.000000e+00
    8.557034e+00    1.296872e+00    0.000000e+00
    9.676259e+00    1.183794e+00    0.000000e+00
    1.079343e+01    1.202389e+00    0.000000e+00
    1.179216e+01    1.352861e+00    0.000000e+00
    1.279249e+01    1.151616e+00    0.000000e+00
    1.400010e+01    9.651081e-01    0.000000e+00
    1.491610e+01    3.205936e+01    0.000000e+00
    1.097254e+01    3.491084e+01    0.000000e+00
    1.126820e+01    3.491305e+01    0.000000e+00
    1.146509e+01    3.491404e+01    0.000000e+00
    1.491401e+01    3.156362e+01    0.000000e+00
    1.087310e+01    3.491243e+01    0.000000e+00
    1.107117e+01    3.491113e+01    0.000000e+00
    1.116980e+01    3.491192e+01    0.000000e+00
    1.136665e+01    3.491363e+01    0.000000e+00
    1.156363e+01    3.491410e+01    0.000000e+00
    1.166219e+01    3.491413e+01    0.000000e+00
    1.176075e+01    3.491413e+01    0.000000e+00
    1.185931e+01    3.491413e+01    0.000000e+00
    1.195808e+01    3.491320e+01    0.000000e+00
    1.205844e+01    3.490849e+01    0.000000e+00
    1.215994e+01    3.490231e+01    0.000000e+00
    1.226323e+01    3.489543e+01    0.000000e+00
    1.491414e+01    3.185976e+01    0.000000e+00
    1.491403e+01    3.176088e+01    0.000000e+00
    1.491397e+01    3.166221e+01    0.000000e+00
    1.491394e+01    3.146507e+01    0.000000e+00
    1.491381e+01    3.136655e+01    0.000000e+00
    1.491339e+01    3.126812e+01    0.000000e+00
    1.491256e+01    3.116974e+01    0.000000e+00
    1.491136e+01    3.107132e+01    0.000000e+00
    1.491013e+01    3.097276e+01    0.000000e+00
    1.490886e+01    3.087415e+01    0.000000e+00
    1.490752e+01    3.077446e+01    0.000000e+00
    1.490493e+01    3.067205e+01    0.000000e+00
    1.491464e+01    3.195974e+01    0.000000e+00
    1.253275e+01    3.423120e+01    0.000000e+00
    1.273513e+01    3.375273e+01    0.000000e+00
    1.284216e+01    3.357397e+01    0.000000e+00
    1.340566e+01    3.296497e+01    0.000000e+00
    1.245222e+01    3.453782e+01    0.000000e+00
    1.403504e+01    3.260234e+01    0.000000e+00
    1.375258e+01    3.273517e+01    0.000000e+00
    1.309986e+01    3.324640e+01    0.000000e+00
    1.423122e+01    3.253271e+01    0.000000e+00
    1.247686e+01    3.443354e+01    0.000000e+00
    1.464666e+01    3.242737e+01    0.000000e+00
    1.268733e+01    3.384517e+01    0.000000e+00
    1.243049e+01    3.464444e+01    0.000000e+00
    1.366229e+01    3.278709e+01    0.000000e+00
    1.443361e+01    3.247653e+01    0.000000e+00
    1.260257e+01    3.403514e+01    0.000000e+00
    1.324729e+01    3.309979e+01    0.000000e+00
    1.433160e+01    3.250335e+01    0.000000e+00
    1.357429e+01    3.284284e+01    0.000000e+00
    1.476205e+01    3.240357e+01    0.000000e+00
    1.241303e+01    3.475113e+01    0.000000e+00
    1.317225e+01    3.317164e+01    0.000000e+00
    1.453888e+01    3.245014e+01    0.000000e+00
    1.393922e+01    3.264296e+01    0.000000e+00
    1.264326e+01    3.393940e+01    0.000000e+00
    1.296413e+01    3.340481e+01    0.000000e+00
    1.488398e+01    3.239584e+01    0.000000e+00
    1.384500e+01    3.268718e+01    0.000000e+00
    1.413247e+01    3.256571e+01    0.000000e+00
    1.348873e+01    3.290223e+01    0.000000e+00
    1.332519e+01    3.303094e+01    0.000000e+00
    1.290134e+01    3.348811e+01    0.000000e+00
    1.238591e+01    3.487676e+01    0.000000e+00
    1.256582e+01    3.413251e+01    0.000000e+00
    1.278678e+01    3.366231e+01    0.000000e+00
    1.250346e+01    3.433160e+01    0.000000e+00
    1.486958e+01    3.048059e+01    0.000000e+00
    1.048634e+01    3.487003e+01    0.000000e+00
    1.481366e+01    3.030434e+01    0.000000e+00
    1.031061e+01    3.480538e+01    0.000000e+00
    1.473282e+01    3.000072e+01    0.000000e+00
    1.001060e+01    3.471221e+01    0.000000e+00
    1.482758e+01    3.151383e+01    0.000000e+00
    1.482329e+01    3.112325e+01    0.000000e+00
    1.483512e+01    3.212357e+01    0.000000e+00
    1.482766e+01    3.171158e+01    0.000000e+00
    1.481656e+01    3.092514e+01    0.000000e+00
    1.480728e+01    3.072348e+01    0.000000e+00
    1.091845e+01    3.482066e+01    0.000000e+00
    1.072613e+01    3.484055e+01    0.000000e+00
    1.112211e+01    3.482162e+01    0.000000e+00
    1.122169e+01    3.482488e+01    0.000000e+00
    1.102071e+01    3.481955e+01    0.000000e+00
    1.161187e+01    3.482837e+01    0.000000e+00
    1.171108e+01    3.482808e+01    0.000000e+00
    1.181006e+01    3.482796e+01    0.000000e+00
    1.190921e+01    3.482705e+01    0.000000e+00
    1.200928e+01    3.482255e+01    0.000000e+00
    1.482977e+01    3.201699e+01    0.000000e+00
    1.482820e+01    3.191229e+01    0.000000e+00
    1.482773e+01    3.181096e+01    0.000000e+00
    1.481245e+01    3.082634e+01    0.000000e+00
    1.482755e+01    3.161285e+01    0.000000e+00
    1.482815e+01    3.141449e+01    0.000000e+00
    1.481931e+01    3.102488e+01    0.000000e+00
    1.479056e+01    3.059941e+01    0.000000e+00
    1.061541e+01    3.480313e+01    0.000000e+00
    1.303049e+01    3.332423e+01    0.000000e+00
    1.237369e+01    3.447103e+01    0.000000e+00
    1.339357e+01    3.286265e+01    0.000000e+00
    1.246721e+01    3.415450e+01    0.000000e+00
    1.366269e+01    3.268328e+01    0.000000e+00
    1.233805e+01    3.458661e+01    0.000000e+00
    1.263274e+01    3.375834e+01    0.000000e+00
    1.436250e+01    3.240425e+01    0.000000e+00
    1.258609e+01    3.385510e+01    0.000000e+00
    1.375761e+01    3.263202e+01    0.000000e+00
    1.405304e+01    3.250274e+01    0.000000e+00
    1.286087e+01    3.339219e+01    0.000000e+00
    1.268344e+01    3.366338e+01    0.000000e+00
    1.307204e+01    3.314709e+01    0.000000e+00
    1.314757e+01    3.307150e+01    0.000000e+00
    1.243503e+01    3.425758e+01    0.000000e+00
    1.250332e+01    3.405321e+01    0.000000e+00
    1.458376e+01    3.233561e+01    0.000000e+00
    1.322623e+01    3.299893e+01    0.000000e+00
    1.395310e+01    3.254225e+01    0.000000e+00
    1.279749e+01    3.347985e+01    0.000000e+00
    1.415455e+01    3.246707e+01    0.000000e+00
    1.425768e+01    3.243462e+01    0.000000e+00
    1.447029e+01    3.237210e+01    0.000000e+00
    1.357023e+01    3.273904e+01    0.000000e+00
    1.385460e+01    3.258521e+01    0.000000e+00
    1.254308e+01    3.395345e+01    0.000000e+00
    1.348048e+01    3.279900e+01    0.000000e+00
    1.273835e+01    3.357042e+01    0.000000e+00
    1.330844e+01    3.292935e+01    0.000000e+00
    1.240450e+01    3.436282e+01    0.000000e+00
    1.470055e+01    3.044957e+01    0.000000e+00
    1.046430e+01    3.469713e+01    0.000000e+00
    1.458510e+01    3.024458e+01    0.000000e+00
    1.026215e+01    3.456421e+01    0.000000e+00
    1.458851e+01    2.953961e+01    0.000000e+00
    9.559169e+00    3.455731e+01    0.000000e+00
    1.474144e+01    3.208508e+01    0.000000e+00
    1.196290e+01    3.473785e+01    0.000000e+00
    1.474070e+01    3.166183e+01    0.000000e+00
    1.474793e+01    3.135899e+01    0.000000e+00
    1.474059e+01    3.156088e+01    0.000000e+00
    1.145783e+01    3.474973e+01    0.000000e+00
    1.155521e+01    3.474488e+01    0.000000e+00
    1.165808e+01    3.474240e+01    0.000000e+00
    1.175989e+01    3.474146e+01    0.000000e+00
    1.186115e+01    3.473976e+01    0.000000e+00
    1.474044e+01    3.186283e+01    0.000000e+00
    1.474056e+01    3.176168e+01    0.000000e+00
    1.474286e+01    3.145688e+01    0.000000e+00
    1.473927e+01    3.197103e+01    0.000000e+00
    1.205959e+01    3.473465e+01    0.000000e+00
    1.073490e+01    3.474383e+01    0.000000e+00
    1.085136e+01    3.472667e+01    0.000000e+00
    1.127679e+01    3.474500e+01    0.000000e+00
    1.471323e+01    3.078429e+01    0.000000e+00
    1.096441e+01    3.472386e+01    0.000000e+00
    1.472519e+01    3.098008e+01    0.000000e+00
    1.474262e+01    3.117883e+01    0.000000e+00
    1.117888e+01    3.473512e+01    0.000000e+00
    1.107351e+01    3.472746e+01    0.000000e+00
    1.473227e+01    3.108240e+01    0.000000e+00
    1.299884e+01    3.322583e+01    0.000000e+00
    1.292831e+01    3.330754e+01    0.000000e+00
    1.473545e+01    3.223329e+01    0.000000e+00
    1.230256e+01    3.439605e+01    0.000000e+00
    1.439396e+01    3.230237e+01    0.000000e+00
    1.240249e+01    3.407451e+01    0.000000e+00
    1.236760e+01    3.418017e+01    0.000000e+00
    1.233505e+01    3.428748e+01    0.000000e+00
    1.244119e+01    3.397069e+01    0.000000e+00
    1.418008e+01    3.236687e+01    0.000000e+00
    1.407452e+01    3.240178e+01    0.000000e+00
    1.428677e+01    3.233469e+01    0.000000e+00
    1.397041e+01    3.243971e+01    0.000000e+00
    1.386761e+01    3.248081e+01    0.000000e+00
    1.248302e+01    3.386837e+01    0.000000e+00
    1.376592e+01    3.252573e+01    0.000000e+00
    1.366575e+01    3.257553e+01    0.000000e+00
    1.252815e+01    3.376738e+01    0.000000e+00
    1.356795e+01    3.263076e+01    0.000000e+00
    1.347324e+01    3.269113e+01    0.000000e+00
    1.338185e+01    3.275584e+01    0.000000e+00
    1.311929e+01    3.296547e+01    0.000000e+00
    1.304138e+01    3.304352e+01    0.000000e+00
    1.329218e+01    3.282355e+01    0.000000e+00
    1.320307e+01    3.289233e+01    0.000000e+00
    1.257726e+01    3.366769e+01    0.000000e+00
    1.263098e+01    3.356967e+01    0.000000e+00
    1.275341e+01    3.338118e+01    0.000000e+00
    1.268970e+01    3.347395e+01    0.000000e+00
    1.484397e+01    3.225554e+01    0.000000e+00
    1.225797e+01    3.473671e+01    0.000000e+00
    1.463006e+01    3.059812e+01    0.000000e+00
    1.062401e+01    3.464392e+01    0.000000e+00
    1.450927e+01    3.045821e+01    0.000000e+00
    1.048348e+01    3.450665e+01    0.000000e+00
    1.440899e+01    2.995912e+01    0.000000e+00
    9.986809e+00    3.436395e+01    0.000000e+00
    1.218540e+01    3.465766e+01    0.000000e+00
    1.465576e+01    3.149849e+01    0.000000e+00
    1.465307e+01    3.171122e+01    0.000000e+00
    1.170453e+01    3.465268e+01    0.000000e+00
    1.464690e+01    3.191929e+01    0.000000e+00
    1.159322e+01    3.465677e+01    0.000000e+00
    1.180954e+01    3.464954e+01    0.000000e+00
    1.464097e+01    3.203764e+01    0.000000e+00
    1.465085e+01    3.181318e+01    0.000000e+00
    1.465354e+01    3.160709e+01    0.000000e+00
    1.191627e+01    3.464581e+01    0.000000e+00
    1.076884e+01    3.462208e+01    0.000000e+00
    1.113586e+01    3.463828e+01    0.000000e+00
    1.463319e+01    3.093443e+01    0.000000e+00
    1.089926e+01    3.461972e+01    0.000000e+00
    1.102001e+01    3.462611e+01    0.000000e+00
    1.463778e+01    3.104428e+01    0.000000e+00
    1.463488e+01    3.218917e+01    0.000000e+00
    1.296717e+01    3.312430e+01    0.000000e+00
    1.282203e+01    3.329201e+01    0.000000e+00
    1.246861e+01    3.367582e+01    0.000000e+00
    1.252029e+01    3.357262e+01    0.000000e+00
    1.233805e+01    3.399155e+01    0.000000e+00
    1.237842e+01    3.388529e+01    0.000000e+00
    1.242171e+01    3.378020e+01    0.000000e+00
    1.226669e+01    3.420935e+01    0.000000e+00
    1.230107e+01    3.409976e+01    0.000000e+00
    1.399143e+01    3.233567e+01    0.000000e+00
    1.409964e+01    3.229950e+01    0.000000e+00
    1.420897e+01    3.226606e+01    0.000000e+00
    1.223515e+01    3.431985e+01    0.000000e+00
    1.388468e+01    3.237449e+01    0.000000e+00
    1.367256e+01    3.246410e+01    0.000000e+00
    1.300287e+01    3.293008e+01    0.000000e+00
    1.308591e+01    3.284803e+01    0.000000e+00
    1.217288e+01    3.451797e+01    0.000000e+00
    1.431833e+01    3.223523e+01    0.000000e+00
    1.377841e+01    3.241674e+01    0.000000e+00
    1.318340e+01    3.278149e+01    0.000000e+00
    1.327651e+01    3.271273e+01    0.000000e+00
    1.356850e+01    3.251781e+01    0.000000e+00
    1.337023e+01    3.264359e+01    0.000000e+00
    1.346738e+01    3.257797e+01    0.000000e+00
    1.264136e+01    3.337239e+01    0.000000e+00
    1.257777e+01    3.347116e+01    0.000000e+00
    1.289376e+01    3.320654e+01    0.000000e+00
    1.459406e+01    3.074570e+01    0.000000e+00
    1.447223e+01    3.063882e+01    0.000000e+00
    1.066976e+01    3.449417e+01    0.000000e+00
    1.433255e+01    3.028055e+01    0.000000e+00
    1.031401e+01    3.431743e+01    0.000000e+00
    1.414793e+01    2.961107e+01    0.000000e+00
    1.082576e+01    3.450037e+01    0.000000e+00
    1.136100e+01    3.459430e+01    0.000000e+00
    1.459578e+01    3.127353e+01    0.000000e+00
    1.455377e+01    3.112587e+01    0.000000e+00
    1.197391e+01    3.454189e+01    0.000000e+00
    1.186160e+01    3.454722e+01    0.000000e+00
    1.150879e+01    3.457087e+01    0.000000e+00
    1.456267e+01    3.176129e+01    0.000000e+00
    1.163294e+01    3.456067e+01    0.000000e+00
    1.174878e+01    3.455209e+01    0.000000e+00
    1.455501e+01    3.186435e+01    0.000000e+00
    1.456451e+01    3.165602e+01    0.000000e+00
    1.454194e+01    3.197527e+01    0.000000e+00
    1.457612e+01    3.141940e+01    0.000000e+00
    1.456740e+01    3.154028e+01    0.000000e+00
    1.121122e+01    3.455352e+01    0.000000e+00
    1.108627e+01    3.453097e+01    0.000000e+00
    1.096129e+01    3.451358e+01    0.000000e+00
    1.454735e+01    3.087340e+01    0.000000e+00
    1.454049e+01    3.099694e+01    0.000000e+00
    1.293358e+01    3.301933e+01    0.000000e+00
    1.271113e+01    3.327777e+01    0.000000e+00
    1.235813e+01    3.368847e+01    0.000000e+00
    1.240677e+01    3.358025e+01    0.000000e+00
    1.368452e+01    3.234946e+01    0.000000e+00
    1.401661e+01    3.223082e+01    0.000000e+00
    1.316797e+01    3.266991e+01    0.000000e+00
    1.390613e+01    3.226695e+01    0.000000e+00
    1.278492e+01    3.318776e+01    0.000000e+00
    1.231391e+01    3.379703e+01    0.000000e+00
    1.326167e+01    3.259694e+01    0.000000e+00
    1.223422e+01    3.401675e+01    0.000000e+00
    1.219853e+01    3.412994e+01    0.000000e+00
    1.227285e+01    3.390640e+01    0.000000e+00
    1.216616e+01    3.424490e+01    0.000000e+00
    1.412898e+01    3.219646e+01    0.000000e+00
    1.444831e+01    3.212814e+01    0.000000e+00
    1.379574e+01    3.230576e+01    0.000000e+00
    1.424313e+01    3.216416e+01    0.000000e+00
    1.213899e+01    3.435868e+01    0.000000e+00
    1.285968e+01    3.310197e+01    0.000000e+00
    1.336035e+01    3.252542e+01    0.000000e+00
    1.357356e+01    3.240033e+01    0.000000e+00
    1.346484e+01    3.245927e+01    0.000000e+00
    1.246172e+01    3.347264e+01    0.000000e+00
    1.252451e+01    3.336708e+01    0.000000e+00
    1.432073e+01    3.052508e+01    0.000000e+00
    1.056001e+01    3.432943e+01    0.000000e+00
    1.404969e+01    3.006769e+01    0.000000e+00
    1.374842e+01    2.973758e+01    0.000000e+00
    1.013509e+01    3.403967e+01    0.000000e+00
    1.449936e+01    3.134315e+01    0.000000e+00
    1.141955e+01    3.447668e+01    0.000000e+00
    1.446895e+01    3.121982e+01    0.000000e+00
    1.128861e+01    3.446625e+01    0.000000e+00
    1.447444e+01    3.170360e+01    0.000000e+00
    1.447530e+01    3.158586e+01    0.000000e+00
    1.191432e+01    3.443451e+01    0.000000e+00
    1.179599e+01    3.443925e+01    0.000000e+00
    1.167280e+01    3.445142e+01    0.000000e+00
    1.154846e+01    3.446950e+01    0.000000e+00
    1.448057e+01    3.145637e+01    0.000000e+00
    1.116174e+01    3.443889e+01    0.000000e+00
    1.444404e+01    3.107438e+01    0.000000e+00
    1.103572e+01    3.441278e+01    0.000000e+00
    1.443775e+01    3.093432e+01    0.000000e+00
    1.289947e+01    3.291983e+01    0.000000e+00
    1.259496e+01    3.326553e+01    0.000000e+00
    1.224655e+01    3.370597e+01    0.000000e+00
    1.381821e+01    3.219386e+01    0.000000e+00
    1.229125e+01    3.359337e+01    0.000000e+00
    1.267093e+01    3.316957e+01    0.000000e+00
    1.314946e+01    3.255470e+01    0.000000e+00
    1.393200e+01    3.215883e+01    0.000000e+00
    1.220546e+01    3.381842e+01    0.000000e+00
    1.370266e+01    3.223253e+01    0.000000e+00
    1.404625e+01    3.212506e+01    0.000000e+00
    1.274906e+01    3.307951e+01    0.000000e+00
    1.282650e+01    3.299429e+01    0.000000e+00
    1.212859e+01    3.405002e+01    0.000000e+00
    1.216622e+01    3.393299e+01    0.000000e+00
    1.306537e+01    3.263307e+01    0.000000e+00
    1.209632e+01    3.416874e+01    0.000000e+00
    1.416208e+01    3.209085e+01    0.000000e+00
    1.206628e+01    3.428538e+01    0.000000e+00
    1.441913e+01    3.203247e+01    0.000000e+00
    1.428257e+01    3.205621e+01    0.000000e+00
    1.203812e+01    3.441782e+01    0.000000e+00
    1.324685e+01    3.247499e+01    0.000000e+00
    1.358485e+01    3.227889e+01    0.000000e+00
    1.234239e+01    3.347991e+01    0.000000e+00
    1.444993e+01    3.079379e+01    0.000000e+00
    1.335370e+01    3.240079e+01    0.000000e+00
    1.346754e+01    3.233511e+01    0.000000e+00
    1.240284e+01    3.336678e+01    0.000000e+00
    1.074866e+01    3.435796e+01    0.000000e+00
    1.432617e+01    3.070783e+01    0.000000e+00
    1.090186e+01    3.438601e+01    0.000000e+00
    1.410446e+01    3.041859e+01    0.000000e+00
    1.045754e+01    3.411012e+01    0.000000e+00
    1.338134e+01    2.938909e+01    0.000000e+00
    1.000987e+01    3.365326e+01    0.000000e+00
    1.368452e+01    3.013478e+01    0.000000e+00
    1.135479e+01    3.438941e+01    0.000000e+00
    1.146880e+01    3.437960e+01    0.000000e+00
    1.438658e+01    3.134016e+01    0.000000e+00
    1.434792e+01    3.116699e+01    0.000000e+00
    1.438315e+01    3.150325e+01    0.000000e+00
    1.158807e+01    3.437844e+01    0.000000e+00
    1.438476e+01    3.163557e+01    0.000000e+00
    1.184980e+01    3.433179e+01    0.000000e+00
    1.438575e+01    3.184109e+01    0.000000e+00
    1.124827e+01    3.435282e+01    0.000000e+00
    1.112053e+01    3.431721e+01    0.000000e+00
    1.432688e+01    3.100988e+01    0.000000e+00
    1.432541e+01    3.086002e+01    0.000000e+00
    1.384609e+01    3.208190e+01    0.000000e+00
    1.372744e+01    3.211486e+01    0.000000e+00
    1.217469e+01    3.361254e+01    0.000000e+00
    1.213425e+01    3.372934e+01    0.000000e+00
    1.209623e+01    3.384726e+01    0.000000e+00
    1.279926e+01    3.287936e+01    0.000000e+00
    1.396206e+01    3.204945e+01    0.000000e+00
    1.303351e+01    3.252230e+01    0.000000e+00
    1.296240e+01    3.262508e+01    0.000000e+00
    1.271677e+01    3.296902e+01    0.000000e+00
    1.247315e+01    3.325679e+01    0.000000e+00
    1.263371e+01    3.305664e+01    0.000000e+00
    1.205816e+01    3.396844e+01    0.000000e+00
    1.407720e+01    3.201488e+01    0.000000e+00
    1.201699e+01    3.409452e+01    0.000000e+00
    1.200082e+01    3.420545e+01    0.000000e+00
    1.419341e+01    3.197662e+01    0.000000e+00
    1.312646e+01    3.242981e+01    0.000000e+00
    1.255126e+01    3.315295e+01    0.000000e+00
    1.222075e+01    3.349406e+01    0.000000e+00
    1.360390e+01    3.215477e+01    0.000000e+00
    1.323415e+01    3.234452e+01    0.000000e+00
    1.227711e+01    3.337336e+01    0.000000e+00
    1.347750e+01    3.220581e+01    0.000000e+00
    1.335287e+01    3.226949e+01    0.000000e+00
    1.099012e+01    3.428138e+01    0.000000e+00
    1.084769e+01    3.423997e+01    0.000000e+00
    1.432047e+01    3.192701e+01    0.000000e+00
    1.195602e+01    3.430698e+01    0.000000e+00
    1.067816e+01    3.418497e+01    0.000000e+00
    1.417646e+01    3.063741e+01    0.000000e+00
    1.389348e+01    3.031833e+01    0.000000e+00
    1.041038e+01    3.380048e+01    0.000000e+00
    1.336215e+01    2.988472e+01    0.000000e+00
    9.556287e+00    3.344251e+01    0.000000e+00
    1.365745e+01    2.891632e+01    0.000000e+00
    1.428146e+01    3.142380e+01    0.000000e+00
    1.153531e+01    3.428217e+01    0.000000e+00
    1.136937e+01    3.427713e+01    0.000000e+00
    1.429298e+01    3.156274e+01    0.000000e+00
    1.429646e+01    3.168740e+01    0.000000e+00
    1.170647e+01    3.430102e+01    0.000000e+00
    1.421364e+01    3.109718e+01    0.000000e+00
    1.121724e+01    3.422764e+01    0.000000e+00
    1.293248e+01    3.277819e+01    0.000000e+00
    1.375882e+01    3.199808e+01    0.000000e+00
    1.387802e+01    3.196762e+01    0.000000e+00
    1.205716e+01    3.363987e+01    0.000000e+00
    1.202187e+01    3.376312e+01    0.000000e+00
    1.268837e+01    3.287055e+01    0.000000e+00
    1.199001e+01    3.388447e+01    0.000000e+00
    1.399320e+01    3.193009e+01    0.000000e+00
    1.290486e+01    3.250375e+01    0.000000e+00
    1.095157e+01    3.413647e+01    0.000000e+00
    1.260386e+01    3.294138e+01    0.000000e+00
    1.194612e+01    3.400587e+01    0.000000e+00
    1.209759e+01    3.351626e+01    0.000000e+00
    1.108511e+01    3.418353e+01    0.000000e+00
    1.363173e+01    3.202988e+01    0.000000e+00
    1.299584e+01    3.239336e+01    0.000000e+00
    1.410532e+01    3.189578e+01    0.000000e+00
    1.251240e+01    3.303387e+01    0.000000e+00
    1.234571e+01    3.325369e+01    0.000000e+00
    1.310426e+01    3.229308e+01    0.000000e+00
    1.242529e+01    3.313957e+01    0.000000e+00
    1.214828e+01    3.338832e+01    0.000000e+00
    1.349730e+01    3.207308e+01    0.000000e+00
    1.322753e+01    3.220494e+01    0.000000e+00
    1.336073e+01    3.213169e+01    0.000000e+00
    1.283104e+01    3.262690e+01    0.000000e+00
    1.425177e+01    3.126630e+01    0.000000e+00
    1.370058e+01    3.047848e+01    0.000000e+00
    1.419831e+01    3.092480e+01    0.000000e+00
    1.421776e+01    3.078291e+01    0.000000e+00
    1.080683e+01    3.407881e+01    0.000000e+00
    1.063942e+01    3.398502e+01    0.000000e+00
    1.403098e+01    3.059956e+01    0.000000e+00
    1.332833e+01    3.033152e+01    0.000000e+00
    9.178502e+00    3.375927e+01    0.000000e+00
    9.999743e+00    3.320978e+01    0.000000e+00
    1.032927e+01    3.344641e+01    0.000000e+00
    1.420825e+01    3.149504e+01    0.000000e+00
    1.420212e+01    3.161295e+01    0.000000e+00
    1.161272e+01    3.417616e+01    0.000000e+00
    1.420870e+01    3.174086e+01    0.000000e+00
    1.131896e+01    3.413827e+01    0.000000e+00
    1.186067e+01    3.416349e+01    0.000000e+00
    1.105842e+01    3.404220e+01    0.000000e+00
    1.421026e+01    3.185677e+01    0.000000e+00
    1.379589e+01    3.187859e+01    0.000000e+00
    1.416369e+01    3.136958e+01    0.000000e+00
    1.118467e+01    3.409718e+01    0.000000e+00
    1.390974e+01    3.184500e+01    0.000000e+00
    1.193976e+01    3.367847e+01    0.000000e+00
    1.191136e+01    3.380853e+01    0.000000e+00
    1.197379e+01    3.354752e+01    0.000000e+00
    1.366884e+01    3.190454e+01    0.000000e+00
    1.189676e+01    3.391708e+01    0.000000e+00
    1.259150e+01    3.281873e+01    0.000000e+00
    1.402254e+01    3.178688e+01    0.000000e+00
    1.183938e+01    3.400256e+01    0.000000e+00
    1.285024e+01    3.236701e+01    0.000000e+00
    1.248206e+01    3.290758e+01    0.000000e+00
    1.273202e+01    3.275180e+01    0.000000e+00
    1.411102e+01    3.120628e+01    0.000000e+00
    1.221303e+01    3.325846e+01    0.000000e+00
    1.201739e+01    3.341255e+01    0.000000e+00
    1.238206e+01    3.301336e+01    0.000000e+00
    1.078839e+01    3.393331e+01    0.000000e+00
    1.296044e+01    3.224826e+01    0.000000e+00
    1.352857e+01    3.193836e+01    0.000000e+00
    1.092368e+01    3.398058e+01    0.000000e+00
    1.229206e+01    3.313213e+01    0.000000e+00
    1.308812e+01    3.214249e+01    0.000000e+00
    1.337952e+01    3.198731e+01    0.000000e+00
    1.275869e+01    3.249538e+01    0.000000e+00
    1.323002e+01    3.205511e+01    0.000000e+00
    1.388584e+01    3.066438e+01    0.000000e+00
    1.146653e+01    3.416735e+01    0.000000e+00
    1.404631e+01    3.101252e+01    0.000000e+00
    1.406352e+01    3.078442e+01    0.000000e+00
    1.060875e+01    3.357970e+01    0.000000e+00
    1.346736e+01    3.066228e+01    0.000000e+00
    1.297008e+01    3.004714e+01    0.000000e+00
    1.022125e+01    3.276628e+01    0.000000e+00
    1.172013e+01    3.417129e+01    0.000000e+00
    1.409072e+01    3.150817e+01    0.000000e+00
    1.410598e+01    3.167808e+01    0.000000e+00
    1.116063e+01    3.398022e+01    0.000000e+00
    1.142066e+01    3.404446e+01    0.000000e+00
    1.383443e+01    3.176203e+01    0.000000e+00
    1.128195e+01    3.400900e+01    0.000000e+00
    1.371526e+01    3.177980e+01    0.000000e+00
    1.402519e+01    3.133423e+01    0.000000e+00
    1.154775e+01    3.407683e+01    0.000000e+00
    1.184974e+01    3.358801e+01    0.000000e+00
    1.245956e+01    3.277086e+01    0.000000e+00
    1.087598e+01    3.381672e+01    0.000000e+00
    1.188512e+01    3.344635e+01    0.000000e+00
    1.207574e+01    3.327300e+01    0.000000e+00
    1.234433e+01    3.287690e+01    0.000000e+00
    1.269793e+01    3.261274e+01    0.000000e+00
    1.357292e+01    3.180262e+01    0.000000e+00
    1.279812e+01    3.221111e+01    0.000000e+00
    1.223947e+01    3.299908e+01    0.000000e+00
    1.268460e+01    3.235245e+01    0.000000e+00
    1.182026e+01    3.372791e+01    0.000000e+00
    1.215000e+01    3.313349e+01    0.000000e+00
    1.292923e+01    3.208263e+01    0.000000e+00
    1.341315e+01    3.183824e+01    0.000000e+00
    1.307984e+01    3.197433e+01    0.000000e+00
    1.324500e+01    3.189362e+01    0.000000e+00
    1.395944e+01    3.117501e+01    0.000000e+00
    1.258423e+01    3.268130e+01    0.000000e+00
    1.388783e+01    3.087359e+01    0.000000e+00
    1.079848e+01    3.366328e+01    0.000000e+00
    1.370251e+01    3.076225e+01    0.000000e+00
    1.059725e+01    3.330409e+01    0.000000e+00
    1.303485e+01    2.967301e+01    0.000000e+00
    1.260111e+01    3.016723e+01    0.000000e+00
    9.921316e+00    3.227457e+01    0.000000e+00
    1.166263e+01    3.389378e+01    0.000000e+00
    1.169676e+01    3.403971e+01    0.000000e+00
    1.397319e+01    3.162696e+01    0.000000e+00
    1.138120e+01    3.390924e+01    0.000000e+00
    1.153705e+01    3.394491e+01    0.000000e+00
    1.123231e+01    3.387568e+01    0.000000e+00
    1.377112e+01    3.166324e+01    0.000000e+00
    1.387071e+01    3.166977e+01    0.000000e+00
    1.258384e+01    3.251297e+01    0.000000e+00
    1.175035e+01    3.349192e+01    0.000000e+00
    1.363141e+01    3.166870e+01    0.000000e+00
    1.193446e+01    3.329881e+01    0.000000e+00
    1.231138e+01    3.272868e+01    0.000000e+00
    1.172340e+01    3.363751e+01    0.000000e+00
    1.169702e+01    3.377463e+01    0.000000e+00
    1.218564e+01    3.285217e+01    0.000000e+00
    1.393674e+01    3.145896e+01    0.000000e+00
    1.261418e+01    3.218313e+01    0.000000e+00
    1.387772e+01    3.130666e+01    0.000000e+00
    1.346620e+01    3.168680e+01    0.000000e+00
    1.099680e+01    3.365158e+01    0.000000e+00
    1.274678e+01    3.203170e+01    0.000000e+00
    1.199929e+01    3.314806e+01    0.000000e+00
    1.207920e+01    3.299599e+01    0.000000e+00
    1.244086e+01    3.262372e+01    0.000000e+00
    1.328235e+01    3.172239e+01    0.000000e+00
    1.290133e+01    3.189147e+01    0.000000e+00
    1.308584e+01    3.178458e+01    0.000000e+00
    1.105894e+01    3.387043e+01    0.000000e+00
    1.388630e+01    3.104085e+01    0.000000e+00
    1.082062e+01    3.346896e+01    0.000000e+00
    1.353408e+01    3.091149e+01    0.000000e+00
    1.035138e+01    3.314279e+01    0.000000e+00
    1.258925e+01    2.973862e+01    0.000000e+00
    1.238228e+01    3.049719e+01    0.000000e+00
    1.046525e+01    3.230152e+01    0.000000e+00
    9.337543e+00    3.224022e+01    0.000000e+00
    1.146886e+01    3.382957e+01    0.000000e+00
    1.384374e+01    3.156382e+01    0.000000e+00
    1.134973e+01    3.373353e+01    0.000000e+00
    1.370505e+01    3.154117e+01    0.000000e+00
    1.161348e+01    3.355117e+01    0.000000e+00
    1.241872e+01    3.248220e+01    0.000000e+00
    1.178714e+01    3.333808e+01    0.000000e+00
    1.157756e+01    3.381253e+01    0.000000e+00
    1.159896e+01    3.369056e+01    0.000000e+00
    1.379115e+01    3.142507e+01    0.000000e+00
    1.214536e+01    3.269032e+01    0.000000e+00
    1.354010e+01    3.153542e+01    0.000000e+00
    1.228450e+01    3.256741e+01    0.000000e+00
    1.249859e+01    3.234352e+01    0.000000e+00
    1.183988e+01    3.317884e+01    0.000000e+00
    1.198650e+01    3.283156e+01    0.000000e+00
    1.253897e+01    3.199042e+01    0.000000e+00
    1.116838e+01    3.374264e+01    0.000000e+00
    1.190812e+01    3.301816e+01    0.000000e+00
    1.334900e+01    3.154654e+01    0.000000e+00
    1.269066e+01    3.182769e+01    0.000000e+00
    1.379710e+01    3.116094e+01    0.000000e+00
    1.087056e+01    3.320462e+01    0.000000e+00
    1.331501e+01    3.085857e+01    0.000000e+00
    1.313216e+01    3.157805e+01    0.000000e+00
    1.105736e+01    3.340910e+01    0.000000e+00
    1.263766e+01    3.083706e+01    0.000000e+00
    1.217418e+01    3.007818e+01    0.000000e+00
    1.237773e+01    2.925310e+01    0.000000e+00
    1.030897e+01    3.184055e+01    0.000000e+00
    1.163422e+01    3.339304e+01    0.000000e+00
    1.148452e+01    3.362355e+01    0.000000e+00
    1.120630e+01    3.357904e+01    0.000000e+00
    1.227914e+01    3.236305e+01    0.000000e+00
    1.149593e+01    3.373795e+01    0.000000e+00
    1.373696e+01    3.129029e+01    0.000000e+00
    1.373121e+01    3.098633e+01    0.000000e+00
    1.167191e+01    3.322480e+01    0.000000e+00
    1.210981e+01    3.251558e+01    0.000000e+00
    1.198713e+01    3.265010e+01    0.000000e+00
    1.240364e+01    3.216310e+01    0.000000e+00
    1.344426e+01    3.136880e+01    0.000000e+00
    1.363283e+01    3.138827e+01    0.000000e+00
    1.173251e+01    3.305495e+01    0.000000e+00
    1.245446e+01    3.176674e+01    0.000000e+00
    1.297586e+01    3.138626e+01    0.000000e+00
    1.261872e+01    3.162602e+01    0.000000e+00
    1.322353e+01    3.137350e+01    0.000000e+00
    1.340017e+01    3.103161e+01    0.000000e+00
    1.320646e+01    3.064272e+01    0.000000e+00
    1.061967e+01    3.299028e+01    0.000000e+00
    1.115648e+01    3.316865e+01    0.000000e+00
    1.221971e+01    3.087501e+01    0.000000e+00
    1.303067e+01    3.087916e+01    0.000000e+00
    1.211390e+01    2.963916e+01    0.000000e+00
    1.268511e+01    2.889339e+01    0.000000e+00
    8.945550e+00    3.322367e+01    0.000000e+00
    9.083194e+00    3.427282e+01    0.000000e+00
    1.423822e+01    2.902744e+01    0.000000e+00
    1.314309e+01    2.888584e+01    0.000000e+00
    1.148248e+01    3.346561e+01    0.000000e+00
    1.357624e+01    3.116634e+01    0.000000e+00
    1.149960e+01    3.328976e+01    0.000000e+00
    1.204501e+01    3.232462e+01    0.000000e+00
    1.130495e+01    3.337823e+01    0.000000e+00
    1.154136e+01    3.310118e+01    0.000000e+00
    1.190021e+01    3.249823e+01    0.000000e+00
    1.269218e+01    3.140554e+01    0.000000e+00
    1.230084e+01    3.195237e+01    0.000000e+00
    1.136560e+01    3.355600e+01    0.000000e+00
    1.333163e+01    3.118912e+01    0.000000e+00
    1.237794e+01    3.147842e+01    0.000000e+00
    1.180729e+01    3.290498e+01    0.000000e+00
    1.310408e+01    3.116538e+01    0.000000e+00
    1.099681e+01    3.288909e+01    0.000000e+00
    1.217376e+01    3.214655e+01    0.000000e+00
    1.282035e+01    3.113821e+01    0.000000e+00
    1.248152e+01    3.115738e+01    0.000000e+00
    1.160293e+01    2.986120e+01    0.000000e+00
    1.323631e+01    3.102477e+01    0.000000e+00
    1.162075e+01    3.290743e+01    0.000000e+00
    1.196177e+01    3.214330e+01    0.000000e+00
    1.137072e+01    3.317840e+01    0.000000e+00
    1.217959e+01    3.171262e+01    0.000000e+00
    1.203056e+01    3.194009e+01    0.000000e+00
    1.165010e+01    3.249556e+01    0.000000e+00
    1.180382e+01    3.229021e+01    0.000000e+00
    1.134911e+01    3.295435e+01    0.000000e+00
    1.105089e+01    3.254971e+01    0.000000e+00
    1.214613e+01    3.121342e+01    0.000000e+00
    1.172344e+01    3.201953e+01    0.000000e+00
    1.150269e+01    3.271444e+01    0.000000e+00
    1.125226e+01    3.272047e+01    0.000000e+00
    1.084287e+01    3.233533e+01    0.000000e+00
    1.152406e+01    3.226160e+01    0.000000e+00
    1.207269e+01    3.147496e+01    0.000000e+00
    1.135965e+01    3.249444e+01    0.000000e+00
    1.183181e+01    3.130701e+01    0.000000e+00
    1.147183e+01    3.179170e+01    0.000000e+00
    1.117855e+01    3.222612e+01    0.000000e+00
    1.149347e+01    3.144740e+01    0.000000e+00
    1.142195e+01    3.204634e+01    0.000000e+00
    1.190459e+01    3.099927e+01    0.000000e+00
    1.083909e+01    3.196818e+01    0.000000e+00
    1.114512e+01    3.164494e+01    0.000000e+00
    1.155324e+01    3.105175e+01    0.000000e+00
    1.113246e+01    3.123762e+01    0.000000e+00
    1.121131e+01    3.193546e+01    0.000000e+00
    1.118526e+01    3.077603e+01    0.000000e+00
    1.070042e+01    3.101686e+01    0.000000e+00
    1.020760e+01    3.078293e+01    0.000000e+00
    9.013927e+00    3.264054e+01    0.000000e+00
    1.122927e+01    3.030893e+01    0.000000e+00
    1.125374e+01    2.930950e+01    0.000000e+00
    1.023311e+01    3.132329e+01    0.000000e+00
    1.021832e+01    3.018698e+01    0.000000e+00
    1.219154e+01    2.867754e+01    0.000000e+00
    8.196410e+00    3.334993e+01    0.000000e+00
    9.098402e+00    3.180310e+01    0.000000e+00
    1.341646e+01    2.847792e+01    0.000000e+00
    1.224066e+01    6.112704e-01    0.000000e+00
    1.135961e+01    6.111161e-01    0.000000e+00
    8.940921e+00    6.088333e-01    0.000000e+00
    5.923771e+00    5.963500e-01    0.000000e+00
    3.523953e+00    5.793601e-01    0.000000e+00
    2.877927e+00    5.847787e-01    0.000000e+00
    7.926800e-01    1.625639e+01    0.000000e+00
    7.637016e-01    1.067645e+01    0.000000e+00
    8.145670e-01    8.418118e+00    0.000000e+00
    8.303062e-01    5.209054e+00    0.000000e+00
    6.922193e-01    2.933143e+00    0.000000e+00
    7.232563e-01    3.205483e+01    0.000000e+00
    8.576614e-01    2.656322e+01    0.000000e+00
    7.545745e-01    2.181821e+01    0.000000e+00
    8.584806e-01    1.862476e+01    0.000000e+00
    7.299157e-01    2.437159e+01    0.000000e+00
    7.850481e-01    2.978827e+01    0.000000e+00
    1.417030e+01    2.536805e+01    0.000000e+00
    1.450008e+01    2.846317e+01    0.000000e+00
    1.428224e+01    2.196212e+01    0.000000e+00
    1.419433e+01    1.991376e+01    0.000000e+00
    1.417953e+01    1.092163e+01    0.000000e+00
    1.417999e+01    8.467335e+00    0.000000e+00
    1.419015e+01    5.289667e+00    0.000000e+00
    1.423639e+01    2.809842e+00    0.000000e+00
    1.415572e+01    1.425219e+01    0.000000e+00
    1.416854e+01    1.655230e+01    0.000000e+00
    1.432673e+01    2.784309e+01    0.000000e+00
    5.954608e+00    3.431522e+01    0.000000e+00
    6.704661e+00    3.423347e+01    0.000000e+00
    3.579976e+00    3.445417e+01    0.000000e+00
    2.934665e+00    3.443199e+01    0.000000e+00
    1.366311e+00    3.443103e+01    0.000000e+00
    8.543867e+00    3.445987e+01    0.000000e+00
    1.331590e+00    5.766357e-01    0.000000e+00
    1.086150e+01    2.985966e+01    0.000000e+00
    1.349618e+01    2.784049e+01    0.000000e+00
    1.154401e+01    2.875735e+01    0.000000e+00
    7.958563e+00    3.417885e+01    0.000000e+00
    9.176986e+00    3.121234e+01    0.000000e+00
    8.778721e+00    3.221109e+01    0.000000e+00
    9.667554e+00    2.985771e+01    0.000000e+00
    9.780351e+00    3.111488e+01    0.000000e+00
    1.043646e+01    4.995500e-01    0.000000e+00
    8.313051e+00    5.598492e-01    0.000000e+00
    5.203417e+00    5.569669e-01    0.000000e+00
    5.060430e-01    1.176329e+01    0.000000e+00
    6.010985e-01    9.118772e+00    0.000000e+00
    7.892024e-01    5.993511e+00    0.000000e+00
    7.622529e-01    1.546462e+01    0.000000e+00
    5.598763e-01    3.557019e+00    0.000000e+00
    5.660712e-01    3.140104e+01    0.000000e+00
    7.418467e-01    2.901331e+01    0.000000e+00
    6.131966e-01    2.584266e+01    0.000000e+00
    6.688083e-01    2.325295e+01    0.000000e+00
    7.937087e-01    1.949299e+01    0.000000e+00
    6.180955e-01    1.789200e+01    0.000000e+00
    7.314878e-01    2.106642e+01    0.000000e+00
    7.945552e-01    2.743164e+01    0.000000e+00
    4.477251e-01    3.315277e+01    0.000000e+00
    1.435278e+01    2.308088e+01    0.000000e+00
    1.437593e+01    2.611565e+01    0.000000e+00
    1.425956e+01    1.166651e+01    0.000000e+00
    1.444082e+01    9.397539e+00    0.000000e+00
    1.447005e+01    1.772257e+00    0.000000e+00
    1.429608e+01    1.868853e+01    0.000000e+00
    1.440394e+01    2.052470e+01    0.000000e+00
    1.423778e+01    2.451204e+01    0.000000e+00
    1.425753e+01    1.730007e+01    0.000000e+00
    5.253690e+00    3.441845e+01    0.000000e+00
    1.227722e+01    2.798707e+01    0.000000e+00
    5.825404e+00    3.320506e+01    0.000000e+00
    5.754582e+00    1.756004e+00    0.000000e+00
    1.109163e+01    1.790397e+00    0.000000e+00
    1.248262e+01    1.752873e+00    0.000000e+00
    4.019950e+00    3.329766e+01    0.000000e+00
    2.773864e+00    3.333481e+01    0.000000e+00
    1.578357e+00    3.313820e+01    0.000000e+00
    1.518852e+00    1.882477e+00    0.000000e+00
    2.740476e+00    1.871953e+00    0.000000e+00
    3.873956e+00    1.665389e+00    0.000000e+00
    6.955532e+00    3.345901e+01    0.000000e+00
    9.114031e+00    1.779238e+00    0.000000e+00
    1.426199e+01    6.035968e+00    0.000000e+00
    7.501008e-01    7.567727e+00    0.000000e+00
    1.429194e+01    1.305161e+01    0.000000e+00
    4.369281e-01    1.851945e+00    0.000000e+00
    1.429285e+01    7.412498e+00    0.000000e+00
    1.447407e+01    3.765934e+00    0.000000e+00
    1.432246e+01    1.488141e+01    0.000000e+00
    1.638864e+00    3.225644e+01    0.000000e+00
    1.325085e+01    1.643908e+01    0.000000e+00
    1.321406e+01    1.414203e+01    0.000000e+00
    1.326339e+01    1.080168e+01    0.000000e+00
    1.326535e+01    8.454182e+00    0.000000e+00
    1.329050e+01    5.153321e+00    0.000000e+00
    1.729513e+00    3.005771e+01    0.000000e+00
    1.327968e+01    2.542285e+01    0.000000e+00
    1.668449e+00    2.447766e+01    0.000000e+00
    1.335063e+01    2.183745e+01    0.000000e+00
    1.650915e+00    2.211511e+01    0.000000e+00
    1.325499e+01    1.985658e+01    0.000000e+00
    1.814866e+00    1.855311e+01    0.000000e+00
    1.726394e+00    1.650913e+01    0.000000e+00
    1.679978e+00    1.062606e+01    0.000000e+00
    1.800569e+00    8.565019e+00    0.000000e+00
    1.744268e+00    5.006243e+00    0.000000e+00
    1.340822e+01    2.842797e+00    0.000000e+00
    1.617966e+00    2.807314e+00    0.000000e+00
    1.813965e+00    2.647628e+01    0.000000e+00
    6.647758e+00    5.560994e-01    0.000000e+00
    1.301717e+01    5.455988e-01    0.000000e+00
    1.164862e+01    2.763350e+01    0.000000e+00
    1.095531e+01    2.881334e+01    0.000000e+00
    1.027319e+01    2.956526e+01    0.000000e+00
    8.239182e+00    3.222104e+01    0.000000e+00
    9.171567e+00    3.016235e+01    0.000000e+00
    1.281907e+01    2.773108e+01    0.000000e+00
    1.248131e+01    2.543494e+01    0.000000e+00
    7.592818e+00    3.353659e+01    0.000000e+00
    5.658550e+00    3.222425e+01    0.000000e+00
    5.759355e+00    2.861281e+00    0.000000e+00
    1.102806e+01    2.822243e+00    0.000000e+00
    1.250338e+01    2.980249e+00    0.000000e+00
    7.840035e+00    1.707476e+00    0.000000e+00
    1.039625e+01    1.760123e+00    0.000000e+00
    1.666179e+00    3.084920e+01    0.000000e+00
    1.500413e+00    2.866684e+01    0.000000e+00
    1.711118e+00    2.523460e+01    0.000000e+00
    1.453023e+00    2.300378e+01    0.000000e+00
    1.483876e+00    2.073730e+01    0.000000e+00
    1.731428e+00    1.729108e+01    0.000000e+00
    1.478750e+00    1.518865e+01    0.000000e+00
    1.732809e+00    9.291400e+00    0.000000e+00
    1.504506e+00    7.213848e+00    0.000000e+00
    1.625284e+00    3.634641e+00    0.000000e+00
    2.635797e+00    3.207021e+01    0.000000e+00
    3.892135e+00    3.225650e+01    0.000000e+00
    1.666580e+00    2.783527e+01    0.000000e+00
    1.659108e+00    1.991117e+01    0.000000e+00
    1.830576e+00    1.200017e+01    0.000000e+00
    1.674852e+00    6.396874e+00    0.000000e+00
    2.781321e+00    2.778751e+00    0.000000e+00
    3.709709e+00    2.769970e+00    0.000000e+00
    6.846178e+00    3.220475e+01    0.000000e+00
    5.081059e+00    1.694636e+00    0.000000e+00
    7.133992e+00    1.704526e+00    0.000000e+00
    1.302700e+01    1.523030e+01    0.000000e+00
    1.340698e+01    1.276719e+01    0.000000e+00
    1.310279e+01    9.576835e+00    0.000000e+00
    1.340334e+01    7.120255e+00    0.000000e+00
    1.322946e+01    3.903111e+00    0.000000e+00
    1.320447e+01    1.651454e+00    0.000000e+00
    1.330340e+01    2.108520e+01    0.000000e+00
    1.360917e+01    2.329499e+01    0.000000e+00
    1.325460e+01    2.656605e+01    0.000000e+00
    1.339837e+01    2.411465e+01    0.000000e+00
    1.353048e+01    1.763696e+01    0.000000e+00
    1.352978e+01    1.199315e+01    0.000000e+00
    1.353017e+01    6.355072e+00    0.000000e+00
    9.109517e+00    2.861106e+00    0.000000e+00
    4.704978e+00    3.330504e+01    0.000000e+00
    1.228458e+01    1.647801e+01    0.000000e+00
    1.226832e+01    1.407544e+01    0.000000e+00
    1.227820e+01    1.083386e+01    0.000000e+00
    1.225844e+01    8.416910e+00    0.000000e+00
    1.231669e+01    5.155715e+00    0.000000e+00
    2.771837e+00    2.992221e+01    0.000000e+00
    2.684564e+00    2.430987e+01    0.000000e+00
    1.232106e+01    2.199396e+01    0.000000e+00
    2.669868e+00    2.200795e+01    0.000000e+00
    1.229496e+01    1.980512e+01    0.000000e+00
    1.341428e+01    1.841577e+01    0.000000e+00
    2.691978e+00    1.857982e+01    0.000000e+00
    2.701023e+00    1.637041e+01    0.000000e+00
    2.718034e+00    1.061867e+01    0.000000e+00
    2.816143e+00    8.428894e+00    0.000000e+00
    2.720973e+00    4.981883e+00    0.000000e+00
    2.693342e+00    2.649113e+01    0.000000e+00
    1.124086e+01    2.824949e+01    0.000000e+00
    1.035909e+01    2.895568e+01    0.000000e+00
    9.020927e+00    3.064850e+01    0.000000e+00
    1.143337e+01    2.201170e+01    0.000000e+00
    3.551717e+00    2.652187e+01    0.000000e+00
    3.560647e+00    1.634714e+01    0.000000e+00
    3.552596e+00    2.426955e+01    0.000000e+00
    3.546548e+00    1.862313e+01    0.000000e+00
    3.547040e+00    2.197903e+01    0.000000e+00
    1.257541e+01    2.666669e+01    0.000000e+00
    5.011570e+00    3.221520e+01    0.000000e+00
    1.181238e+01    2.543588e+01    0.000000e+00
    1.232385e+01    1.834236e+01    0.000000e+00
    1.210282e+01    2.092328e+01    0.000000e+00
    1.223487e+01    1.524109e+01    0.000000e+00
    1.230929e+01    1.268673e+01    0.000000e+00
    1.224634e+01    9.595402e+00    0.000000e+00
    1.229473e+01    7.030551e+00    0.000000e+00
    1.235055e+01    3.794724e+00    0.000000e+00
    1.216106e+01    2.332818e+01    0.000000e+00
    5.814957e+00    3.105828e+01    0.000000e+00
    1.234163e+01    2.410283e+01    0.000000e+00
    1.230577e+01    1.768307e+01    0.000000e+00
    1.229213e+01    1.203300e+01    0.000000e+00
    1.229068e+01    6.386237e+00    0.000000e+00
    5.764954e+00    3.958418e+00    0.000000e+00
    1.124841e+01    4.054752e+00    0.000000e+00
    7.837286e+00    2.874698e+00    0.000000e+00
    1.036958e+01    2.844744e+00    0.000000e+00
    2.862942e+00    2.859017e+01    0.000000e+00
    2.959032e+00    3.128793e+01    0.000000e+00
    2.891826e+00    2.537900e+01    0.000000e+00
    2.848393e+00    2.314557e+01    0.000000e+00
    2.821807e+00    2.069180e+01    0.000000e+00
    2.897598e+00    1.746578e+01    0.000000e+00
    2.814222e+00    1.511485e+01    0.000000e+00
    1.531214e+00    1.390095e+01    0.000000e+00
    2.819700e+00    9.523453e+00    0.000000e+00
    2.745069e+00    7.139925e+00    0.000000e+00
    2.905082e+00    3.700880e+00    0.000000e+00
    3.845753e+00    3.118110e+01    0.000000e+00
    2.690289e+00    2.786968e+01    0.000000e+00
    2.673142e+00    1.996422e+01    0.000000e+00
    1.535984e+00    1.327446e+01    0.000000e+00
    2.714435e+00    1.198470e+01    0.000000e+00
    2.748547e+00    6.476513e+00    0.000000e+00
    3.701546e+00    3.995003e+00    0.000000e+00
    5.085033e+00    2.831801e+00    0.000000e+00
    7.144902e+00    2.875362e+00    0.000000e+00
    9.109678e+00    3.916611e+00    0.000000e+00
    1.135211e+01    1.978006e+01    0.000000e+00
    3.729148e+00    2.984592e+01    0.000000e+00
    1.133456e+01    1.645955e+01    0.000000e+00
    1.133233e+01    1.406241e+01    0.000000e+00
    1.130413e+01    1.080908e+01    0.000000e+00
    1.125706e+01    8.420150e+00    0.000000e+00
    1.123877e+01    5.013957e+00    0.000000e+00
    3.690573e+00    1.066236e+01    0.000000e+00
    3.802489e+00    8.384879e+00    0.000000e+00
    3.782760e+00    4.868522e+00    0.000000e+00
    8.543814e+00    3.096732e+01    0.000000e+00
    1.090802e+01    2.774615e+01    0.000000e+00
    1.125087e+01    2.576390e+01    0.000000e+00
    1.127511e+01    2.509572e+01    0.000000e+00
    1.038764e+01    1.075409e+01    0.000000e+00
    1.042204e+01    1.408042e+01    0.000000e+00
    4.604731e+00    1.071353e+01    0.000000e+00
    1.043285e+01    1.642084e+01    0.000000e+00
    4.654706e+00    2.981088e+01    0.000000e+00
    1.044665e+01    1.974425e+01    0.000000e+00
    1.152187e+01    2.093466e+01    0.000000e+00
    3.523238e+00    2.864638e+01    0.000000e+00
    4.711790e+00    3.109296e+01    0.000000e+00
    1.141859e+01    2.321725e+01    0.000000e+00
    3.460765e+00    1.512816e+01    0.000000e+00
    3.457986e+00    2.538250e+01    0.000000e+00
    3.460548e+00    1.747645e+01    0.000000e+00
    3.437586e+00    2.313548e+01    0.000000e+00
    3.457745e+00    2.078097e+01    0.000000e+00
    6.629365e+00    3.104921e+01    0.000000e+00
    1.142687e+01    2.436777e+01    0.000000e+00
    3.421736e+00    1.984010e+01    0.000000e+00
    3.439584e+00    2.772648e+01    0.000000e+00
    5.267647e+00    3.104785e+01    0.000000e+00
    1.084990e+01    2.197247e+01    0.000000e+00
    4.271958e+00    2.652476e+01    0.000000e+00
    4.267303e+00    1.635274e+01    0.000000e+00
    4.262105e+00    2.425778e+01    0.000000e+00
    4.261623e+00    1.863680e+01    0.000000e+00
    4.261683e+00    2.197509e+01    0.000000e+00
    1.130471e+01    1.837480e+01    0.000000e+00
    1.136375e+01    1.524215e+01    0.000000e+00
    1.125916e+01    1.272072e+01    0.000000e+00
    1.132937e+01    9.611645e+00    0.000000e+00
    1.122969e+01    7.017886e+00    0.000000e+00
    5.783754e+00    2.983212e+01    0.000000e+00
    1.114274e+01    1.768334e+01    0.000000e+00
    1.107810e+01    1.202465e+01    0.000000e+00
    1.121873e+01    6.378462e+00    0.000000e+00
    5.685488e+00    5.094064e+00    0.000000e+00
    7.847816e+00    3.983594e+00    0.000000e+00
    1.036928e+01    3.937400e+00    0.000000e+00
    2.872577e+00    1.392103e+01    0.000000e+00
    3.929581e+00    9.561486e+00    0.000000e+00
    3.814328e+00    7.126919e+00    0.000000e+00
    2.888141e+00    1.325177e+01    0.000000e+00
    3.643647e+00    1.197060e+01    0.000000e+00
    3.811988e+00    6.478046e+00    0.000000e+00
    5.110455e+00    3.900190e+00    0.000000e+00
    7.150713e+00    3.992643e+00    0.000000e+00
    9.315329e+00    5.069806e+00    0.000000e+00
    1.026068e+01    8.466036e+00    0.000000e+00
    1.017298e+01    5.108823e+00    0.000000e+00
    4.778156e+00    8.408652e+00    0.000000e+00
    4.841489e+00    5.023661e+00    0.000000e+00
    4.491438e-01    1.399169e+01    0.000000e+00
    7.926727e+00    3.129728e+01    0.000000e+00
    4.852274e+00    1.671239e+01    0.000000e+00
    4.860807e+00    2.615370e+01    0.000000e+00
    4.859121e+00    1.900441e+01    0.000000e+00
    4.846092e+00    2.390468e+01    0.000000e+00
    4.859155e+00    2.161551e+01    0.000000e+00
    4.852561e+00    2.233792e+01    0.000000e+00
    4.849572e+00    2.460402e+01    0.000000e+00
    4.856235e+00    1.828108e+01    0.000000e+00
    4.873580e+00    2.686633e+01    0.000000e+00
    4.847517e+00    1.602390e+01    0.000000e+00
    8.005306e+00    3.063478e+01    0.000000e+00
    1.031331e+01    2.786627e+01    0.000000e+00
    1.122684e+01    2.643917e+01    0.000000e+00
    5.715025e+00    8.414171e+00    0.000000e+00
    9.287702e+00    8.473631e+00    0.000000e+00
    3.527784e+00    1.404875e+01    0.000000e+00
    1.036522e+01    1.191643e+01    0.000000e+00
    4.562075e+00    9.587578e+00    0.000000e+00
    1.050515e+01    1.759179e+01    0.000000e+00
    6.563226e+00    2.981750e+01    0.000000e+00
    1.054961e+01    1.851725e+01    0.000000e+00
    1.060072e+01    1.524195e+01    0.000000e+00
    1.045088e+01    1.287719e+01    0.000000e+00
    1.053343e+01    9.638200e+00    0.000000e+00
    4.458842e+00    1.195143e+01    0.000000e+00
    3.537386e+00    1.313531e+01    0.000000e+00
    5.243534e+00    2.981918e+01    0.000000e+00
    9.776505e+00    1.069863e+01    0.000000e+00
    5.349659e+00    1.072986e+01    0.000000e+00
    9.674332e+00    1.410231e+01    0.000000e+00
    9.692899e+00    1.640211e+01    0.000000e+00
    9.715880e+00    1.971216e+01    0.000000e+00
    1.051169e+01    2.550966e+01    0.000000e+00
    1.237374e+01    2.733855e+01    0.000000e+00
    1.018623e+01    7.061403e+00    0.000000e+00
    5.997283e+00    2.873265e+01    0.000000e+00
    1.013802e+01    2.105575e+01    0.000000e+00
    5.711726e+00    6.274143e+00    0.000000e+00
    1.012392e+01    6.387896e+00    0.000000e+00
    7.873391e+00    5.113854e+00    0.000000e+00
    5.014827e+00    7.135501e+00    0.000000e+00
    4.807831e+00    2.848907e+01    0.000000e+00
    4.869023e+00    6.431425e+00    0.000000e+00
    7.159176e+00    5.147072e+00    0.000000e+00
    8.899961e+00    6.222756e+00    0.000000e+00
    5.568998e+00    2.644049e+01    0.000000e+00
    5.544416e+00    2.424705e+01    0.000000e+00
    5.577282e+00    2.199690e+01    0.000000e+00
    5.959401e+00    1.106142e+01    0.000000e+00
    9.079543e+00    1.446367e+01    0.000000e+00
    9.088929e+00    1.675878e+01    0.000000e+00
    9.158260e+00    2.008523e+01    0.000000e+00
    9.089532e+00    1.603649e+01    0.000000e+00
    9.115631e+00    1.936304e+01    0.000000e+00
    9.069545e+00    1.378639e+01    0.000000e+00
    5.956288e+00    1.040476e+01    0.000000e+00
    7.889686e+00    3.189864e+01    0.000000e+00
    8.053429e+00    2.994139e+01    0.000000e+00
    1.110658e+01    2.712759e+01    0.000000e+00
    8.239191e+00    6.230310e+00    0.000000e+00
    5.699545e+00    7.243547e+00    0.000000e+00
    9.307435e+00    2.081564e+01    0.000000e+00
    6.587667e+00    2.868379e+01    0.000000e+00
    9.330623e+00    7.243115e+00    0.000000e+00
    6.349080e+00    8.365468e+00    0.000000e+00
    8.660810e+00    8.448624e+00    0.000000e+00
    5.583230e+00    1.863541e+01    0.000000e+00
    5.563945e+00    1.636980e+01    0.000000e+00
    5.902055e+00    2.761639e+01    0.000000e+00
    9.962474e+00    2.432666e+01    0.000000e+00
    1.020167e+01    2.184935e+01    0.000000e+00
    6.021930e+00    9.730965e+00    0.000000e+00
    4.923373e+00    2.537568e+01    0.000000e+00
    4.915797e+00    2.312580e+01    0.000000e+00
    4.955574e+00    2.078497e+01    0.000000e+00
    4.926048e+00    1.749247e+01    0.000000e+00
    4.908321e+00    1.531552e+01    0.000000e+00
    4.963820e+00    2.768820e+01    0.000000e+00
    4.955847e+00    1.983389e+01    0.000000e+00
    4.931828e+00    1.319602e+01    0.000000e+00
    6.987262e+00    6.241349e+00    0.000000e+00
    9.007468e+00    9.798995e+00    0.000000e+00
    1.003402e+01    2.315050e+01    0.000000e+00
    8.353124e+00    1.413234e+01    0.000000e+00
    8.362828e+00    1.638783e+01    0.000000e+00
    8.394137e+00    1.972996e+01    0.000000e+00
    9.256122e+00    2.312855e+01    0.000000e+00
    8.216278e+00    9.672586e+00    0.000000e+00
    5.669735e+00    1.523283e+01    0.000000e+00
    5.732720e+00    1.749536e+01    0.000000e+00
    5.707191e+00    2.535031e+01    0.000000e+00
    5.701050e+00    2.313300e+01    0.000000e+00
    5.783039e+00    2.083123e+01    0.000000e+00
    6.679739e+00    2.750354e+01    0.000000e+00
    9.255191e+00    2.436869e+01    0.000000e+00
    5.778190e+00    1.978302e+01    0.000000e+00
    5.693089e+00    1.306596e+01    0.000000e+00
    6.803904e+00    9.637644e+00    0.000000e+00
    9.378247e+00    2.194162e+01    0.000000e+00
    1.049746e+01    2.678944e+01    0.000000e+00
    7.373537e+00    3.090527e+01    0.000000e+00
    6.695127e+00    1.072091e+01    0.000000e+00
    6.047050e+00    1.177990e+01    0.000000e+00
    7.953541e+00    7.351670e+00    0.000000e+00
    4.937936e+00    1.394322e+01    0.000000e+00
    7.167871e+00    7.460664e+00    0.000000e+00
    9.011577e+00    1.853476e+01    0.000000e+00
    9.015820e+00    1.524461e+01    0.000000e+00
    8.984369e+00    1.310757e+01    0.000000e+00
    9.002474e+00    1.758634e+01    0.000000e+00
    9.095617e+00    1.058233e+01    0.000000e+00
    8.950334e+00    1.187487e+01    0.000000e+00
    8.054612e+00    8.447605e+00    0.000000e+00
    7.070064e+00    8.297285e+00    0.000000e+00
    6.929347e+00    3.039787e+01    0.000000e+00
    8.129803e+00    1.187571e+01    0.000000e+00
    5.688917e+00    1.408018e+01    0.000000e+00
    8.189370e+00    1.753979e+01    0.000000e+00
    8.197652e+00    1.857594e+01    0.000000e+00
    8.197796e+00    1.524397e+01    0.000000e+00
    8.222975e+00    1.304689e+01    0.000000e+00
    6.947845e+00    1.189505e+01    0.000000e+00
    8.232431e+00    1.068290e+01    0.000000e+00
    8.569770e+00    2.310407e+01    0.000000e+00
    7.869069e+00    2.090326e+01    0.000000e+00
    6.976290e+00    2.419358e+01    0.000000e+00
    7.111814e+00    2.210660e+01    0.000000e+00
    6.976347e+00    1.861265e+01    0.000000e+00
    6.960595e+00    1.637178e+01    0.000000e+00
    6.865786e+00    2.628852e+01    0.000000e+00
    7.952252e+00    2.336201e+01    0.000000e+00
    7.326613e+00    2.979644e+01    0.000000e+00
    7.919368e+00    2.218355e+01    0.000000e+00
    7.747710e+00    2.409842e+01    0.000000e+00
    7.168329e+00    2.085789e+01    0.000000e+00
    7.539558e+00    1.188544e+01    0.000000e+00
    6.798341e+00    2.316463e+01    0.000000e+00
    6.965232e+00    1.750109e+01    0.000000e+00
    6.949070e+00    1.523740e+01    0.000000e+00
    7.001196e+00    1.970040e+01    0.000000e+00
    6.967372e+00    1.308237e+01    0.000000e+00
    6.954387e+00    1.413186e+01    0.000000e+00
    6.832790e+00    2.529401e+01    0.000000e+00
    8.119703e+00    2.278263e+01    0.000000e+00
    6.996321e+00    2.912741e+01    0.000000e+00
    8.000027e+00    2.760779e+01    0.000000e+00
    1.284107e+01    3.835022e+01    0.000000e+00
    1.173422e+01    3.832973e+01    0.000000e+00
    1.069073e+01    3.825742e+01    0.000000e+00
    9.632085e+00    3.824302e+01    0.000000e+00
    8.607916e+00    3.843828e+01    0.000000e+00
    7.594913e+00    3.847573e+01    0.000000e+00
    6.335102e+00    3.842271e+01    0.000000e+00
    5.017932e+00    3.838057e+01    0.000000e+00
    4.266503e+00    3.819050e+01    0.000000e+00
    3.396391e+00    3.841978e+01    0.000000e+00
    2.184719e+00    3.844933e+01    0.000000e+00
    1.122105e+00    3.843090e+01    0.000000e+00
    9.295900e-01    3.715632e+01    0.000000e+00
    2.343369e+00    3.725797e+01    0.000000e+00
    3.032214e+00    3.709243e+01    0.000000e+00
    4.481653e+00    3.727522e+01    0.000000e+00
    5.413939e+00    3.735032e+01    0.000000e+00
    6.292273e+00    3.714131e+01    0.000000e+00
    7.527734e+00    3.713722e+01    0.000000e+00
    8.619287e+00    3.714057e+01    0.000000e+00
    9.689485e+00    3.717226e+01    0.000000e+00
    1.070831e+01    3.715597e+01    0.000000e+00
    1.178641e+01    3.721665e+01    0.000000e+00
    1.286926e+01    3.720269e+01    0.000000e+00
    1.397123e+01    3.944109e+01    0.000000e+00
    1.286748e+01    3.947229e+01    0.000000e+00
    1.178595e+01    3.945080e+01    0.000000e+00
    1.076741e+01    3.948206e+01    0.000000e+00
    9.765072e+00    3.937584e+01    0.000000e+00
    8.554687e+00    3.939950e+01    0.000000e+00
    7.522653e+00    3.945786e+01    0.000000e+00
    6.364323e+00    3.952636e+01    0.000000e+00
    5.466853e+00    3.944593e+01    0.000000e+00
    4.015872e+00    3.944705e+01    0.000000e+00
    3.180429e+00    3.921329e+01    0.000000e+00
    2.149695e+00    3.915230e+01    0.000000e+00
    9.991639e-01    3.919507e+01    0.000000e+00
    1.397076e+01    4.053470e+01    0.000000e+00
    1.279223e+01    4.046109e+01    0.000000e+00
    1.174376e+01    4.052824e+01    0.000000e+00
    1.066184e+01    4.053533e+01    0.000000e+00
    9.543811e+00    4.036763e+01    0.000000e+00
    8.595380e+00    4.065137e+01    0.000000e+00
    7.650254e+00    4.053356e+01    0.000000e+00
    6.377399e+00    4.055870e+01    0.000000e+00
    5.250613e+00    4.056956e+01    0.000000e+00
    4.369841e+00    4.059308e+01    0.000000e+00
    3.023230e+00    4.060208e+01    0.000000e+00
    2.169163e+00    4.061773e+01    0.000000e+00
    1.417161e+00    4.059288e+01    0.000000e+00
    1.389076e+01    4.145995e+01    0.000000e+00
    1.283797e+01    4.163531e+01    0.000000e+00
    1.185008e+01    4.165319e+01    0.000000e+00
    1.086540e+01    4.147905e+01    0.000000e+00
    9.637913e+00    4.166090e+01    0.000000e+00
    8.613400e+00    4.172694e+01    0.000000e+00
    7.519805e+00    4.163753e+01    0.000000e+00
    6.365768e+00    4.163853e+01    0.000000e+00
    5.235892e+00    4.166626e+01    0.000000e+00
    4.359972e+00    4.166790e+01    0.000000e+00
    3.225688e+00    4.166177e+01    0.000000e+00
    2.133160e+00    4.187645e+01    0.000000e+00
    7.671722e-01    4.170980e+01    0.000000e+00
    1.414673e+01    4.288816e+01    0.000000e+00
    1.293083e+01    4.285818e+01    0.000000e+00
    1.177349e+01    4.276675e+01    0.000000e+00
    1.076670e+01    4.274485e+01    0.000000e+00
    9.773479e+00    4.265246e+01    0.000000e+00
    8.482365e+00    4.281247e+01    0.000000e+00
    7.498692e+00    4.268067e+01    0.000000e+00
    6.375816e+00    4.273150e+01    0.000000e+00
    5.281010e+00    4.281074e+01    0.000000e+00
    4.212895e+00    4.290465e+01    0.000000e+00
    3.041273e+00    4.266927e+01    0.000000e+00
    2.168742e+00    4.261380e+01    0.000000e+00
    1.382239e+00    4.280653e+01    0.000000e+00
    1.410632e+01    4.369473e+01    0.000000e+00
    1.301890e+01    4.359911e+01    0.000000e+00
    1.188640e+01    4.407090e+01    0.000000e+00
    1.072190e+01    4.390475e+01    0.000000e+00
    9.617516e+00    4.393205e+01    0.000000e+00
    8.587683e+00    4.392446e+01    0.000000e+00
    7.455563e+00    4.387302e+01    0.000000e+00
    6.427037e+00    4.381816e+01    0.000000e+00
    5.226813e+00    4.375352e+01    0.000000e+00
    4.213140e+00    4.404483e+01    0.000000e+00
    3.069674e+00    4.402193e+01    0.000000e+00
    2.333928e+00    4.389457e+01    0.000000e+00
    1.177894e+00    4.398127e+01    0.000000e+00
    1.360102e+01    4.500810e+01    0.000000e+00
    1.292978e+01    4.492843e+01    0.000000e+00
    1.184378e+01    4.499906e+01    0.000000e+00
    1.072925e+01    4.505025e+01    0.000000e+00
    9.780502e+00    4.517861e+01    0.000000e+00
    8.608948e+00    4.516212e+01    0.000000e+00
    7.593870e+00    4.499458e+01    0.000000e+00
    6.380876e+00    4.497207e+01    0.000000e+00
    5.374071e+00    4.499008e+01    0.000000e+00
    4.272400e+00    4.493637e+01    0.000000e+00
    2.967175e+00    4.487350e+01    0.000000e+00
    2.043476e+00    4.490093e+01    0.000000e+00
    9.984054e-01    4.477279e+01    0.000000e+00
    1.362593e+01    4.618273e+01    0.000000e+00
    1.281449e+01    4.612910e+01    0.000000e+00
    1.190243e+01    4.626210e+01    0.000000e+00
    1.085974e+01    4.617591e+01    0.000000e+00
    9.615360e+00    4.607156e+01    0.000000e+00
    8.564595e+00    4.620610e+01    0.000000e+00
    7.555707e+00    4.605913e+01    0.000000e+00
    6.448731e+00    4.609699e+01    0.000000e+00
    5.269338e+00    4.618756e+01    0.000000e+00
    4.300173e+00    4.629832e+01    0.000000e+00
    2.951450e+00    4.620187e+01    0.000000e+00
    2.063492e+00    4.615989e+01    0.000000e+00
    1.358495e+00    4.613744e+01    0.000000e+00
    1.393633e+01    4.700788e+01    0.000000e+00
    1.286284e+01    4.716752e+01    0.000000e+00
    1.189075e+01    4.710799e+01    0.000000e+00
    1.071799e+01    4.732500e+01    0.000000e+00
    9.487530e+00    4.733421e+01    0.000000e+00
    8.507677e+00    4.710659e+01    0.000000e+00
    7.667426e+00    4.718969e+01    0.000000e+00
    6.481221e+00    4.712147e+01    0.000000e+00
    5.129671e+00    4.722834e+01    0.000000e+00
    4.182581e+00    4.718286e+01    0.000000e+00
    3.109622e+00    4.705556e+01    0.000000e+00
    2.266480e+00    4.735681e+01    0.000000e+00
    7.572945e-01    4.723133e+01    0.000000e+00
    1.360888e+01    4.839701e+01    0.000000e+00
    1.280429e+01    4.854144e+01    0.000000e+00
    1.187110e+01    4.844597e+01    0.000000e+00
    1.091077e+01    4.847924e+01    0.000000e+00
    9.778566e+00    4.837083e+01    0.000000e+00
    8.765841e+00    4.801576e+01    0.000000e+00
    7.536384e+00    4.829015e+01    0.000000e+00
    6.410988e+00    4.838915e+01    0.000000e+00
    5.106288e+00    4.852324e+01    0.000000e+00
    4.053856e+00    4.825293e+01    0.000000e+00
    3.119830e+00    4.829984e+01    0.000000e+00
    2.202419e+00    4.820622e+01    0.000000e+00
    1.369912e+00    4.833622e+01    0.000000e+00
    1.422035e+01    4.944924e+01    0.000000e+00
    1.281832e+01    4.925562e+01    0.000000e+00
    1.162651e+01    4.944241e+01    0.000000e+00
    1.078326e+01    4.947495e+01    0.000000e+00
    9.568481e+00    4.958294e+01    0.000000e+00
    8.560529e+00    4.963795e+01    0.000000e+00
    7.504756e+00    4.952506e+01    0.000000e+00
    6.245742e+00    4.946578e+01    0.000000e+00
    5.387836e+00    4.951385e+01    0.000000e+00
    4.215073e+00    4.937130e+01    0.000000e+00
    3.347051e+00    4.939906e+01    0.000000e+00
    2.203468e+00    4.961040e+01    0.000000e+00
    8.506030e-01    4.966441e+01    0.000000e+00
    1.352679e+01    5.058403e+01    0.000000e+00
    1.272981e+01    5.051796e+01    0.000000e+00
    1.180272e+01    5.049685e+01    0.000000e+00
    1.082067e+01    5.042668e+01    0.000000e+00
    9.736927e+00    5.076051e+01    0.000000e+00
    8.500876e+00    5.053296e+01    0.000000e+00
    7.586150e+00    5.054258e+01    0.000000e+00
    6.078694e+00    5.059761e+01    0.000000e+00
    5.415759e+00    5.032210e+01    0.000000e+00
    4.038541e+00    5.038512e+01    0.000000e+00
    3.129901e+00    5.042724e+01    0.000000e+00
    2.216728e+00    5.030941e+01    0.000000e+00
    1.315096e+00    5.039184e+01    0.000000e+00
    1.365990e+01    5.185069e+01    0.000000e+00
    1.272485e+01    5.195394e+01    0.000000e+00
    1.168787e+01    5.191063e+01    0.000000e+00
    1.081108e+01    5.175121e+01    0.000000e+00
    9.910036e+00    5.181841e+01    0.000000e+00
    8.737521e+00    5.176070e+01    0.000000e+00
    7.431649e+00    5.147537e+01    0.000000e+00
    6.186143e+00    5.144577e+01    0.000000e+00
    5.400521e+00    5.160244e+01    0.000000e+00
    4.037796e+00    5.176632e+01    0.000000e+00
    3.093994e+00    5.172566e+01    0.000000e+00
    2.208516e+00    5.171621e+01    0.000000e+00
    1.444080e+00    5.164818e+01    0.000000e+00
    1.413015e+01    5.258136e+01    0.000000e+00
    1.275537e+01    5.265211e+01    0.000000e+00
    1.152082e+01    5.265676e+01    0.000000e+00
    1.075411e+01    5.275647e+01    0.000000e+00
    9.939751e+00    5.269302e+01    0.000000e+00
    8.663596e+00    5.263570e+01    0.000000e+00
    7.757790e+00    5.269443e+01    0.000000e+00
    6.447177e+00    5.257888e+01    0.000000e+00
    5.286463e+00    5.269622e+01    0.000000e+00
    4.198793e+00    5.273355e+01    0.000000e+00
    3.344811e+00    5.277221e+01    0.000000e+00
    2.166819e+00    5.298359e+01    0.000000e+00
    7.707493e-01    5.277002e+01    0.000000e+00
    1.361008e+01    5.392744e+01    0.000000e+00
    1.277782e+01    5.407555e+01    0.000000e+00
    1.174294e+01    5.412861e+01    0.000000e+00
    1.073650e+01    5.412006e+01    0.000000e+00
    9.874249e+00    5.390808e+01    0.000000e+00
    8.505530e+00    5.412127e+01    0.000000e+00
    7.574493e+00    5.383976e+01    0.000000e+00
    6.579613e+00    5.359262e+01    0.000000e+00
    5.096648e+00    5.394861e+01    0.000000e+00
    4.181906e+00    5.374303e+01    0.000000e+00
    3.202529e+00    5.386088e+01    0.000000e+00
    2.205225e+00    5.376135e+01    0.000000e+00
    1.371195e+00    5.388347e+01    0.000000e+00
    1.419925e+01    5.513988e+01    0.000000e+00
    1.280203e+01    5.478909e+01    0.000000e+00
    1.173617e+01    5.480228e+01    0.000000e+00
    1.067295e+01    5.479916e+01    0.000000e+00
    9.476980e+00    5.495008e+01    0.000000e+00
    8.602115e+00    5.496367e+01    0.000000e+00
    7.489088e+00    5.494057e+01    0.000000e+00
    6.430352e+00    5.489537e+01    0.000000e+00
    5.099290e+00    5.510427e+01    0.000000e+00
    4.390145e+00    5.501468e+01    0.000000e+00
    3.269775e+00    5.517295e+01    0.000000e+00
    2.195607e+00    5.516451e+01    0.000000e+00
    8.537854e-01    5.520248e+01    0.000000e+00
    1.388493e+01    5.600151e+01    0.000000e+00
    1.276132e+01    5.603395e+01    0.000000e+00
    1.171606e+01    5.603860e+01    0.000000e+00
    1.068240e+01    5.604525e+01    0.000000e+00
    9.683704e+00    5.603970e+01    0.000000e+00
    8.660726e+00    5.588692e+01    0.000000e+00
    7.663122e+00    5.591911e+01    0.000000e+00
    6.163133e+00    5.611989e+01    0.000000e+00
    5.198111e+00    5.591793e+01    0.000000e+00
    4.241062e+00    5.598278e+01    0.000000e+00
    3.273046e+00    5.585052e+01    0.000000e+00
    2.242570e+00    5.584362e+01    0.000000e+00
    1.317877e+00    5.594204e+01    0.000000e+00
    1.368700e+01    5.745205e+01    0.000000e+00
    1.275192e+01    5.753692e+01    0.000000e+00
    1.171254e+01    5.755287e+01    0.000000e+00
    1.066886e+01    5.755324e+01    0.000000e+00
    9.621286e+00    5.754518e+01    0.000000e+00
    8.527053e+00    5.746929e+01    0.000000e+00
    7.277642e+00    5.720208e+01    0.000000e+00
    6.178121e+00    5.725145e+01    0.000000e+00
    5.257473e+00    5.729008e+01    0.000000e+00
    4.280262e+00    5.732027e+01    0.000000e+00
    3.276675e+00    5.733021e+01    0.000000e+00
    2.293404e+00    5.733720e+01    0.000000e+00
    1.357951e+00    5.738019e+01    0.000000e+00
    1.413719e+01    5.816773e+01    0.000000e+00
    1.277851e+01    5.821815e+01    0.000000e+00
    1.172094e+01    5.821426e+01    0.000000e+00
    1.067707e+01    5.821122e+01    0.000000e+00
    9.615169e+00    5.824061e+01    0.000000e+00
    8.498918e+00    5.820008e+01    0.000000e+00
    7.186662e+00    5.815469e+01    0.000000e+00
    6.361008e+00    5.850105e+01    0.000000e+00
    5.533298e+00    5.854815e+01    0.000000e+00
    4.332015e+00    5.853777e+01    0.000000e+00
    3.274536e+00    5.854556e+01    0.000000e+00
    2.214356e+00    5.855167e+01    0.000000e+00
    8.660339e-01    5.816959e+01    0.000000e+00
    1.360993e+01    5.949751e+01    0.000000e+00
    1.277380e+01    5.962503e+01    0.000000e+00
    1.170544e+01    5.962200e+01    0.000000e+00
    1.072040e+01    5.951406e+01    0.000000e+00
    9.814123e+00    5.960802e+01    0.000000e+00
    8.271851e+00    5.954301e+01    0.000000e+00
    7.422921e+00    5.940396e+01    0.000000e+00
    6.420362e+00    5.941945e+01    0.000000e+00
    5.370196e+00    5.924441e+01    0.000000e+00
    4.330837e+00    5.919165e+01    0.000000e+00
    3.281035e+00    5.921819e+01    0.000000e+00
    2.228616e+00    5.926742e+01    0.000000e+00
    1.394037e+00    5.940128e+01    0.000000e+00
    1.420158e+01    6.070486e+01    0.000000e+00
    1.279818e+01    6.034115e+01    0.000000e+00
    1.169525e+01    6.034023e+01    0.000000e+00
    1.075419e+01    6.053717e+01    0.000000e+00
    9.528968e+00    6.052470e+01    0.000000e+00
    8.412846e+00    6.051141e+01    0.000000e+00
    7.430284e+00    6.051855e+01    0.000000e+00
    6.426126e+00    6.054717e+01    0.000000e+00
    5.319693e+00    6.072464e+01    0.000000e+00
    4.366937e+00    6.065767e+01    0.000000e+00
    3.485080e+00    6.078141e+01    0.000000e+00
    2.198919e+00    6.072077e+01    0.000000e+00
    8.465391e-01    6.073066e+01    0.000000e+00
    1.390684e+01    6.152282e+01    0.000000e+00
    1.279172e+01    6.157204e+01    0.000000e+00
    1.174556e+01    6.157059e+01    0.000000e+00
    1.076566e+01    6.154807e+01    0.000000e+00
    9.664242e+00    6.157878e+01    0.000000e+00
    8.467715e+00    6.159909e+01    0.000000e+00
    7.462479e+00    6.160944e+01    0.000000e+00
    6.465795e+00    6.163229e+01    0.000000e+00
    5.354582e+00    6.166801e+01    0.000000e+00
    4.557819e+00    6.166832e+01    0.000000e+00
    3.167230e+00    6.164175e+01    0.000000e+00
    2.164521e+00    6.146239e+01    0.000000e+00
    1.263722e+00    6.149069e+01    0.000000e+00
    1.393267e+01    6.276129e+01    0.000000e+00
    1.306004e+01    6.292901e+01    0.000000e+00
    1.152763e+01    6.292979e+01    0.000000e+00
    1.068522e+01    6.278595e+01    0.000000e+00
    9.667226e+00    6.269461e+01    0.000000e+00
    8.494789e+00    6.269337e+01    0.000000e+00
    7.470155e+00    6.273770e+01    0.000000e+00
    6.445873e+00    6.272453e+01    0.000000e+00
    5.307832e+00    6.271637e+01    0.000000e+00
    4.295448e+00    6.272517e+01    0.000000e+00
    3.254214e+00    6.277539e+01    0.000000e+00
    2.291147e+00    6.298158e+01    0.000000e+00
    8.835706e-01    6.286270e+01    0.000000e+00
    1.405594e+01    6.415737e+01    0.000000e+00
    1.287122e+01    6.373399e+01    0.000000e+00
    1.173239e+01    6.372934e+01    0.000000e+00
    1.066180e+01    6.412189e+01    0.000000e+00
    9.598606e+00    6.369085e+01    0.000000e+00
    8.549575e+00    6.370581e+01    0.000000e+00
    7.430997e+00    6.420511e+01    0.000000e+00
    6.312874e+00    6.380567e+01    0.000000e+00
    5.309953e+00    6.373846e+01    0.000000e+00
    4.243947e+00    6.422358e+01    0.000000e+00
    3.148734e+00    6.389059e+01    0.000000e+00
    2.065638e+00    6.401586e+01    0.000000e+00
    8.878271e-01    6.378860e+01    0.000000e+00
    9.365627e-01    3.617840e+01    0.000000e+00
    2.143691e+00    3.578745e+01    0.000000e+00
    3.266501e+00    3.619117e+01    0.000000e+00
    4.311773e+00    3.630723e+01    0.000000e+00
    5.295881e+00    3.589386e+01    0.000000e+00
    6.220334e+00    3.629316e+01    0.000000e+00
    7.483366e+00    3.623937e+01    0.000000e+00
    8.502151e+00    3.612870e+01    0.000000e+00
    9.674373e+00    3.615071e+01    0.000000e+00
    1.070104e+01    3.611786e+01    0.000000e+00
    1.491344e+01    3.853482e+01    0.000000e+00
    1.491117e+01    3.932345e+01    0.000000e+00
    1.491052e+01    3.892882e+01    0.000000e+00
    1.491133e+01    3.883022e+01    0.000000e+00
    1.491364e+01    3.843632e+01    0.000000e+00
    1.491367e+01    3.814062e+01    0.000000e+00
    1.491240e+01    3.804166e+01    0.000000e+00
    1.489573e+01    3.773688e+01    0.000000e+00
    1.097258e+01    3.508949e+01    0.000000e+00
    1.126817e+01    3.508707e+01    0.000000e+00
    1.116977e+01    3.508816e+01    0.000000e+00
    1.156363e+01    3.508612e+01    0.000000e+00
    1.067743e+01    3.508753e+01    0.000000e+00
    1.087314e+01    3.508793e+01    0.000000e+00
    1.107124e+01    3.508929e+01    0.000000e+00
    1.136663e+01    3.508657e+01    0.000000e+00
    1.146512e+01    3.508632e+01    0.000000e+00
    1.166219e+01    3.508613e+01    0.000000e+00
    1.176075e+01    3.508612e+01    0.000000e+00
    1.185923e+01    3.508633e+01    0.000000e+00
    1.195674e+01    3.508787e+01    0.000000e+00
    1.205477e+01    3.509346e+01    0.000000e+00
    1.215693e+01    3.510291e+01    0.000000e+00
    1.226955e+01    3.511646e+01    0.000000e+00
    1.491058e+01    3.912680e+01    0.000000e+00
    1.490976e+01    3.902748e+01    0.000000e+00
    1.491220e+01    3.873171e+01    0.000000e+00
    1.491286e+01    3.863325e+01    0.000000e+00
    1.491373e+01    3.833779e+01    0.000000e+00
    1.491370e+01    3.823923e+01    0.000000e+00
    1.490775e+01    3.794141e+01    0.000000e+00
    1.490180e+01    3.784008e+01    0.000000e+00
    1.284226e+01    3.642587e+01    0.000000e+00
    1.332431e+01    3.696931e+01    0.000000e+00
    1.273516e+01    3.624731e+01    0.000000e+00
    1.403500e+01    3.739783e+01    0.000000e+00
    1.250359e+01    3.566881e+01    0.000000e+00
    1.375256e+01    3.726498e+01    0.000000e+00
    1.268723e+01    3.615493e+01    0.000000e+00
    1.309955e+01    3.675361e+01    0.000000e+00
    1.247897e+01    3.556699e+01    0.000000e+00
    1.443355e+01    3.752339e+01    0.000000e+00
    1.260235e+01    3.596497e+01    0.000000e+00
    1.324681e+01    3.690030e+01    0.000000e+00
    1.357385e+01    3.715771e+01    0.000000e+00
    1.464410e+01    3.756919e+01    0.000000e+00
    1.413238e+01    3.743457e+01    0.000000e+00
    1.475108e+01    3.758689e+01    0.000000e+00
    1.423118e+01    3.746745e+01    0.000000e+00
    1.453863e+01    3.754888e+01    0.000000e+00
    1.264305e+01    3.606073e+01    0.000000e+00
    1.296392e+01    3.659500e+01    0.000000e+00
    1.253258e+01    3.576886e+01    0.000000e+00
    1.290132e+01    3.651167e+01    0.000000e+00
    1.487681e+01    3.761409e+01    0.000000e+00
    1.366217e+01    3.721326e+01    0.000000e+00
    1.384497e+01    3.731292e+01    0.000000e+00
    1.340472e+01    3.703536e+01    0.000000e+00
    1.433163e+01    3.749690e+01    0.000000e+00
    1.393922e+01    3.735713e+01    0.000000e+00
    1.256561e+01    3.586758e+01    0.000000e+00
    1.278690e+01    3.633765e+01    0.000000e+00
    1.245872e+01    3.546432e+01    0.000000e+00
    1.317191e+01    3.682843e+01    0.000000e+00
    1.487063e+01    3.951427e+01    0.000000e+00
    1.048651e+01    3.513043e+01    0.000000e+00
    1.480825e+01    3.968795e+01    0.000000e+00
    1.030662e+01    3.519883e+01    0.000000e+00
    1.470947e+01    3.998057e+01    0.000000e+00
    9.986381e+00    3.530836e+01    0.000000e+00
    1.481997e+01    3.887839e+01    0.000000e+00
    1.482650e+01    3.848533e+01    0.000000e+00
    1.482589e+01    3.809074e+01    0.000000e+00
    1.481784e+01    3.907789e+01    0.000000e+00
    1.482420e+01    3.868174e+01    0.000000e+00
    1.482701e+01    3.828848e+01    0.000000e+00
    1.092017e+01    3.517998e+01    0.000000e+00
    1.122151e+01    3.517551e+01    0.000000e+00
    1.112267e+01    3.517896e+01    0.000000e+00
    1.081671e+01    3.517387e+01    0.000000e+00
    1.102205e+01    3.518113e+01    0.000000e+00
    1.161186e+01    3.517230e+01    0.000000e+00
    1.171105e+01    3.517258e+01    0.000000e+00
    1.180984e+01    3.517284e+01    0.000000e+00
    1.190709e+01    3.517470e+01    0.000000e+00
    1.200331e+01    3.518070e+01    0.000000e+00
    1.482196e+01    3.877985e+01    0.000000e+00
    1.481915e+01    3.918123e+01    0.000000e+00
    1.481783e+01    3.897743e+01    0.000000e+00
    1.482537e+01    3.858349e+01    0.000000e+00
    1.482675e+01    3.838693e+01    0.000000e+00
    1.482677e+01    3.818980e+01    0.000000e+00
    1.482107e+01    3.799028e+01    0.000000e+00
    1.479638e+01    3.938610e+01    0.000000e+00
    1.061696e+01    3.519758e+01    0.000000e+00
    1.238995e+01    3.511423e+01    0.000000e+00
    1.348799e+01    3.709824e+01    0.000000e+00
    1.303021e+01    3.667567e+01    0.000000e+00
    1.330773e+01    3.707078e+01    0.000000e+00
    1.425769e+01    3.756594e+01    0.000000e+00
    1.458720e+01    3.766113e+01    0.000000e+00
    1.405289e+01    3.749769e+01    0.000000e+00
    1.375779e+01    3.736782e+01    0.000000e+00
    1.258566e+01    3.614525e+01    0.000000e+00
    1.263269e+01    3.624185e+01    0.000000e+00
    1.238380e+01    3.553063e+01    0.000000e+00
    1.286073e+01    3.660726e+01    0.000000e+00
    1.357005e+01    3.726160e+01    0.000000e+00
    1.447309e+01    3.762730e+01    0.000000e+00
    1.268366e+01    3.633667e+01    0.000000e+00
    1.243478e+01    3.574277e+01    0.000000e+00
    1.279770e+01    3.651965e+01    0.000000e+00
    1.307210e+01    3.685278e+01    0.000000e+00
    1.246680e+01    3.584563e+01    0.000000e+00
    1.322659e+01    3.700086e+01    0.000000e+00
    1.250273e+01    3.594704e+01    0.000000e+00
    1.366293e+01    3.731690e+01    0.000000e+00
    1.385459e+01    3.741471e+01    0.000000e+00
    1.236568e+01    3.541703e+01    0.000000e+00
    1.240749e+01    3.563787e+01    0.000000e+00
    1.415450e+01    3.753341e+01    0.000000e+00
    1.254249e+01    3.604687e+01    0.000000e+00
    1.314820e+01    3.692825e+01    0.000000e+00
    1.273869e+01    3.642935e+01    0.000000e+00
    1.436408e+01    3.759657e+01    0.000000e+00
    1.395306e+01    3.745788e+01    0.000000e+00
    1.469768e+01    3.953846e+01    0.000000e+00
    1.046692e+01    3.530515e+01    0.000000e+00
    1.457277e+01    3.973412e+01    0.000000e+00
    1.026122e+01    3.544693e+01    0.000000e+00
    1.449229e+01    4.043299e+01    0.000000e+00
    9.423771e+00    3.552416e+01    0.000000e+00
    1.473886e+01    3.843644e+01    0.000000e+00
    1.473891e+01    3.813940e+01    0.000000e+00
    1.145784e+01    3.525145e+01    0.000000e+00
    1.155523e+01    3.525636e+01    0.000000e+00
    1.165781e+01    3.525879e+01    0.000000e+00
    1.175923e+01    3.525978e+01    0.000000e+00
    1.185900e+01    3.526253e+01    0.000000e+00
    1.473944e+01    3.823892e+01    0.000000e+00
    1.473919e+01    3.833777e+01    0.000000e+00
    1.204647e+01    3.526832e+01    0.000000e+00
    1.473570e+01    3.803647e+01    0.000000e+00
    1.472300e+01    3.913035e+01    0.000000e+00
    1.472304e+01    3.902620e+01    0.000000e+00
    1.473244e+01    3.793865e+01    0.000000e+00
    1.471551e+01    3.925350e+01    0.000000e+00
    1.473810e+01    3.853510e+01    0.000000e+00
    1.073963e+01    3.525698e+01    0.000000e+00
    1.085707e+01    3.527422e+01    0.000000e+00
    1.127676e+01    3.525610e+01    0.000000e+00
    1.096859e+01    3.527723e+01    0.000000e+00
    1.472513e+01    3.892477e+01    0.000000e+00
    1.117932e+01    3.526609e+01    0.000000e+00
    1.107563e+01    3.527380e+01    0.000000e+00
    1.472966e+01    3.882510e+01    0.000000e+00
    1.224412e+01    3.529885e+01    0.000000e+00
    1.339217e+01    3.713789e+01    0.000000e+00
    1.292792e+01    3.669207e+01    0.000000e+00
    1.299861e+01    3.677390e+01    0.000000e+00
    1.347971e+01    3.720168e+01    0.000000e+00
    1.228971e+01    3.549012e+01    0.000000e+00
    1.440205e+01    3.769890e+01    0.000000e+00
    1.231043e+01    3.560182e+01    0.000000e+00
    1.407412e+01    3.759909e+01    0.000000e+00
    1.233634e+01    3.571239e+01    0.000000e+00
    1.240132e+01    3.592593e+01    0.000000e+00
    1.243999e+01    3.602987e+01    0.000000e+00
    1.418038e+01    3.763406e+01    0.000000e+00
    1.236692e+01    3.582005e+01    0.000000e+00
    1.429006e+01    3.766692e+01    0.000000e+00
    1.248205e+01    3.613228e+01    0.000000e+00
    1.397010e+01    3.756053e+01    0.000000e+00
    1.252769e+01    3.623326e+01    0.000000e+00
    1.386750e+01    3.751864e+01    0.000000e+00
    1.376628e+01    3.747337e+01    0.000000e+00
    1.257746e+01    3.633271e+01    0.000000e+00
    1.312513e+01    3.703151e+01    0.000000e+00
    1.304555e+01    3.695536e+01    0.000000e+00
    1.320712e+01    3.710497e+01    0.000000e+00
    1.366662e+01    3.742393e+01    0.000000e+00
    1.356877e+01    3.736935e+01    0.000000e+00
    1.263166e+01    3.643025e+01    0.000000e+00
    1.275371e+01    3.661774e+01    0.000000e+00
    1.269044e+01    3.652536e+01    0.000000e+00
    1.473632e+01    3.774081e+01    0.000000e+00
    1.462824e+01    3.938358e+01    0.000000e+00
    1.063154e+01    3.535738e+01    0.000000e+00
    1.450573e+01    3.952551e+01    0.000000e+00
    1.049352e+01    3.549631e+01    0.000000e+00
    1.438173e+01    3.998289e+01    0.000000e+00
    9.975629e+00    3.568039e+01    0.000000e+00
    1.465624e+01    3.780988e+01    0.000000e+00
    1.465121e+01    3.849161e+01    0.000000e+00
    1.465121e+01    3.828896e+01    0.000000e+00
    1.159389e+01    3.534414e+01    0.000000e+00
    1.170382e+01    3.534742e+01    0.000000e+00
    1.464971e+01    3.818853e+01    0.000000e+00
    1.465085e+01    3.839026e+01    0.000000e+00
    1.181012e+01    3.535179e+01    0.000000e+00
    1.191514e+01    3.535880e+01    0.000000e+00
    1.077823e+01    3.537948e+01    0.000000e+00
    1.214957e+01    3.533258e+01    0.000000e+00
    1.202416e+01    3.536232e+01    0.000000e+00
    1.462819e+01    3.907661e+01    0.000000e+00
    1.465674e+01    3.867945e+01    0.000000e+00
    1.113829e+01    3.536390e+01    0.000000e+00
    1.464339e+01    3.808279e+01    0.000000e+00
    1.463676e+01    3.796491e+01    0.000000e+00
    1.463517e+01    3.886565e+01    0.000000e+00
    1.090776e+01    3.538216e+01    0.000000e+00
    1.102577e+01    3.537599e+01    0.000000e+00
    1.235769e+01    3.526830e+01    0.000000e+00
    1.462774e+01    3.897070e+01    0.000000e+00
    1.296832e+01    3.687582e+01    0.000000e+00
    1.329236e+01    3.717615e+01    0.000000e+00
    1.347338e+01    3.730930e+01    0.000000e+00
    1.282176e+01    3.670695e+01    0.000000e+00
    1.246857e+01    3.632526e+01    0.000000e+00
    1.252135e+01    3.642784e+01    0.000000e+00
    1.220378e+01    3.544872e+01    0.000000e+00
    1.399072e+01    3.766472e+01    0.000000e+00
    1.388409e+01    3.762457e+01    0.000000e+00
    1.233593e+01    3.600936e+01    0.000000e+00
    1.237660e+01    3.611584e+01    0.000000e+00
    1.226560e+01    3.579056e+01    0.000000e+00
    1.409957e+01    3.770180e+01    0.000000e+00
    1.242063e+01    3.622102e+01    0.000000e+00
    1.310256e+01    3.713758e+01    0.000000e+00
    1.421191e+01    3.773638e+01    0.000000e+00
    1.229912e+01    3.590081e+01    0.000000e+00
    1.377853e+01    3.758140e+01    0.000000e+00
    1.301928e+01    3.706043e+01    0.000000e+00
    1.444408e+01    3.779672e+01    0.000000e+00
    1.223624e+01    3.567526e+01    0.000000e+00
    1.221219e+01    3.555517e+01    0.000000e+00
    1.432777e+01    3.776844e+01    0.000000e+00
    1.367396e+01    3.753409e+01    0.000000e+00
    1.357065e+01    3.748100e+01    0.000000e+00
    1.264260e+01    3.662606e+01    0.000000e+00
    1.257933e+01    3.652827e+01    0.000000e+00
    1.338116e+01    3.724451e+01    0.000000e+00
    1.289363e+01    3.679295e+01    0.000000e+00
    1.457692e+01    3.925274e+01    0.000000e+00
    1.447591e+01    3.935264e+01    0.000000e+00
    1.068301e+01    3.550798e+01    0.000000e+00
    1.432988e+01    3.969026e+01    0.000000e+00
    1.032837e+01    3.568810e+01    0.000000e+00
    1.136324e+01    3.540805e+01    0.000000e+00
    1.456939e+01    3.856433e+01    0.000000e+00
    1.455595e+01    3.879521e+01    0.000000e+00
    1.456267e+01    3.845342e+01    0.000000e+00
    1.151401e+01    3.542976e+01    0.000000e+00
    1.164088e+01    3.543613e+01    0.000000e+00
    1.456155e+01    3.834436e+01    0.000000e+00
    1.455885e+01    3.823924e+01    0.000000e+00
    1.197326e+01    3.546222e+01    0.000000e+00
    1.175784e+01    3.544196e+01    0.000000e+00
    1.186619e+01    3.544906e+01    0.000000e+00
    1.121589e+01    3.544928e+01    0.000000e+00
    1.454971e+01    3.813449e+01    0.000000e+00
    1.453373e+01    3.802343e+01    0.000000e+00
    1.109398e+01    3.547227e+01    0.000000e+00
    1.453916e+01    3.914225e+01    0.000000e+00
    1.453450e+01    3.890725e+01    0.000000e+00
    1.083843e+01    3.550303e+01    0.000000e+00
    1.097180e+01    3.549023e+01    0.000000e+00
    1.452512e+01    3.902698e+01    0.000000e+00
    1.293890e+01    3.697975e+01    0.000000e+00
    1.318832e+01    3.721230e+01    0.000000e+00
    1.346949e+01    3.742133e+01    0.000000e+00
    1.271142e+01    3.672030e+01    0.000000e+00
    1.235757e+01    3.631359e+01    0.000000e+00
    1.231186e+01    3.620496e+01    0.000000e+00
    1.278462e+01    3.681066e+01    0.000000e+00
    1.390458e+01    3.773190e+01    0.000000e+00
    1.401581e+01    3.777002e+01    0.000000e+00
    1.368576e+01    3.764694e+01    0.000000e+00
    1.226983e+01    3.609558e+01    0.000000e+00
    1.223065e+01    3.598470e+01    0.000000e+00
    1.219396e+01    3.587136e+01    0.000000e+00
    1.240808e+01    3.642129e+01    0.000000e+00
    1.379516e+01    3.769136e+01    0.000000e+00
    1.327769e+01    3.728558e+01    0.000000e+00
    1.357676e+01    3.759639e+01    0.000000e+00
    1.299410e+01    3.716703e+01    0.000000e+00
    1.210106e+01    3.548191e+01    0.000000e+00
    1.413009e+01    3.780579e+01    0.000000e+00
    1.215936e+01    3.575306e+01    0.000000e+00
    1.437208e+01    3.787042e+01    0.000000e+00
    1.424846e+01    3.783923e+01    0.000000e+00
    1.337160e+01    3.735569e+01    0.000000e+00
    1.212780e+01    3.562660e+01    0.000000e+00
    1.286081e+01    3.689647e+01    0.000000e+00
    1.246434e+01    3.652752e+01    0.000000e+00
    1.252721e+01    3.663131e+01    0.000000e+00
    1.451269e+01    3.789331e+01    0.000000e+00
    1.432765e+01    3.946180e+01    0.000000e+00
    1.057457e+01    3.567007e+01    0.000000e+00
    1.405972e+01    3.986122e+01    0.000000e+00
    1.143286e+01    3.552435e+01    0.000000e+00
    1.449579e+01    3.868274e+01    0.000000e+00
    1.447426e+01    3.853502e+01    0.000000e+00
    1.129952e+01    3.553645e+01    0.000000e+00
    1.447071e+01    3.840907e+01    0.000000e+00
    1.446721e+01    3.829360e+01    0.000000e+00
    1.156955e+01    3.552800e+01    0.000000e+00
    1.169870e+01    3.553456e+01    0.000000e+00
    1.181821e+01    3.554407e+01    0.000000e+00
    1.445151e+01    3.882645e+01    0.000000e+00
    1.191448e+01    3.554012e+01    0.000000e+00
    1.446062e+01    3.818709e+01    0.000000e+00
    1.117305e+01    3.556466e+01    0.000000e+00
    1.104901e+01    3.559229e+01    0.000000e+00
    1.442078e+01    3.895629e+01    0.000000e+00
    1.091719e+01    3.562061e+01    0.000000e+00
    1.440131e+01    3.911311e+01    0.000000e+00
    1.291027e+01    3.708434e+01    0.000000e+00
    1.308180e+01    3.724405e+01    0.000000e+00
    1.346899e+01    3.753799e+01    0.000000e+00
    1.224505e+01    3.629728e+01    0.000000e+00
    1.267132e+01    3.682723e+01    0.000000e+00
    1.259673e+01    3.673146e+01    0.000000e+00
    1.220210e+01    3.618454e+01    0.000000e+00
    1.316911e+01    3.732291e+01    0.000000e+00
    1.381620e+01    3.780243e+01    0.000000e+00
    1.392971e+01    3.784019e+01    0.000000e+00
    1.370301e+01    3.776185e+01    0.000000e+00
    1.404557e+01    3.787620e+01    0.000000e+00
    1.216089e+01    3.607092e+01    0.000000e+00
    1.211885e+01    3.595434e+01    0.000000e+00
    1.229249e+01    3.640977e+01    0.000000e+00
    1.275153e+01    3.691670e+01    0.000000e+00
    1.358835e+01    3.771493e+01    0.000000e+00
    1.207799e+01    3.583360e+01    0.000000e+00
    1.441288e+01    3.797783e+01    0.000000e+00
    1.336422e+01    3.747205e+01    0.000000e+00
    1.428857e+01    3.794481e+01    0.000000e+00
    1.416598e+01    3.791146e+01    0.000000e+00
    1.203921e+01    3.570854e+01    0.000000e+00
    1.200960e+01    3.558046e+01    0.000000e+00
    1.326384e+01    3.739970e+01    0.000000e+00
    1.234606e+01    3.652184e+01    0.000000e+00
    1.240742e+01    3.663242e+01    0.000000e+00
    1.446822e+01    3.922684e+01    0.000000e+00
    1.434524e+01    3.927882e+01    0.000000e+00
    1.076213e+01    3.564708e+01    0.000000e+00
    1.413333e+01    3.957586e+01    0.000000e+00
    1.047262e+01    3.587318e+01    0.000000e+00
    1.413086e+01    4.019050e+01    0.000000e+00
    1.137185e+01    3.561335e+01    0.000000e+00
    1.149077e+01    3.562449e+01    0.000000e+00
    1.437567e+01    3.862178e+01    0.000000e+00
    1.438175e+01    3.874416e+01    0.000000e+00
    1.437854e+01    3.848229e+01    0.000000e+00
    1.437631e+01    3.835790e+01    0.000000e+00
    1.163074e+01    3.563089e+01    0.000000e+00
    1.176162e+01    3.563992e+01    0.000000e+00
    1.436794e+01    3.824067e+01    0.000000e+00
    1.437183e+01    3.814462e+01    0.000000e+00
    1.126239e+01    3.565085e+01    0.000000e+00
    1.433077e+01    3.885701e+01    0.000000e+00
    1.113497e+01    3.568457e+01    0.000000e+00
    1.100830e+01    3.572646e+01    0.000000e+00
    1.428089e+01    3.900172e+01    0.000000e+00
    1.213223e+01    3.627567e+01    0.000000e+00
    1.384218e+01    3.791405e+01    0.000000e+00
    1.281304e+01    3.709204e+01    0.000000e+00
    1.372570e+01    3.787757e+01    0.000000e+00
    1.305263e+01    3.735251e+01    0.000000e+00
    1.347335e+01    3.765908e+01    0.000000e+00
    1.208961e+01    3.615953e+01    0.000000e+00
    1.217549e+01    3.639236e+01    0.000000e+00
    1.395927e+01    3.794955e+01    0.000000e+00
    1.247705e+01    3.673987e+01    0.000000e+00
    1.263818e+01    3.693960e+01    0.000000e+00
    1.204136e+01    3.604078e+01    0.000000e+00
    1.272932e+01    3.702614e+01    0.000000e+00
    1.314860e+01    3.743954e+01    0.000000e+00
    1.255448e+01    3.684273e+01    0.000000e+00
    1.360633e+01    3.783553e+01    0.000000e+00
    1.408010e+01    3.798755e+01    0.000000e+00
    1.198716e+01    3.591465e+01    0.000000e+00
    1.432999e+01    3.805534e+01    0.000000e+00
    1.420618e+01    3.802773e+01    0.000000e+00
    1.189777e+01    3.566203e+01    0.000000e+00
    1.325167e+01    3.752035e+01    0.000000e+00
    1.222516e+01    3.651011e+01    0.000000e+00
    1.336045e+01    3.759371e+01    0.000000e+00
    1.228373e+01    3.662786e+01    0.000000e+00
    1.298131e+01    3.726604e+01    0.000000e+00
    1.086021e+01    3.577273e+01    0.000000e+00
    1.416940e+01    3.935583e+01    0.000000e+00
    1.068208e+01    3.581275e+01    0.000000e+00
    1.422126e+01    3.916591e+01    0.000000e+00
    1.017007e+01    3.596125e+01    0.000000e+00
    1.393684e+01    3.964334e+01    0.000000e+00
    1.375816e+01    4.013468e+01    0.000000e+00
    1.138502e+01    3.573016e+01    0.000000e+00
    1.427640e+01    3.854949e+01    0.000000e+00
    1.429835e+01    3.842733e+01    0.000000e+00
    1.426102e+01    3.871706e+01    0.000000e+00
    1.155299e+01    3.573376e+01    0.000000e+00
    1.427086e+01    3.831749e+01    0.000000e+00
    1.170173e+01    3.573877e+01    0.000000e+00
    1.122659e+01    3.577684e+01    0.000000e+00
    1.418986e+01    3.887653e+01    0.000000e+00
    1.110205e+01    3.580049e+01    0.000000e+00
    1.375395e+01    3.799279e+01    0.000000e+00
    1.290615e+01    3.736290e+01    0.000000e+00
    1.387144e+01    3.802678e+01    0.000000e+00
    1.201835e+01    3.624962e+01    0.000000e+00
    1.272898e+01    3.714721e+01    0.000000e+00
    1.196437e+01    3.613481e+01    0.000000e+00
    1.205768e+01    3.636827e+01    0.000000e+00
    1.302256e+01    3.747456e+01    0.000000e+00
    1.348419e+01    3.778394e+01    0.000000e+00
    1.363148e+01    3.795705e+01    0.000000e+00
    1.261516e+01    3.706298e+01    0.000000e+00
    1.190182e+01    3.601123e+01    0.000000e+00
    1.235237e+01    3.674365e+01    0.000000e+00
    1.398836e+01    3.806949e+01    0.000000e+00
    1.251734e+01    3.696209e+01    0.000000e+00
    1.411287e+01    3.812162e+01    0.000000e+00
    1.425666e+01    3.816970e+01    0.000000e+00
    1.313103e+01    3.756564e+01    0.000000e+00
    1.210228e+01    3.649115e+01    0.000000e+00
    1.243069e+01    3.685536e+01    0.000000e+00
    1.324383e+01    3.764793e+01    0.000000e+00
    1.336237e+01    3.772084e+01    0.000000e+00
    1.215670e+01    3.661618e+01    0.000000e+00
    1.411471e+01    3.902979e+01    0.000000e+00
    1.079144e+01    3.593977e+01    0.000000e+00
    1.400985e+01    3.921248e+01    0.000000e+00
    1.375745e+01    3.953944e+01    0.000000e+00
    1.043486e+01    3.613344e+01    0.000000e+00
    1.375854e+01    3.979187e+01    0.000000e+00
    1.352515e+01    4.048917e+01    0.000000e+00
    1.413414e+01    3.829082e+01    0.000000e+00
    1.418792e+01    3.844245e+01    0.000000e+00
    1.163277e+01    3.584345e+01    0.000000e+00
    1.411260e+01    3.874834e+01    0.000000e+00
    1.115890e+01    3.592521e+01    0.000000e+00
    1.186923e+01    3.576047e+01    0.000000e+00
    1.275066e+01    3.728899e+01    0.000000e+00
    1.378583e+01    3.810639e+01    0.000000e+00
    1.191173e+01    3.622718e+01    0.000000e+00
    1.366533e+01    3.807794e+01    0.000000e+00
    1.194034e+01    3.633727e+01    0.000000e+00
    1.389400e+01    3.814819e+01    0.000000e+00
    1.259617e+01    3.721373e+01    0.000000e+00
    1.180319e+01    3.613320e+01    0.000000e+00
    1.350307e+01    3.791150e+01    0.000000e+00
    1.222277e+01    3.674092e+01    0.000000e+00
    1.197826e+01    3.646417e+01    0.000000e+00
    1.248338e+01    3.709154e+01    0.000000e+00
    1.400411e+01    3.821523e+01    0.000000e+00
    1.300341e+01    3.760990e+01    0.000000e+00
    1.238675e+01    3.697909e+01    0.000000e+00
    1.311884e+01    3.770015e+01    0.000000e+00
    1.202695e+01    3.659642e+01    0.000000e+00
    1.230018e+01    3.686237e+01    0.000000e+00
    1.337182e+01    3.785303e+01    0.000000e+00
    1.324261e+01    3.778175e+01    0.000000e+00
    1.147896e+01    3.584912e+01    0.000000e+00
    1.416015e+01    3.860145e+01    0.000000e+00
    1.289270e+01    3.751673e+01    0.000000e+00
    1.061641e+01    3.597540e+01    0.000000e+00
    1.098045e+01    3.589441e+01    0.000000e+00
    1.132575e+01    3.587810e+01    0.000000e+00
    1.394335e+01    3.902947e+01    0.000000e+00
    1.380026e+01    3.931519e+01    0.000000e+00
    1.012347e+01    3.624197e+01    0.000000e+00
    1.352608e+01    3.990954e+01    0.000000e+00
    1.337166e+01    4.014148e+01    0.000000e+00
    1.369101e+01    4.092724e+01    0.000000e+00
    1.409873e+01    3.840657e+01    0.000000e+00
    1.251945e+01    3.731873e+01    0.000000e+00
    1.397446e+01    3.875087e+01    0.000000e+00
    1.168785e+01    3.594905e+01    0.000000e+00
    1.181398e+01    3.585959e+01    0.000000e+00
    1.370828e+01    3.819514e+01    0.000000e+00
    1.404720e+01    3.863935e+01    0.000000e+00
    1.381124e+01    3.820655e+01    0.000000e+00
    1.156004e+01    3.594774e+01    0.000000e+00
    1.406836e+01    3.851022e+01    0.000000e+00
    1.276867e+01    3.743948e+01    0.000000e+00
    1.185284e+01    3.642797e+01    0.000000e+00
    1.388814e+01    3.827990e+01    0.000000e+00
    1.353203e+01    3.804051e+01    0.000000e+00
    1.244231e+01    3.722157e+01    0.000000e+00
    1.208881e+01    3.673031e+01    0.000000e+00
    1.234407e+01    3.710930e+01    0.000000e+00
    1.189402e+01    3.656825e+01    0.000000e+00
    1.298585e+01    3.774939e+01    0.000000e+00
    1.170566e+01    3.604426e+01    0.000000e+00
    1.224936e+01    3.698947e+01    0.000000e+00
    1.287335e+01    3.765098e+01    0.000000e+00
    1.339145e+01    3.798878e+01    0.000000e+00
    1.311312e+01    3.784163e+01    0.000000e+00
    1.128336e+01    3.601876e+01    0.000000e+00
    1.216392e+01    3.686220e+01    0.000000e+00
    1.325019e+01    3.792167e+01    0.000000e+00
    1.142431e+01    3.597585e+01    0.000000e+00
    1.182088e+01    3.629305e+01    0.000000e+00
    1.263332e+01    3.737257e+01    0.000000e+00
    1.383882e+01    3.914733e+01    0.000000e+00
    1.104062e+01    3.603022e+01    0.000000e+00
    1.403652e+01    3.888642e+01    0.000000e+00
    1.089338e+01    3.606890e+01    0.000000e+00
    1.324619e+01    3.980894e+01    0.000000e+00
    1.355062e+01    3.938118e+01    0.000000e+00
    1.033323e+01    3.643179e+01    0.000000e+00
    1.060772e+01    3.633622e+01    0.000000e+00
    1.352411e+01    3.965644e+01    0.000000e+00
    1.425212e+01    4.098853e+01    0.000000e+00
    1.320364e+01    4.076996e+01    0.000000e+00
    1.399371e+01    3.838704e+01    0.000000e+00
    1.240753e+01    3.735182e+01    0.000000e+00
    1.390915e+01    3.858208e+01    0.000000e+00
    1.162796e+01    3.613360e+01    0.000000e+00
    1.278333e+01    3.756355e+01    0.000000e+00
    1.100918e+01    3.617444e+01    0.000000e+00
    1.357344e+01    3.817114e+01    0.000000e+00
    1.388314e+01    3.887960e+01    0.000000e+00
    1.151606e+01    3.606170e+01    0.000000e+00
    1.194978e+01    3.671307e+01    0.000000e+00
    1.175812e+01    3.653152e+01    0.000000e+00
    1.230273e+01    3.724428e+01    0.000000e+00
    1.284460e+01    3.779447e+01    0.000000e+00
    1.220028e+01    3.712223e+01    0.000000e+00
    1.138136e+01    3.610923e+01    0.000000e+00
    1.342418e+01    3.812886e+01    0.000000e+00
    1.297410e+01    3.790065e+01    0.000000e+00
    1.210687e+01    3.699137e+01    0.000000e+00
    1.114997e+01    3.608937e+01    0.000000e+00
    1.202293e+01    3.685549e+01    0.000000e+00
    1.169151e+01    3.625634e+01    0.000000e+00
    1.376641e+01    3.830511e+01    0.000000e+00
    1.172426e+01    3.639008e+01    0.000000e+00
    1.366370e+01    3.916727e+01    0.000000e+00
    1.311856e+01    3.799229e+01    0.000000e+00
    1.327056e+01    3.806801e+01    0.000000e+00
    1.251801e+01    3.744028e+01    0.000000e+00
    1.083086e+01    3.625539e+01    0.000000e+00
    1.055386e+01    3.660391e+01    0.000000e+00
    9.996349e+00    3.653611e+01    0.000000e+00
    1.302645e+01    4.009801e+01    0.000000e+00
    1.331094e+01    3.950849e+01    0.000000e+00
    1.272856e+01    4.103522e+01    0.000000e+00
    1.329747e+01    4.128635e+01    0.000000e+00
    1.376809e+01    3.852526e+01    0.000000e+00
    1.383922e+01    3.841756e+01    0.000000e+00
    1.125733e+01    3.614644e+01    0.000000e+00
    1.384219e+01    3.874503e+01    0.000000e+00
    1.362915e+01    3.830243e+01    0.000000e+00
    1.226632e+01    3.738743e+01    0.000000e+00
    1.273648e+01    3.767766e+01    0.000000e+00
    1.148312e+01    3.619152e+01    0.000000e+00
    1.180253e+01    3.668985e+01    0.000000e+00
    1.264725e+01    3.753570e+01    0.000000e+00
    1.162521e+01    3.648997e+01    0.000000e+00
    1.347070e+01    3.827410e+01    0.000000e+00
    1.215087e+01    3.726066e+01    0.000000e+00
    1.238995e+01    3.749588e+01    0.000000e+00
    1.282205e+01    3.796338e+01    0.000000e+00
    1.205290e+01    3.712469e+01    0.000000e+00
    1.187310e+01    3.684893e+01    0.000000e+00
    1.196405e+01    3.699094e+01    0.000000e+00
    1.330383e+01    3.822013e+01    0.000000e+00
    1.297676e+01    3.806711e+01    0.000000e+00
    1.114781e+01    3.624495e+01    0.000000e+00
    1.313879e+01    3.815140e+01    0.000000e+00
    1.160064e+01    3.635849e+01    0.000000e+00
    1.098582e+01    3.635901e+01    0.000000e+00
    1.345624e+01    3.917136e+01    0.000000e+00
    1.376933e+01    3.900846e+01    0.000000e+00
    1.078843e+01    3.647527e+01    0.000000e+00
    1.027350e+01    3.674208e+01    0.000000e+00
    1.318383e+01    4.039194e+01    0.000000e+00
    1.291868e+01    3.976829e+01    0.000000e+00
    1.309249e+01    3.957569e+01    0.000000e+00
    1.236493e+01    4.065326e+01    0.000000e+00
    1.132359e+01    3.627655e+01    0.000000e+00
    1.370017e+01    3.842061e+01    0.000000e+00
    1.371955e+01    3.884238e+01    0.000000e+00
    1.269005e+01    3.783589e+01    0.000000e+00
    1.165114e+01    3.664986e+01    0.000000e+00
    1.209924e+01    3.741615e+01    0.000000e+00
    1.353276e+01    3.843386e+01    0.000000e+00
    1.250738e+01    3.756815e+01    0.000000e+00
    1.223664e+01    3.755087e+01    0.000000e+00
    1.355681e+01    3.897932e+01    0.000000e+00
    1.198323e+01    3.726358e+01    0.000000e+00
    1.169273e+01    3.684642e+01    0.000000e+00
    1.151320e+01    3.644964e+01    0.000000e+00
    1.334855e+01    3.837650e+01    0.000000e+00
    1.191968e+01    3.712032e+01    0.000000e+00
    1.282152e+01    3.815465e+01    0.000000e+00
    1.181359e+01    3.701093e+01    0.000000e+00
    1.157569e+01    3.625368e+01    0.000000e+00
    1.258306e+01    3.769198e+01    0.000000e+00
    1.370957e+01    3.865867e+01    0.000000e+00
    1.299598e+01    3.824425e+01    0.000000e+00
    1.312414e+01    3.932547e+01    0.000000e+00
    1.317247e+01    3.831804e+01    0.000000e+00
    1.334355e+01    3.931192e+01    0.000000e+00
    1.116096e+01    3.643140e+01    0.000000e+00
    1.077584e+01    3.671915e+01    0.000000e+00
    1.097824e+01    3.657328e+01    0.000000e+00
    1.054510e+01    3.691464e+01    0.000000e+00
    1.268155e+01    4.000797e+01    0.000000e+00
    1.263104e+01    3.965223e+01    0.000000e+00
    9.967899e+00    3.690927e+01    0.000000e+00
    1.225837e+01    4.100951e+01    0.000000e+00
    1.239695e+01    3.768236e+01    0.000000e+00
    1.364769e+01    3.852870e+01    0.000000e+00
    1.302696e+01    3.842702e+01    0.000000e+00
    1.150454e+01    3.659185e+01    0.000000e+00
    1.263572e+01    3.803924e+01    0.000000e+00
    1.353776e+01    3.877566e+01    0.000000e+00
    1.205469e+01    3.759563e+01    0.000000e+00
    1.188885e+01    3.744577e+01    0.000000e+00
    1.152291e+01    3.677114e+01    0.000000e+00
    1.338812e+01    3.852087e+01    0.000000e+00
    1.147585e+01    3.633604e+01    0.000000e+00
    1.135803e+01    3.649189e+01    0.000000e+00
    1.334266e+01    3.902243e+01    0.000000e+00
    1.251680e+01    3.785723e+01    0.000000e+00
    1.321850e+01    3.849281e+01    0.000000e+00
    1.265980e+01    3.826576e+01    0.000000e+00
    1.164646e+01    3.705111e+01    0.000000e+00
    1.098729e+01    3.680398e+01    0.000000e+00
    1.117245e+01    3.664706e+01    0.000000e+00
    1.080334e+01    3.693402e+01    0.000000e+00
    1.287099e+01    3.919729e+01    0.000000e+00
    1.262160e+01    3.934216e+01    0.000000e+00
    1.024566e+01    3.705307e+01    0.000000e+00
    1.231866e+01    4.140733e+01    0.000000e+00
    1.197278e+01    4.077099e+01    0.000000e+00
    1.235979e+01    3.984258e+01    0.000000e+00
    1.352112e+01    3.860250e+01    0.000000e+00
    1.233498e+01    3.788633e+01    0.000000e+00
    1.154389e+01    3.692954e+01    0.000000e+00
    1.219722e+01    3.773654e+01    0.000000e+00
    1.286788e+01    3.854001e+01    0.000000e+00
    1.135715e+01    3.671280e+01    0.000000e+00
    1.268165e+01    3.846985e+01    0.000000e+00
    1.330793e+01    3.869902e+01    0.000000e+00
    1.339913e+01    3.887339e+01    0.000000e+00
    1.245220e+01    3.801467e+01    0.000000e+00
    1.306324e+01    3.861837e+01    0.000000e+00
    1.167367e+01    3.740904e+01    0.000000e+00
    1.187723e+01    3.765417e+01    0.000000e+00
    1.157687e+01    3.723575e+01    0.000000e+00
    1.100123e+01    3.707484e+01    0.000000e+00
    1.311681e+01    3.905349e+01    0.000000e+00
    1.119594e+01    3.687109e+01    0.000000e+00
    1.248129e+01    3.818486e+01    0.000000e+00
    1.235707e+01    3.949623e+01    0.000000e+00
    1.263996e+01    3.906441e+01    0.000000e+00
    1.045692e+01    3.718504e+01    0.000000e+00
    1.000276e+01    3.720375e+01    0.000000e+00
    1.238282e+01    4.023104e+01    0.000000e+00
    1.189214e+01    4.117456e+01    0.000000e+00
    1.233943e+01    4.193903e+01    0.000000e+00
    1.228629e+01    3.810688e+01    0.000000e+00
    1.272043e+01    3.863805e+01    0.000000e+00
    1.146829e+01    3.707806e+01    0.000000e+00
    1.324960e+01    3.889394e+01    0.000000e+00
    1.213924e+01    3.793123e+01    0.000000e+00
    1.201025e+01    3.778017e+01    0.000000e+00
    1.173951e+01    3.756597e+01    0.000000e+00
    1.249811e+01    3.838769e+01    0.000000e+00
    1.150265e+01    3.739626e+01    0.000000e+00
    1.287925e+01    3.873013e+01    0.000000e+00
    1.139249e+01    3.690776e+01    0.000000e+00
    1.055671e+01    3.744866e+01    0.000000e+00
    1.287649e+01    3.894757e+01    0.000000e+00
    1.327668e+01    3.917693e+01    0.000000e+00
    1.238256e+01    3.918450e+01    0.000000e+00
    1.088695e+01    3.736748e+01    0.000000e+00
    9.892609e+00    3.752986e+01    0.000000e+00
    1.126716e+01    3.708385e+01    0.000000e+00
    1.023551e+01    3.734963e+01    0.000000e+00
    1.205796e+01    4.002253e+01    0.000000e+00
    1.206810e+01    3.965563e+01    0.000000e+00
    1.142896e+01    4.134922e+01    0.000000e+00
    9.597425e+00    3.673864e+01    0.000000e+00
    1.289714e+01    4.222773e+01    0.000000e+00
    1.171040e+01    3.772793e+01    0.000000e+00
    1.193401e+01    3.795632e+01    0.000000e+00
    1.235023e+01    3.829422e+01    0.000000e+00
    1.138453e+01    3.726361e+01    0.000000e+00
    1.308222e+01    3.882375e+01    0.000000e+00
    1.184730e+01    3.781247e+01    0.000000e+00
    1.267506e+01    3.881902e+01    0.000000e+00
    1.115999e+01    3.730620e+01    0.000000e+00
    1.205294e+01    3.813035e+01    0.000000e+00
    1.154466e+01    3.759047e+01    0.000000e+00
    1.243344e+01    3.890248e+01    0.000000e+00
    1.209634e+01    3.931049e+01    0.000000e+00
    1.026460e+01    3.767737e+01    0.000000e+00
    1.250845e+01    3.863108e+01    0.000000e+00
    9.459946e+00    3.752536e+01    0.000000e+00
    1.175635e+01    3.982013e+01    0.000000e+00
    1.080665e+01    3.765290e+01    0.000000e+00
    9.232731e+00    3.711680e+01    0.000000e+00
    1.131683e+01    4.186765e+01    0.000000e+00
    1.170033e+01    3.794398e+01    0.000000e+00
    1.182638e+01    3.814543e+01    0.000000e+00
    1.230815e+01    3.847921e+01    0.000000e+00
    1.108664e+01    3.756650e+01    0.000000e+00
    1.216965e+01    3.831213e+01    0.000000e+00
    1.133161e+01    3.747930e+01    0.000000e+00
    1.224123e+01    3.871996e+01    0.000000e+00
    1.215814e+01    3.899688e+01    0.000000e+00
    1.182870e+01    3.908600e+01    0.000000e+00
    1.174179e+01    4.019714e+01    0.000000e+00
    1.146084e+01    3.960703e+01    0.000000e+00
    9.651165e+00    3.783279e+01    0.000000e+00
    1.054944e+01    3.775300e+01    0.000000e+00
    9.018305e+00    3.655071e+01    0.000000e+00
    9.982664e+00    3.794170e+01    0.000000e+00
    1.181159e+01    4.219452e+01    0.000000e+00
    9.010294e+00    3.758190e+01    0.000000e+00
    1.206804e+01    3.853181e+01    0.000000e+00
    1.131158e+01    3.775050e+01    0.000000e+00
    1.074017e+01    3.794397e+01    0.000000e+00
    1.196505e+01    3.878809e+01    0.000000e+00
    1.158546e+01    3.817890e+01    0.000000e+00
    1.038663e+01    3.804062e+01    0.000000e+00
    1.151608e+01    3.925614e+01    0.000000e+00
    1.102443e+01    3.783721e+01    0.000000e+00
    1.141795e+01    3.999856e+01    0.000000e+00
    1.204401e+01    4.040053e+01    0.000000e+00
    1.142222e+01    4.040965e+01    0.000000e+00
    9.304326e+00    3.792110e+01    0.000000e+00
    8.539454e+00    3.778959e+01    0.000000e+00
    1.008144e+01    3.832139e+01    0.000000e+00
    1.127045e+01    4.243507e+01    0.000000e+00
    1.193789e+01    3.833566e+01    0.000000e+00
    1.151578e+01    3.842776e+01    0.000000e+00
    1.143982e+01    3.798380e+01    0.000000e+00
    1.177024e+01    3.856821e+01    0.000000e+00
    1.121084e+01    3.798590e+01    0.000000e+00
    1.155949e+01    3.898915e+01    0.000000e+00
    1.117869e+01    3.937735e+01    0.000000e+00
    1.110321e+01    3.975465e+01    0.000000e+00
    1.152530e+01    4.085411e+01    0.000000e+00
    1.099005e+01    3.811462e+01    0.000000e+00
    1.040781e+01    3.838152e+01    0.000000e+00
    9.848621e+00    3.864572e+01    0.000000e+00
    1.100413e+01    4.019529e+01    0.000000e+00
    8.034416e+00    3.747916e+01    0.000000e+00
    1.128386e+01    3.823365e+01    0.000000e+00
    1.171522e+01    3.883329e+01    0.000000e+00
    1.154136e+01    3.779934e+01    0.000000e+00
    1.128106e+01    3.904254e+01    0.000000e+00
    1.064634e+01    3.862514e+01    0.000000e+00
    1.098521e+01    3.842045e+01    0.000000e+00
    9.439243e+00    3.867097e+01    0.000000e+00
    1.024110e+01    3.865407e+01    0.000000e+00
    1.108105e+01    4.067339e+01    0.000000e+00
    1.077289e+01    3.986213e+01    0.000000e+00
    1.093951e+01    3.912794e+01    0.000000e+00
    1.144887e+01    3.873612e+01    0.000000e+00
    1.125507e+01    3.851800e+01    0.000000e+00
    1.104160e+01    3.877120e+01    0.000000e+00
    1.004179e+01    3.899031e+01    0.000000e+00
    1.043281e+01    3.895105e+01    0.000000e+00
    9.674553e+00    3.895958e+01    0.000000e+00
    9.159152e+00    3.833320e+01    0.000000e+00
    1.112881e+01    4.106663e+01    0.000000e+00
    1.073474e+01    4.097825e+01    0.000000e+00
    1.043688e+01    3.975314e+01    0.000000e+00
    1.054938e+01    4.012820e+01    0.000000e+00
    1.073868e+01    3.892817e+01    0.000000e+00
    1.024870e+01    4.040388e+01    0.000000e+00
    1.030648e+01    3.934268e+01    0.000000e+00
    9.281442e+00    3.910319e+01    0.000000e+00
    9.055780e+00    3.871089e+01    0.000000e+00
    1.029524e+01    4.083184e+01    0.000000e+00
    9.886757e+00    4.064001e+01    0.000000e+00
    1.063698e+01    3.916638e+01    0.000000e+00
    1.007532e+01    3.968179e+01    0.000000e+00
    9.294310e+00    3.959818e+01    0.000000e+00
    1.036700e+01    4.128510e+01    0.000000e+00
    1.015620e+01    4.002491e+01    0.000000e+00
    9.859564e+00    4.115508e+01    0.000000e+00
    9.708108e+00    3.991098e+01    0.000000e+00
    9.908715e+00    4.026948e+01    0.000000e+00
    1.005731e+01    4.157166e+01    0.000000e+00
    9.199718e+00    4.005470e+01    0.000000e+00
    1.003781e+01    4.205731e+01    0.000000e+00
    8.848585e+00    3.974432e+01    0.000000e+00
    1.040463e+01    4.170081e+01    0.000000e+00
    1.070635e+01    4.211639e+01    0.000000e+00
    9.428641e+00    4.217790e+01    0.000000e+00
    8.372169e+00    3.983435e+01    0.000000e+00
    8.063431e+00    3.942836e+01    0.000000e+00
    9.125453e+00    4.174012e+01    0.000000e+00
    8.311455e+00    3.897383e+01    0.000000e+00
    7.847580e+00    3.992514e+01    0.000000e+00
    8.848333e+00    4.223236e+01    0.000000e+00
    9.322958e+00    4.128479e+01    0.000000e+00
    8.894239e+00    4.137777e+01    0.000000e+00
    8.794164e+00    3.900104e+01    0.000000e+00
    7.800384e+00    3.898010e+01    0.000000e+00
    8.964471e+00    4.096878e+01    0.000000e+00
    8.447128e+00    4.118346e+01    0.000000e+00
    7.253544e+00    3.896098e+01    0.000000e+00
    8.079958e+00    4.167229e+01    0.000000e+00
    8.221861e+00    4.031553e+01    0.000000e+00
    7.851700e+00    4.114509e+01    0.000000e+00
    8.294926e+00    4.220143e+01    0.000000e+00
    8.954638e+00    3.936925e+01    0.000000e+00
    1.234569e+01    4.252061e+01    0.000000e+00
    1.343836e+01    4.187686e+01    0.000000e+00
    8.044556e+00    3.809957e+01    0.000000e+00
    8.040429e+00    3.689797e+01    0.000000e+00
    6.954373e+00    3.948493e+01    0.000000e+00
    7.271395e+00    3.999185e+01    0.000000e+00
    9.443227e+00    4.082066e+01    0.000000e+00
    8.924228e+00    3.801281e+01    0.000000e+00
    1.030100e+01    4.253677e+01    0.000000e+00
    8.153265e+00    4.076580e+01    0.000000e+00
    6.994818e+00    3.841333e+01    0.000000e+00
    1.446840e+01    4.150066e+01    0.000000e+00
    1.127274e+01    4.294390e+01    0.000000e+00
    9.052058e+00    3.598167e+01    0.000000e+00
    8.071845e+00    3.859350e+01    0.000000e+00
    1.227333e+01    6.439378e+01    0.000000e+00
    9.075894e+00    6.438088e+01    0.000000e+00
    1.330472e+00    6.445112e+01    0.000000e+00
    5.714920e+00    6.440193e+01    0.000000e+00
    2.685172e+00    6.447662e+01    0.000000e+00
    7.255716e-01    6.209715e+01    0.000000e+00
    7.691629e-01    4.878184e+01    0.000000e+00
    7.867477e-01    4.570550e+01    0.000000e+00
    8.035550e-01    4.333998e+01    0.000000e+00
    8.150795e-01    4.015562e+01    0.000000e+00
    7.176341e-01    3.791525e+01    0.000000e+00
    8.419502e-01    5.111761e+01    0.000000e+00
    7.713898e-01    5.431925e+01    0.000000e+00
    8.063501e-01    5.667926e+01    0.000000e+00
    7.791566e-01    5.984151e+01    0.000000e+00
    1.418230e+01    4.793169e+01    0.000000e+00
    1.420741e+01    4.211160e+01    0.000000e+00
    1.415303e+01    4.550774e+01    0.000000e+00
    1.421670e+01    5.347380e+01    0.000000e+00
    1.423970e+01    6.218501e+01    0.000000e+00
    1.421822e+01    5.905208e+01    0.000000e+00
    1.420697e+01    5.681832e+01    0.000000e+00
    1.414041e+01    5.111386e+01    0.000000e+00
    6.923495e+00    3.578736e+01    0.000000e+00
    3.869357e+00    3.561274e+01    0.000000e+00
    8.435194e+00    3.661721e+01    0.000000e+00
    1.377486e+00    3.549146e+01    0.000000e+00
    7.988564e+00    3.637741e+01    0.000000e+00
    8.719918e+00    4.018465e+01    0.000000e+00
    8.639282e+00    3.555962e+01    0.000000e+00
    1.233647e+01    4.314304e+01    0.000000e+00
    7.766142e+00    4.216072e+01    0.000000e+00
    1.090114e+01    4.338280e+01    0.000000e+00
    1.167264e+01    4.342298e+01    0.000000e+00
    1.352461e+01    4.251429e+01    0.000000e+00
    1.024046e+01    4.312078e+01    0.000000e+00
    6.643484e+00    3.897543e+01    0.000000e+00
    6.672853e+00    4.002369e+01    0.000000e+00
    7.415258e+00    3.782207e+01    0.000000e+00
    9.077754e+00    4.050797e+01    0.000000e+00
    6.985885e+00    4.054602e+01    0.000000e+00
    7.272290e+00    4.109527e+01    0.000000e+00
    9.158427e+00    4.274891e+01    0.000000e+00
    7.980457e+00    4.261083e+01    0.000000e+00
    9.814628e+00    6.443872e+01    0.000000e+00
    1.305062e+01    6.445703e+01    0.000000e+00
    7.473435e-01    4.646342e+01    0.000000e+00
    5.671665e-01    6.144265e+01    0.000000e+00
    7.617578e-01    5.904899e+01    0.000000e+00
    6.060669e-01    5.744581e+01    0.000000e+00
    5.956025e-01    5.593318e+01    0.000000e+00
    7.317075e-01    5.354687e+01    0.000000e+00
    7.826540e-01    5.197759e+01    0.000000e+00
    6.015298e-01    5.039267e+01    0.000000e+00
    5.959709e-01    4.405039e+01    0.000000e+00
    7.708887e-01    4.093381e+01    0.000000e+00
    5.677807e-01    3.852930e+01    0.000000e+00
    7.299417e-01    4.800785e+01    0.000000e+00
    4.428494e-01    6.317598e+01    0.000000e+00
    1.421066e+01    4.464987e+01    0.000000e+00
    1.420476e+01    5.024557e+01    0.000000e+00
    1.438609e+01    5.184389e+01    0.000000e+00
    1.452105e+01    5.569817e+01    0.000000e+00
    1.440623e+01    5.745609e+01    0.000000e+00
    1.425249e+01    5.984269e+01    0.000000e+00
    1.432554e+01    6.325940e+01    0.000000e+00
    1.452710e+01    6.126194e+01    0.000000e+00
    1.425206e+01    5.426796e+01    0.000000e+00
    1.425396e+01    4.868352e+01    0.000000e+00
    1.434306e+01    4.624062e+01    0.000000e+00
    6.117634e+00    3.559488e+01    0.000000e+00
    5.844133e+00    6.324626e+01    0.000000e+00
    1.229303e+01    6.313824e+01    0.000000e+00
    1.553058e+00    6.319338e+01    0.000000e+00
    2.689933e+00    6.341586e+01    0.000000e+00
    1.758571e+00    3.680758e+01    0.000000e+00
    3.739912e+00    3.690196e+01    0.000000e+00
    7.010250e+00    3.665388e+01    0.000000e+00
    9.077549e+00    6.319616e+01    0.000000e+00
    1.456326e+01    4.317638e+01    0.000000e+00
    7.370091e-01    4.249606e+01    0.000000e+00
    4.665382e-01    3.682052e+01    0.000000e+00
    1.626211e+00    6.232998e+01    0.000000e+00
    1.329405e+01    4.780808e+01    0.000000e+00
    1.673519e+00    4.906572e+01    0.000000e+00
    1.325180e+01    4.553959e+01    0.000000e+00
    1.675816e+00    3.782237e+01    0.000000e+00
    1.755703e+00    4.345953e+01    0.000000e+00
    1.621505e+00    4.553701e+01    0.000000e+00
    1.779601e+00    5.104118e+01    0.000000e+00
    1.317045e+01    5.120276e+01    0.000000e+00
    1.329236e+01    5.319425e+01    0.000000e+00
    1.678242e+00    5.461970e+01    0.000000e+00
    1.798173e+00    5.663087e+01    0.000000e+00
    1.325392e+01    5.676898e+01    0.000000e+00
    1.330082e+01    5.875961e+01    0.000000e+00
    1.336747e+01    6.222321e+01    0.000000e+00
    1.694570e+00    3.994151e+01    0.000000e+00
    1.692671e+00    6.014539e+01    0.000000e+00
    1.151245e+01    6.444900e+01    0.000000e+00
    8.327083e+00    6.445836e+01    0.000000e+00
    5.106395e+00    6.447279e+01    0.000000e+00
    7.846415e+00    3.572750e+01    0.000000e+00
    4.477176e+00    3.556276e+01    0.000000e+00
    6.675529e+00    3.782877e+01    0.000000e+00
    9.545959e+00    4.330460e+01    0.000000e+00
    7.864584e+00    4.319601e+01    0.000000e+00
    6.670119e+00    4.109421e+01    0.000000e+00
    5.943532e+00    3.905372e+01    0.000000e+00
    8.882377e+00    4.332227e+01    0.000000e+00
    1.354548e+01    4.311089e+01    0.000000e+00
    6.951814e+00    4.163359e+01    0.000000e+00
    6.083797e+00    4.005081e+01    0.000000e+00
    1.041502e+01    4.362801e+01    0.000000e+00
    2.473994e+00    4.553522e+01    0.000000e+00
    1.237509e+01    4.546956e+01    0.000000e+00
    6.984209e+00    3.731665e+01    0.000000e+00
    7.223354e+00    4.216615e+01    0.000000e+00
    1.125854e+01    4.396205e+01    0.000000e+00
    1.031933e+01    6.333199e+01    0.000000e+00
    1.228564e+01    6.237020e+01    0.000000e+00
    5.893520e+00    6.218530e+01    0.000000e+00
    5.652868e+00    3.667620e+01    0.000000e+00
    1.633274e+00    6.090998e+01    0.000000e+00
    1.484595e+00    4.765832e+01    0.000000e+00
    1.790679e+00    4.423505e+01    0.000000e+00
    1.548119e+00    5.874314e+01    0.000000e+00
    1.657616e+00    5.535447e+01    0.000000e+00
    1.480807e+00    5.322127e+01    0.000000e+00
    1.651883e+00    4.980835e+01    0.000000e+00
    1.469040e+00    4.213418e+01    0.000000e+00
    1.626300e+00    3.861000e+01    0.000000e+00
    3.605612e+00    3.763418e+01    0.000000e+00
    1.622595e+00    4.131156e+01    0.000000e+00
    1.646848e+00    5.239216e+01    0.000000e+00
    1.840999e+00    5.803998e+01    0.000000e+00
    2.500664e+00    6.223822e+01    0.000000e+00
    5.031223e+00    3.670057e+01    0.000000e+00
    1.315390e+01    4.662945e+01    0.000000e+00
    1.331253e+01    5.244647e+01    0.000000e+00
    1.347937e+01    5.458804e+01    0.000000e+00
    1.333109e+01    5.802689e+01    0.000000e+00
    1.347938e+01    6.014873e+01    0.000000e+00
    1.364908e+01    6.336821e+01    0.000000e+00
    1.350780e+01    4.902844e+01    0.000000e+00
    1.332750e+01    4.983913e+01    0.000000e+00
    1.322880e+01    5.530775e+01    0.000000e+00
    1.323674e+01    6.085521e+01    0.000000e+00
    9.073493e+00    6.214147e+01    0.000000e+00
    1.237740e+01    4.781569e+01    0.000000e+00
    3.911764e+00    6.339180e+01    0.000000e+00
    4.613789e+00    6.335908e+01    0.000000e+00
    7.095420e+00    6.336147e+01    0.000000e+00
    7.808187e+00    6.334069e+01    0.000000e+00
    1.098527e+01    6.337979e+01    0.000000e+00
    2.695677e+00    4.903770e+01    0.000000e+00
    2.508869e+00    3.662732e+01    0.000000e+00
    2.709747e+00    3.790501e+01    0.000000e+00
    1.340424e+01    4.436345e+01    0.000000e+00
    1.582147e+00    4.681725e+01    0.000000e+00
    2.649683e+00    4.332202e+01    0.000000e+00
    1.223551e+01    5.120428e+01    0.000000e+00
    2.661556e+00    5.105172e+01    0.000000e+00
    1.221542e+01    5.321971e+01    0.000000e+00
    2.717436e+00    5.464948e+01    0.000000e+00
    2.775107e+00    5.660173e+01    0.000000e+00
    1.223003e+01    5.678483e+01    0.000000e+00
    1.224687e+01    5.874112e+01    0.000000e+00
    2.614344e+00    3.991986e+01    0.000000e+00
    2.782053e+00    6.015279e+01    0.000000e+00
    1.022082e+01    4.412915e+01    0.000000e+00
    6.654883e+00    4.217861e+01    0.000000e+00
    1.085020e+01    4.448420e+01    0.000000e+00
    1.151858e+01    4.451450e+01    0.000000e+00
    7.223535e+00    4.323801e+01    0.000000e+00
    9.151340e+00    4.375217e+01    0.000000e+00
    5.971132e+00    3.785642e+01    0.000000e+00
    5.859990e+00    3.961826e+01    0.000000e+00
    6.940758e+00    4.270824e+01    0.000000e+00
    3.473065e+00    3.997813e+01    0.000000e+00
    3.539093e+00    5.107277e+01    0.000000e+00
    1.155360e+01    4.783478e+01    0.000000e+00
    3.486297e+00    4.887217e+01    0.000000e+00
    3.523113e+00    4.327850e+01    0.000000e+00
    2.440986e+00    4.438520e+01    0.000000e+00
    1.229463e+01    4.370729e+01    0.000000e+00
    6.059096e+00    4.110574e+01    0.000000e+00
    1.256066e+01    4.429638e+01    0.000000e+00
    2.394638e+00    4.671828e+01    0.000000e+00
    1.252488e+01    4.665923e+01    0.000000e+00
    8.372413e+00    4.340102e+01    0.000000e+00
    1.000796e+01    4.362292e+01    0.000000e+00
    7.610068e+00    3.666117e+01    0.000000e+00
    3.175576e+00    4.553897e+01    0.000000e+00
    1.227355e+01    4.979140e+01    0.000000e+00
    1.218087e+01    5.247863e+01    0.000000e+00
    1.226097e+01    5.461791e+01    0.000000e+00
    1.224215e+01    5.805267e+01    0.000000e+00
    1.224308e+01    6.015401e+01    0.000000e+00
    1.214315e+01    4.907486e+01    0.000000e+00
    1.224434e+01    5.526950e+01    0.000000e+00
    1.224674e+01    6.081252e+01    0.000000e+00
    5.891549e+00    6.114302e+01    0.000000e+00
    1.123333e+01    6.222891e+01    0.000000e+00
    1.040313e+01    6.216727e+01    0.000000e+00
    7.805658e+00    6.216105e+01    0.000000e+00
    2.833414e+00    4.772427e+01    0.000000e+00
    2.752935e+00    5.872818e+01    0.000000e+00
    2.739687e+00    5.533622e+01    0.000000e+00
    2.855906e+00    5.317610e+01    0.000000e+00
    2.850980e+00    4.977978e+01    0.000000e+00
    2.775269e+00    4.204593e+01    0.000000e+00
    2.724196e+00    3.862794e+01    0.000000e+00
    3.879994e+00    3.883454e+01    0.000000e+00
    2.629073e+00    4.132478e+01    0.000000e+00
    2.683084e+00    5.243595e+01    0.000000e+00
    2.778601e+00    5.808421e+01    0.000000e+00
    2.759561e+00    6.095182e+01    0.000000e+00
    4.000602e+00    6.204499e+01    0.000000e+00
    4.922531e+00    3.783203e+01    0.000000e+00
    7.129992e+00    6.217300e+01    0.000000e+00
    4.703257e+00    6.216457e+01    0.000000e+00
    9.018443e+00    6.105350e+01    0.000000e+00
    1.130848e+01    5.115921e+01    0.000000e+00
    1.122133e+01    5.337287e+01    0.000000e+00
    3.757781e+00    5.461494e+01    0.000000e+00
    3.764747e+00    5.661847e+01    0.000000e+00
    1.119460e+01    5.679158e+01    0.000000e+00
    1.120546e+01    5.872261e+01    0.000000e+00
    3.843910e+00    5.999287e+01    0.000000e+00
    5.438974e+00    4.002024e+01    0.000000e+00
    9.127131e+00    4.429076e+01    0.000000e+00
    3.732114e+00    4.521133e+01    0.000000e+00
    3.711278e+00    4.588819e+01    0.000000e+00
    8.047898e+00    4.375309e+01    0.000000e+00
    6.919410e+00    4.370177e+01    0.000000e+00
    1.203297e+01    4.454741e+01    0.000000e+00
    9.691544e+00    4.455412e+01    0.000000e+00
    1.036696e+01    5.336053e+01    0.000000e+00
    4.636649e+00    5.449202e+01    0.000000e+00
    1.051744e+01    5.118320e+01    0.000000e+00
    6.061393e+00    4.219636e+01    0.000000e+00
    3.556789e+00    5.325715e+01    0.000000e+00
    3.516309e+00    4.987250e+01    0.000000e+00
    1.146696e+01    4.898349e+01    0.000000e+00
    3.459861e+00    4.770309e+01    0.000000e+00
    3.450771e+00    4.214610e+01    0.000000e+00
    6.666276e+00    4.325031e+01    0.000000e+00
    3.471696e+00    5.228674e+01    0.000000e+00
    3.448890e+00    4.116277e+01    0.000000e+00
    1.146134e+01    4.992646e+01    0.000000e+00
    5.400571e+00    3.797024e+01    0.000000e+00
    4.540894e+00    3.890192e+01    0.000000e+00
    4.251716e+00    5.106764e+01    0.000000e+00
    1.121872e+01    5.462941e+01    0.000000e+00
    1.119697e+01    5.805084e+01    0.000000e+00
    1.107671e+01    6.018039e+01    0.000000e+00
    1.104924e+01    5.226286e+01    0.000000e+00
    1.120380e+01    5.527331e+01    0.000000e+00
    5.670778e+00    5.997823e+01    0.000000e+00
    1.123619e+01    6.083870e+01    0.000000e+00
    1.038626e+01    6.087365e+01    0.000000e+00
    7.777746e+00    6.106015e+01    0.000000e+00
    3.803145e+00    5.870997e+01    0.000000e+00
    4.049563e+00    6.133056e+01    0.000000e+00
    3.916324e+00    5.535405e+01    0.000000e+00
    3.798927e+00    5.808020e+01    0.000000e+00
    7.112486e+00    6.107352e+01    0.000000e+00
    4.729719e+00    6.120984e+01    0.000000e+00
    9.017636e+00    5.980753e+01    0.000000e+00
    4.736902e+00    5.663018e+01    0.000000e+00
    1.016429e+01    5.678406e+01    0.000000e+00
    1.017707e+01    5.874008e+01    0.000000e+00
    4.817059e+00    5.996491e+01    0.000000e+00
    4.817980e+00    4.028774e+01    0.000000e+00
    1.027156e+01    4.481313e+01    0.000000e+00
    6.831354e+00    4.431710e+01    0.000000e+00
    7.967731e+00    4.438532e+01    0.000000e+00
    3.651021e+00    4.652536e+01    0.000000e+00
    4.796889e+00    5.071047e+01    0.000000e+00
    4.807448e+00    5.137187e+01    0.000000e+00
    5.652815e+00    3.844089e+01    0.000000e+00
    5.753559e+00    4.165717e+01    0.000000e+00
    6.099849e+00    4.330017e+01    0.000000e+00
    1.123489e+01    4.501372e+01    0.000000e+00
    5.767679e+00    4.057045e+01    0.000000e+00
    3.793839e+00    4.448671e+01    0.000000e+00
    5.666047e+00    5.665480e+01    0.000000e+00
    4.568986e+00    5.547474e+01    0.000000e+00
    1.049284e+01    5.225639e+01    0.000000e+00
    8.594632e+00    4.463058e+01    0.000000e+00
    4.416654e+00    4.556512e+01    0.000000e+00
    9.698174e+00    5.332723e+01    0.000000e+00
    5.297387e+00    5.452240e+01    0.000000e+00
    1.003228e+01    5.458139e+01    0.000000e+00
    1.015189e+01    5.805806e+01    0.000000e+00
    1.038011e+01    6.020633e+01    0.000000e+00
    1.015244e+01    5.530581e+01    0.000000e+00
    5.921216e+00    5.892826e+01    0.000000e+00
    7.726349e+00    5.998866e+01    0.000000e+00
    4.890373e+00    5.330445e+01    0.000000e+00
    4.841441e+00    5.805268e+01    0.000000e+00
    4.881557e+00    5.871493e+01    0.000000e+00
    7.085208e+00    5.997556e+01    0.000000e+00
    9.050096e+00    5.886027e+01    0.000000e+00
    1.134273e+01    4.671775e+01    0.000000e+00
    9.132688e+00    5.672644e+01    0.000000e+00
    4.833485e+00    4.498736e+01    0.000000e+00
    1.152593e+01    4.556370e+01    0.000000e+00
    1.036537e+01    4.547860e+01    0.000000e+00
    9.192032e+00    5.300714e+01    0.000000e+00
    5.942851e+00    5.421621e+01    0.000000e+00
    9.165811e+00    5.368008e+01    0.000000e+00
    1.094304e+01    4.545644e+01    0.000000e+00
    6.248704e+00    4.434524e+01    0.000000e+00
    4.808347e+00    4.084950e+01    0.000000e+00
    9.150959e+00    4.499933e+01    0.000000e+00
    4.770819e+00    5.006057e+01    0.000000e+00
    8.129914e+00    5.662324e+01    0.000000e+00
    9.276161e+00    5.436743e+01    0.000000e+00
    5.707188e+00    5.338950e+01    0.000000e+00
    9.315193e+00    5.542924e+01    0.000000e+00
    5.239744e+00    3.897004e+01    0.000000e+00
    8.148830e+00    4.504921e+01    0.000000e+00
    7.374210e+00    4.451070e+01    0.000000e+00
    5.447576e+00    5.100838e+01    0.000000e+00
    5.383375e+00    4.111641e+01    0.000000e+00
    6.452559e+00    5.671864e+01    0.000000e+00
    5.896939e+00    5.541671e+01    0.000000e+00
    5.790749e+00    5.790519e+01    0.000000e+00
    7.914706e+00    5.870345e+01    0.000000e+00
    4.894716e+00    5.204396e+01    0.000000e+00
    7.061132e+00    5.883652e+01    0.000000e+00
    9.062505e+00    5.806309e+01    0.000000e+00
    1.026027e+01    4.897699e+01    0.000000e+00
    1.022733e+01    5.006127e+01    0.000000e+00
    8.334852e+00    4.559011e+01    0.000000e+00
    5.184526e+00    4.438474e+01    0.000000e+00
    9.396408e+00    4.558781e+01    0.000000e+00
    7.028746e+00    4.498047e+01    0.000000e+00
    6.973049e+00    5.635297e+01    0.000000e+00
    5.788120e+00    4.393861e+01    0.000000e+00
    4.504270e+00    4.445523e+01    0.000000e+00
    5.733364e+00    5.483099e+01    0.000000e+00
    6.558836e+00    5.780289e+01    0.000000e+00
    6.769280e+00    5.560744e+01    0.000000e+00
    5.643004e+00    5.207346e+01    0.000000e+00
    8.476542e+00    5.332973e+01    0.000000e+00
    1.234846e+01    4.484817e+01    0.000000e+00
    7.510932e+00    5.652435e+01    0.000000e+00
    4.818861e+00    3.959479e+01    0.000000e+00
    7.880996e+00    5.794592e+01    0.000000e+00
    8.103763e+00    5.542757e+01    0.000000e+00
    9.288588e+00    5.238299e+01    0.000000e+00
    6.728475e+00    4.554715e+01    0.000000e+00
    4.705626e+00    4.390133e+01    0.000000e+00
    6.803279e+00    5.429691e+01    0.000000e+00
    8.863185e+00    4.559380e+01    0.000000e+00
    9.857288e+00    4.566379e+01    0.000000e+00
    4.214736e+00    4.008278e+01    0.000000e+00
    7.821264e+00    4.553760e+01    0.000000e+00
    5.797738e+00    4.465709e+01    0.000000e+00
    3.765608e+00    4.387284e+01    0.000000e+00
    8.042807e+00    5.446632e+01    0.000000e+00
    5.805297e+00    4.530435e+01    0.000000e+00
    1.013816e+01    4.599514e+01    0.000000e+00
    4.854056e+00    4.324930e+01    0.000000e+00
    8.040231e+00    4.598848e+01    0.000000e+00
    9.128908e+00    4.600554e+01    0.000000e+00
    7.287678e+00    4.553655e+01    0.000000e+00
    3.789463e+00    4.059194e+01    0.000000e+00
    7.089768e+00    5.317643e+01    0.000000e+00
    9.216189e+00    4.655164e+01    0.000000e+00
    7.941288e+00    4.653123e+01    0.000000e+00
    1.000583e+01    4.657558e+01    0.000000e+00
    7.011746e+00    4.608833e+01    0.000000e+00
    5.195417e+00    4.558625e+01    0.000000e+00
    6.237706e+00    4.558859e+01    0.000000e+00
    5.508564e+00    4.330126e+01    0.000000e+00
    6.739647e+00    4.663522e+01    0.000000e+00
    5.812613e+00    4.601408e+01    0.000000e+00
    7.321581e+00    4.661888e+01    0.000000e+00
    4.817107e+00    4.604816e+01    0.000000e+00
    5.788273e+00    4.275975e+01    0.000000e+00
    5.532439e+00    4.666969e+01    0.000000e+00
    4.871885e+00    4.660249e+01    0.000000e+00
    7.011731e+00    4.718658e+01    0.000000e+00
    5.388762e+00    4.222549e+01    0.000000e+00
    7.287406e+00    4.777036e+01    0.000000e+00
    4.792366e+00    4.195147e+01    0.000000e+00
    4.782248e+00    4.255828e+01    0.000000e+00
    6.566746e+00    4.774967e+01    0.000000e+00
    6.153881e+00    4.664410e+01    0.000000e+00
    5.879484e+00    4.732835e+01    0.000000e+00
    7.972825e+00    4.781956e+01    0.000000e+00
    4.212406e+00    4.354191e+01    0.000000e+00
    5.361609e+00    4.779468e+01    0.000000e+00
    3.678490e+00    4.264131e+01    0.000000e+00
    8.082326e+00    4.853045e+01    0.000000e+00
    4.156040e+00    4.221843e+01    0.000000e+00
    4.766801e+00    4.779641e+01    0.000000e+00
    5.880172e+00    4.810072e+01    0.000000e+00
    5.947872e+00    4.881767e+01    0.000000e+00
    6.974864e+00    4.833820e+01    0.000000e+00
    3.808063e+00    4.166496e+01    0.000000e+00
    6.652240e+00    4.890278e+01    0.000000e+00
    7.390418e+00    4.890280e+01    0.000000e+00
    4.199002e+00    4.113234e+01    0.000000e+00
    4.796492e+00    4.139732e+01    0.000000e+00
    8.039540e+00    4.923695e+01    0.000000e+00
    8.799214e+00    4.889581e+01    0.000000e+00
    6.932432e+00    4.948331e+01    0.000000e+00
    7.905036e+00    4.992047e+01    0.000000e+00
    7.224293e+00    5.003901e+01    0.000000e+00
    6.547979e+00    5.004815e+01    0.000000e+00
    5.935202e+00    4.998950e+01    0.000000e+00
    6.842484e+00    5.069141e+01    0.000000e+00
    6.939414e+00    5.202713e+01    0.000000e+00

CELLS 13208 52832
       3     969      27      28
       3    1023     975       1
       3    1025    1023      35
       3    1400    1312    1360
       3    1585     614    1553
       3    1842     641    1806
       3    2072     655    1999
       3    2250    2208    2230
       3    2279    2269    2273
       3    2283     697    2275
       3    2314    2312    2313
       3    2309    2197     725
       3    2009     739     738
       3    2020     753     752
       3    1900     767     766
       3    1898     111    1822
       3    1857    1822     112
       3    1857     112     113
       3    1857     767    1822
       3    1963    1908     753
       3    2021     739     740
       3    2163     725     726
       3    2316    2206     698
       3    2272     697     698
       3    2270    2260    2266
       3    2118    2087     656
       3    2068    2001     655
       3    1847    1799    1764
       3    1725    1711    1686
       3    1520     636    1483
       3    1435    1427    1396
       3     992      18     960
       3     963      26     962
       3    1401    1091      38
       3    1802    1795     613
       3    1804     640    1754
       3    2000     654    1935
       3    2231    2166     667
       3    2278    2259    2257
       3    2284     696    2281
       3    2293     710    2286
       3    2311    2307     724
       3    2126    2094     738
       3    2084     752     751
       3    1976     766     765
       3    1941     780     779
       3     110     793     109
       3    1898     110     111
       3       2      74      73
       3      73      74     937
       3     937      74      75
       3    1808      76      77
       3    1809      77      78
       3     940      78      79
       3    1810      80      81
       3    1920      81      82
       3     944      83      84
       3    1811      84      85
       3    1854      85      86
       3    1812      87      88
       3    1813      88      89
       3     948      89      90
       3     949      91      92
       3      93     949      92
       3    1869      93      94
       3    1814      94      95
       3    1814     936      94
       3    1942     922     923
       3    2042    1989     908
       3    2103     894     895
       3    2157    2156     880
       3    2139     866     867
       3    2211     852     853
       3    2225    2234     838
       3    2227     824     825
       3    2142     810     811
       3    2052     796     797
       3    2022     782     783
       3    1901     768     769
       3    1896      53    1834
       3    1872    1834      54
       3    1872      54      55
       3    1872     768    1834
       3    1909     782     781
       3    2023     796     795
       3    2110     810    2109
       3    2073     824     823
       3    2184     838     837
       3    2183     852    2225
       3    2226     866     865
       3    2160     880     879
       3    2113     894     893
       3    2058    2051     908
       3    1971     922     921
       3    1916    1883     936
       3    1916     936    1814
       3    1916     923     922
       3      52     742      51
       3    1896      52      53
       3    1977     755     756
       3    2053     756     757
       3    2086     744    2053
       3    2200     758     759
       3    2210     746    2200
       3    2258    2247    2241
       3    2306    2303    2267
       3    2213     762     763
       3    2192     763    2127
       3    2084     764     765
       3    2192     751    2129
       3    2129     751    2094
       3    2168     750    2129
       3    2302    2298     735
       3    2299    2261     735
       3    2300    2214     734
       3    2193     733    2130
       3    2079     732     731
       3    2024     731     730
       3    1943     730     729
       3    1943    1881     742
       3    1977    1943     742
       3    1977     742    1896
       3    1825      50     729
       3    1825      49      50
       3    1880      48      49
       3    1826      46      47
       3    1870      45      46
       3    1897      43      44
       3    1827      42      43
       3    1925      41    1871
       3    1833      39      40
       3    1401     637    1210
       3    1897     664    1827
       3    1870      46     690
       3    1826     690      46
       3    1880      49    1825
       3      55      56     781
       3    1828     781      56
       3    1944     795     794
       3    2039     809    2023
       3    2055     823     822
       3    2153     837     836
       3    2164     851     850
       3    2220     865     864
       3    2199     879     878
       3    2098     893     892
       3    2102     907     906
       3    1975     921     920
       3    1884     935     934
       3    1807      90      91
       3    1883     948     949
       3    1828      57     794
       3    1877     794      57
       3    1965     808    1944
       3    1986     822     821
       3    2104     836     835
       3    2115     850     849
       3    2194     864     863
       3    2220    2198     878
       3    2162     892     891
       3    2044     906     905
       3    2048     920     919
       3    1892     934     933
       3    1813     948     947
       3    1884     947     948
       3      58      59     807
       3    1873     807      59
       3    1911     821     820
       3    2025     835     834
       3    2057     849     848
       3    2154     863     862
       3    2194    2159     877
       3    2161     891     890
       3    2101     905     904
       3    1970     919    2044
       3    1991     933     932
       3    1812     947     946
       3    1892     946     947
       3    1873      60    1831
       3    1873    1831     820
       3    1945     834     833
       3    2025    1988     848
       3    2105     862     861
       3    2158     876    2154
       3    2097     890     889
       3    2100     904     903
       3    2047     918     917
       3    1885     932     931
       3    1854      86      87
       3    1991     946     933
       3      61      62     833
       3    1874     833      62
       3    1945    1913     847
       3    2026     861     860
       3    2112     875    2105
       3    2116     889     888
       3    2043     903     902
       3    2046     917     916
       3    1992     931     930
       3    1811     945     944
       3    1885     944     945
       3    1874      63     846
       3    1832     846      63
       3    1946     860     859
       3    2041     874    2026
       3    2059     888     887
       3    2099     902     901
       3    1969     916     915
       3    1993     930     929
       3      83     944     943
       3    1992     944     931
       3    1875      64      65
       3    1875     859      64
       3    1967     873    1946
       3    1990     887     886
       3    2059    2050     901
       3    2045     915     914
       3    1886     929    1969
       3    1920      82     943
       3    1993     942     943
       3      65      66     872
       3    1878      66      67
       3    1915     886     885
       3    2027     900     899
       3    1974     914     913
       3    1994     928     927
       3    1810     942     941
       3    1886     941     942
       3    1829      67      68
       3    1878    1829     885
       3    1947     899     898
       3    2027    1968     913
       3    1893     927     926
       3    1855      79      80
       3    1994     941     928
       3      68      69     898
       3    1879      69      70
       3    1947    1917     912
       3    1968    1887     926
       3    1809     940     939
       3    1893     939     940
       3    1830      70      71
       3    1830     911      70
       3    1948     925     924
       3    1808     939     938
       3    1887     938     939
       3    1876      71      72
       3    1876      72     937
       3    1856      75      76
       3    1948     938     925
       3      91       3      92
       3    1858      95      96
       3    1858     923    1814
       3    1942    1914     909
       3    2028     895     896
       3    2111     881    2103
       3    2114     867     868
       3    2195     853     854
       3    2240     839     840
       3    2235     825     826
       3    2223     811     812
       3    2075     797     798
       3    2106     783     784
       3    1978     769     770
       3    1901     755    1834
       3      96      97     910
       3    1824      97      98
       3    1949     896     897
       3    2040     882    2028
       3    2056     868     869
       3    2140     854     855
       3    2221     841    2147
       3    2237     826     827
       3    2236     812     813
       3    2174    2171    2148
       3    2143     784     785
       3    2005     770     771
       3    1978     756    1901
       3    1859      98      99
       3    1859     897    1824
       3    1966     883    1949
       3    1987     869     870
       3    2107     855     856
       3    2074     841     842
       3    2224     827     828
       3    2203     813     814
       3    2218     799     800
       3    2222     785    2171
       3    2175     771     772
       3    2005     758     757
       3      99     100     884
       3    1868     100     101
       3    1912     870     871
       3    2029     856     857
       3    2054     842     843
       3    2141     828     829
       3    2173     815    2149
       3    2242     800     801
       3    2238     786     787
       3    2209     772     773
       3    2175     758    2090
       3    1815     101     102
       3    1868    1815     871
       3    1950     857     858
       3    2029    1985     843
       3    2108     829     830
       3    2076     815     816
       3    2185     801    2172
       3    2242    2255     787
       3    2252     773     774
       3    2209     760     759
       3    1860     102     103
       3    1860     858    1815
       3    1950    1910     844
       3    2030     830     831
       3    2060     816     817
       3    2155     802     803
       3    2212     788     789
       3    2243     774     775
       3    2252     760     773
       3     103     104     845
       3    1823     845     104
       3    1951     831     832
       3    1995     817     818
       3    2078     803     804
       3    2196     789     790
       3    2167     775     776
       3    2263    2243     762
       3    1861     105     106
       3    1861     832     105
       3    1951    1918     818
       3    2031     804     805
       3    2085     790     791
       3    2128     777    2091
       3    2167     762     775
       3     106     107     819
       3    1816     819     107
       3    1952     805     806
       3    2038     791    2031
       3    2008     777     778
       3    2127    2091     764
       3    1867    1816     108
       3    1867     806    1816
       3    1952    1941     792
       3    1976     778     779
       3    2091    2008     764
       3     113     114     754
       3    1817     754     114
       3    1953     740     741
       3    2077     726     727
       3    2182     712     713
       3    2280     699    2277
       3    2256    2249     671
       3    2244    2176     670
       3    2004    2003     656
       3    1846     643    1792
       3    1759    1750    1724
       3    1685    1671    1653
       3    1601    1578     600
       3    1074    1064    1008
       3    1055      17     992
       3    1866    1817     115
       3    1866     741    1817
       3    2032     727     728
       3    2089     713     714
       3    2131     700    2096
       3    2268    2151    2264
       3    2249    2228     671
       3    2120    2119    2082
       3    1845    1792     643
       3    1782    1781     633
       3    1755    1718    1743
       3    1697    1696    1671
       3    1436    1411    1371
       3    1080    1001    1019
       3     116     117     728
       3    2117     728     117
       3    2037     714    2032
       3    2015     700     701
       3    2065     687    2019
       3    2262     673    2178
       3    2239    2165     658
       3    1996    1936     618
       3    1791    1784     617
       3    1776     632    1772
       3    1757    1753    1704
       3    1676    1624    1661
       3    1022     181     995
       3    1071     995    1016
       3    2117     118     715
       3     715     118     119
       3    1961     701     702
       3    1932     687     688
       3    2137     673    2062
       3    2152     659     660
       3    2135    2066     645
       3    1849    1793     631
       3    1779    1772     632
       3    1770    1760    1758
       3    1669    1650    1649
       3    1523    1490    1506
       3    1022     180     181
       3     715     119     702
       3    1862     702     120
       3    1905     688     689
       3    2013     674     675
       3    2063     661    2018
       3    2202    2177     646
       3    1997    1938     619
       3    1793    1785     631
       3    1775    1767     604
       3    1773    1736     580
       3    1550    1480    1517
       3    1029     985     984
       3     982     159     160
       3    1818    1862     121
       3    1818     689    1862
       3    1954     675     676
       3    1931     661     662
       3    2138     647    2064
       3    2169    2121     620
       3    2071    1934     630
       3    1924    1797     605
       3    1761    1752     581
       3    1723     597    1710
       3    1088    1026    1024
       3     991     149     150
       3    1818     122     676
       3    1863     676     123
       3    1919     662     663
       3    2012     648     649
       3    2083     621     622
       3    2123     628    2092
       3    2061    2010     606
       3    1844    1805     582
       3    1794    1747     596
       3    1800     145    1092
       3    1028     147    1026
       3    1863     124    1819
       3    1863    1819     663
       3    1955     649     650
       3    2035     622     623
       3    2006     628     627
       3    2132    2088     607
       3    2070    1958     583
       3    1891    1843     595
       3    1921    1852     957
       3    1852     145    1800
       3    1895    1819     125
       3    1895     125     126
       3    1959     623    1955
       3    1979     627     626
       3    2049     608     609
       3    2034     584     585
       3    1890     594     593
       3    1891    1835     956
       3    1921     143     144
       3    1895     650    1819
       3    1864     624     127
       3    1903     626     625
       3    2033     609     610
       3    1973     585     586
       3    1972     593     592
       3    1836     955     954
       3    1835     142     143
       3    1864     128    1820
       3    1864    1820     625
       3    1956     610     611
       3    2033    1957     586
       3    1894     592     591
       3    1882     140     141
       3    1836     141     142
       3    1820     129     611
       3     130     611     129
       3    1956    1902     587
       3    1957    1889     591
       3    1837     953     952
       3     140     953     139
       3    1865     611     130
       3    1865    1821     588
       3    1902    1888     590
       3    1838     952     951
       3    1837     138     139
       3    1821     132     589
       3    1899     132     133
       3    1840     136     951
       3    1838     137     138
       3    1899     589     132
       3     950     134     135
       3    1840     135     136
       3     134       4     135
       3    1560    1545    1539
       3    1643    1634     577
       3    1739    1733    1716
       3    1757    1704    1719
       3    1760     581    1746
       3    1767    1766    1765
       3    1841     582    1797
       3    2070    2010    2061
       3    2088     585     584
       3    2049     586     585
       3    2033     587    1957
       3    1956     588    1902
       3    1902     589    1888
       3    1957     590    1889
       3    1973     591     592
       3    2034     592     593
       3    1958     593     594
       3    1844     595    1805
       3    1801    1752    1761
       3    1722    1710    1701
       3    1738    1650    1684
       3    1619    1612     599
       3    1454    1377    1411
       3    1313    1260    1261
       3    1359    1313    1261
       3    1631    1552    1483
       3    1668    1653    1609
       3    1743    1718    1731
       3    1769     604    1768
       3    1775     604    1772
       3    1848     605    1785
       3    2061    1934     607
       3    2132    2123    2092
       3    2006     609     608
       3    1979     610     609
       3    1903     611     610
       3    1360    1312     637
       3    1519    1483    1444
       3    1734    1655    1519
       3    1737    1725     614
       3    1798    1796     615
       3    1764     616    1759
       3    1790     617    1788
       3    1845     617    1792
       3    1996     619    1936
       3    2177    1997    2066
       3    2202     621     620
       3    2138     622     621
       3    2012     623     622
       3    1959    1955     624
       3    1959     625     626
       3    2035     626     627
       3    2083     627     628
       3    2169     629    2121
       3    2071    1938    1997
       3    1849     630    1793
       3    1783    1780     631
       3    1787    1781    1782
       3    1742    1731     634
       3    1686    1672    1655
       3    1850    1795    1802
       3    1923     639    1850
       3    2069    1927    1933
       3    2189    2180     667
       3    2248    2216    2246
       3    2291    2245     707
       3    2288     709    2284
       3    2298     722    2296
       3    2307    2305     737
       3    1754     640    1748
       3    2072    1999     654
       3    1999    1926    1922
       3    1929     643    1846
       3    2004     644    1939
       3    2119    2067     644
       3    2201     646    2135
       3    2152     647     646
       3    2138    2064     648
       3    1931     649     648
       3    1919     650     649
       3    2002    1851    1923
       3    2002    1904     652
       3    2170    2014     679
       3    2124     679    2095
       3    2232     693    2219
       3    2292    2251     721
       3    2295     722    2294
       3    2298    2296     735
       3    1927    1853    1804
       3    1935    1842    1853
       3    2208    2122    2133
       3    2122     656    2068
       3    2118     657    2087
       3    2207    2120     657
       3    2253    2239    2228
       3    2262     660     659
       3    2137     661    2063
       3    2013     662     661
       3    1954     663     662
       3    1904     664     665
       3    1960     665     664
       3    2016     679     678
       3    2179    2011     693
       3    2233    2181     707
       3    2191     721     720
       3    2299    2296    2297
       3    2136    1933     665
       3    2189    2000     666
       3    2166    2072    2134
       3    2229    2215     669
       3    2266    2215    2229
       3    2260     671    2244
       3    2256     672    2249
       3    2151     673     672
       3    2137    2062     674
       3    1932     675     674
       3    1905     676     675
       3    1960     664    1897
       3    1980     678    1960
       3    1981     692     691
       3    2081     706     705
       3    2125     719    2093
       3    2297    2191     734
       3    2014     678     679
       3    2180    2170     679
       3    2248    2205     680
       3    2230    2208     668
       3    2274    2270     683
       3    2275     684    2270
       3    2271     685    2256
       3    2268     686    2151
       3    2131    2096     687
       3    2015     688     687
       3    1961     689     688
       3    1980     690     691
       3    1906     691     690
       3    2036     705     704
       3    2007     719     718
       3    2130    2125    2093
       3    2016     691     692
       3    2179    2124    2095
       3    2246     693    2232
       3    2282    2257     694
       3    2273    2269     682
       3    2290    2286     710
       3    2290     698     697
       3    2280    2206     699
       3    2182     700    2131
       3    2089     701     700
       3    2037     702     701
       3    1906     703     704
       3    1962     704     703
       3    1982     718     717
       3    2093    2007     732
       3    1981     704     705
       3    2011     705     706
       3    2233    2232    2219
       3    2291    2285    2245
       3    2287    2285     708
       3    2293    2286    2289
       3    2313    2186     711
       3    2313    2309    2186
       3    2163     713     712
       3    2077     714     713
       3    2037    2032     715
       3    1962     703     716
       3    1962    1907     717
       3    1982     730     731
       3    2036     717     718
       3    2081     718     719
       3    2181     719    2125
       3    2251     720     721
       3    2295    2294     721
       3    2310    2293     722
       3    2311     723    2308
       3    2080     738     739
       3    2080     725     738
       3    2021     727     726
       3    1953     728     727
       3    1907     729     730
       3    2197     737    2126
       3    1983     752     753
       3    1983     740     739
       3    1908     741     740
       3    2086    2053     757
       3    2053    2024     743
       3    2086     745     744
       3    2079     744     745
       3    2210    2200     759
       3    2193     745     746
       3    2210     747     746
       3    2214     746     747
       3    2247     747    2241
       3    2261     747    2247
       3    2306    2267    2263
       3    2303    2301     748
       3    2213     763    2192
       3    2168     749     750
       3    2009     751     752
       3    1963     766     767
       3    1963     753     766
       3    2020     765     766
       3    1964     781     782
       3    1964     768     781
       3    2022     770     769
       3    2106     771     770
       3    2143     772     771
       3    2222     773     772
       3    2238     774     773
       3    2255     775     774
       3    2212     776     775
       3    2196     777    2128
       3    2085     778     777
       3    1900     779     780
       3    2038     779     778
       3    1984     795     796
       3    1984     782    1909
       3    2052     784     783
       3    2075     785     784
       3    2171     785    2148
       3    2218     787     786
       3    2242     788    2255
       3    2185     789     788
       3    2155     790     789
       3    2078     791     790
       3    2038    2031     792
       3    1952     793    1941
       3    1909     794     795
       3    2110    2109     809
       3    2109     797     796
       3    2142     798     797
       3    2223     799    2174
       3    2236     800     799
       3    2203     801     800
       3    2172    2149     802
       3    2076     803     802
       3    2060     804     803
       3    1995     805     804
       3    1918     806     805
       3    1965    1944     807
       3    2039    2023     808
       3    2144     823     824
       3    2144     811     810
       3    2227     812     811
       3    2235     813     812
       3    2237     814     813
       3    2224     815    2173
       3    2141     816     815
       3    2108     817     816
       3    2030     818     817
       3    1951     819    1918
       3    1965     820     821
       3    2039     821     822
       3    2110     822     823
       3    2204     837     838
       3    2204     824    2146
       3    2234     826     825
       3    2240     827     826
       3    2221     828     827
       3    2074     829     828
       3    2054     830     829
       3    1985     831     830
       3    1910     832     831
       3    1911     833     834
       3    1986     834     835
       3    2055     835     836
       3    2073     836     837
       3    2183    2225     851
       3    2225     838     851
       3    2211     840     839
       3    2221    2195     841
       3    2140     842     841
       3    2107     843     842
       3    2029     844    1985
       3    1950     845    1910
       3    1945     846    1913
       3    2025     847    1988
       3    2104     848     849
       3    2153     849     850
       3    2184     850     851
       3    2190     865     866
       3    2217    2190     852
       3    2139     854     853
       3    2114     855     854
       3    2056     856     855
       3    1987     857     856
       3    1912     858     857
       3    1913     859     860
       3    1988     860     861
       3    2057     861     862
       3    2115     862     863
       3    2164     863     864
       3    2183     864     865
       3    2187     879     880
       3    2187     866     879
       3    2156     868     867
       3    2111     869     868
       3    2040     870     869
       3    1966     871     870
       3    1967    1946     872
       3    2041    2026     873
       3    2112    2105     874
       3    2158    2154     875
       3    2194     876    2159
       3    2220     877    2198
       3    2226     878     879
       3    2157     893     894
       3    2157     880     893
       3    2111    2103     882
       3    2040    2028     883
       3    1966    1949     884
       3    1967     885     886
       3    2041     886     887
       3    2112     887     888
       3    2158     888     889
       3    2159     889     890
       3    2198     890     891
       3    2199     891     892
       3    2160     892     893
       3    2058     907    2051
       3    2058     895     894
       3    1989     896     895
       3    1914     897     896
       3    1915     898     899
       3    1990     899     900
       3    2059     900    2050
       3    2116     901     902
       3    2097     902     903
       3    2161     903     904
       3    2162     904     905
       3    2098     905     906
       3    2113     906     907
       3    2042     921     922
       3    2042     908     921
       3    1942     910    1914
       3    1947     911    1917
       3    2027     912    1968
       3    2050     913     914
       3    2099     914     915
       3    2043     915     916
       3    2100     916     917
       3    2101     917     918
       3    1970    2044     918
       3    2102     919     920
       3    2051     920     921
       3    1917     924     925
       3    1968     925    1887
       3    1974     926     927
       3    2045     927     928
       3    1886    1969     928
       3    2046     929     930
       3    2047     930     931
       3    1970     931     932
       3    2048     932     933
       3    1975     933     934
       3    1971     934     935
       3    1888     950     951
       3    1889     951     952
       3    1894     952     953
       3    1972     953     954
       3    1890     954     955
       3    1891     956    1843
       3    1928    1747    1843
       3    1735    1710     596
       3    1441    1357    1398
       3    1512    1475    1449
       3    1925    1833      40
       3    1871     651     638
       3    1897    1827      43
       3    1019     194     195
       3    1203    1063     203
       3     960      18      19
       3     961     960      19
       3     993      21     965
       3     965      21      22
       3     966     965      22
       3     967     966      23
       3     968      25     963
       3     969     962      27
       3     970     969      28
       3     971     970      29
       3    1047     971     972
       3     972     971      30
       3     973     972      31
       3     974     973      32
       3     975      34       1
       3    1089    1087    1025
       3    1027    1025      36
       3    1839    1401      38
       3    1871      42    1827
       3      44      45     677
       3      47      48     703
       3    1881      50      51
       3    1834      53      54
       3    1877      57      58
       3    1831      60      61
       3    1832      63      64
       3    1878      67    1829
       3    1879      70     911
       3      72      73     937
       3    1807      91     949
       3    1854      87    1812
       3      82      83     943
       3    1855      80    1810
       3    1856      76    1808
       3     133     134     950
       3    1865     131    1821
       3     126     127     624
       3     122     123     676
       3     119     120     702
       3    1866     115     116
       3    1822     111     112
       3    1867     108     109
       3    1823     104     105
       3    1868     101    1815
       3    1859    1824      98
       3    1869      94     936
       3    1024       5     991
       3    1026     148    1024
       3    1092     145     146
       3    1882     141    1836
       3     136     137     951
       3     167       6     168
       3    1057     167     168
       3    1172     169     170
       3     977     165     976
       3     978     164     977
       3     979     163     978
       3     980     162     979
       3     981     161     980
       3    1042     980    1036
       3     983     158     964
       3     984     157     983
       3     985     156     984
       3     986     155     985
       3     987     154     986
       3     988     153     987
       3     989     152     988
       3     990     151     989
       3    1040     989    1039
       3     205       0      16
       3    1055      16      17
       3    1093     960     961
       3    1203     203     204
       3     997     200     201
       3    1018     200     997
       3    1005     198     199
       3    1017     198    1005
       3     999     196     197
       3    1006     196     999
       3    1006     195     196
       3    1008     193    1001
       3    1009     192    1008
       3    1058     191    1009
       3    1058     190     191
       3     996     188     189
       3    1004     188     996
       3    1012     187    1004
       3    1021     186    1012
       3    1021     185     186
       3    1056     184     185
       3    1016     183    1015
       3     995     181     182
       3     171    1086     170
       3    1057     168     169
       3     994     179     180
       3    1002     179     994
       3    1014     178    1002
       3    1007     176     177
       3    1020     176    1007
       3    1020     175     176
       3    1000     173     174
       3    1003     173    1000
       3    1003     172     173
       3    1023       1      35
       3    1054    1024     991
       3     991       5     149
       3     961      19      20
       3     993      20      21
       3    1067    1013    1063
       3     962      26      27
       3    1046     967     968
       3     963      25      26
       3    1032     983     964
       3     964     158     159
       3     966      22      23
       3    1041     993     965
       3     967      23      24
       3    1045     966    1031
       3     968     967      24
       3    1094    1046    1033
       3     968      24      25
       3    1033     968     963
       3     970      28      29
       3     971      29      30
       3    1095     970    1030
       3     972      30      31
       3    1109    1047    1034
       3     973      31      32
       3    1047     972    1034
       3     974      32      33
       3    1043     973     974
       3     975     974      33
       3     975      33      34
       3    1053    1035     975
       3     976     166    1057
       3    1057     166     167
       3    1113    1166     977
       3     976     165     166
       3    1104    1048     977
       3     977     164     165
       3     977    1048     978
       3     978     163     164
       3    1036     980     979
       3     979     162     163
       3    1037     982     981
       3     980     161     162
       3     982     160     981
       3     981     160     161
       3    1049     982    1037
       3     982     964     159
       3    1162    1050    1032
       3     983     157     158
       3    1051    1038     986
       3     984     156     157
       3    1051     985    1029
       3     985     155     156
       3    1038     987     986
       3     986     154     155
       3    1052     987    1038
       3     987     153     154
       3    1039     989     988
       3     988     152     153
       3    1054     991    1040
       3     989     151     152
       3    1040     991     990
       3     990     150     151
       3     991     150     990
       3    1204     960    1093
       3     992      17      18
       3    1055     205      16
       3    1093     993    1041
       3     993     961      20
       3    1069     994    1022
       3    1065    1002     994
       3    1016     182     183
       3    1082     995    1071
       3    1010     189     190
       3    1077     996    1060
       3    1013     201     202
       3    1018    1005     199
       3     998     171     172
       3    1017     197     198
       3    1019     195    1006
       3    1011     174     175
       3    1078    1000    1073
       3    1074    1008    1001
       3    1001     193     194
       3    1014    1007     177
       3    1002     178     179
       3    1078    1003    1000
       3    1003     998     172
       3    1066    1012    1004
       3    1004     187     188
       3    1018     199     200
       3    1070    1005    1062
       3    1072     999    1017
       3    1061    1019    1006
       3    1014     177     178
       3    1020    1011     175
       3    1064    1009    1008
       3    1008     192     193
       3    1058    1010     190
       3    1009     191     192
       3    1204    1093    1160
       3    1055    1203     204
       3    1203     992    1112
       3    1114    1010    1058
       3    1010     996     189
       3    1076    1011    1020
       3    1011    1000     174
       3    1056     185    1021
       3    1012     186     187
       3     203    1063     202
       3    1013     997     201
       3    1068    1002    1065
       3    1081    1014    1068
       3    1015     183     184
       3    1075    1071    1016
       3    1075    1016    1015
       3    1016     995     182
       3    1072    1017    1070
       3    1017     999     197
       3    1067     997    1013
       3    1084    1018     997
       3    1080    1019    1061
       3    1019    1001     194
       3    1081    1007    1014
       3    1076    1073    1011
       3    1083    1012    1066
       3    1116    1021    1083
       3    1069    1065     994
       3    1022     994     180
       3     170    1086    1172
       3    1086     998    1059
       3    1025      35      36
       3    1087    1053    1023
       3    1209    1148    1090
       3    1024     148       5
       3    1027      36      37
       3    1089    1025    1027
       3    1090    1026    1088
       3    1026     147     148
       3    1091    1027      37
       3    1260    1208    1147
       3    1148    1092    1028
       3    1028     146     147
       3    1050     984     983
       3    1170    1169    1107
       3    1030     970     971
       3    1093     961     993
       3    1099    1045    1031
       3    1031     966     967
       3    1049     964     982
       3    1044     963     962
       3    1097    1046    1094
       3    1098    1044    1095
       3    1095     962     969
       3    1108    1034    1043
       3    1034     972     973
       3    1108    1168    1109
       3    1035     974     975
       3    1113     977     976
       3    1048    1036     979
       3    1048     979     978
       3    1042    1037     981
       3    1042     981     980
       3    1101    1100    1049
       3    1051     986     985
       3    1052    1039     988
       3    1052     988     987
       3    1152    1150    1040
       3    1045    1041     965
       3    1093    1041    1096
       3    1103    1102    1042
       3    1102    1101    1037
       3    1040     990     989
       3    1040    1039    1105
       3    1043    1034     973
       3    1043     974    1035
       3    1044    1033     963
       3    1044     962    1095
       3    1045     965     966
       3    1153    1099    1097
       3    1046    1031     967
       3    1046     968    1033
       3    1095     969     970
       3    1111    1047    1109
       3    1047    1030     971
       3    1172     976    1057
       3    1048    1103    1036
       3    1100    1162    1032
       3    1049    1032     964
       3    1050    1029     984
       3    1050     983    1032
       3    1107    1106    1038
       3    1106    1105    1052
       3    1106    1052    1038
       3    1112     992     960
       3    1053     975    1023
       3    1143    1053    1087
       3    1144    1054    1040
       3    1055     204     205
       3    1203    1055     992
       3    1116    1056    1021
       3    1056    1015     184
       3    1057     169    1172
       3    1117    1009    1064
       3    1117    1058    1009
       3    1059     998    1003
       3    1077    1066    1004
       3    1060     996    1010
       3    1085    1006     999
       3    1181    1129    1180
       3    1121    1070    1062
       3    1062    1005    1018
       3    1204    1179    1112
       3    1063    1013     202
       3    1198    1135    1196
       3    1117    1114    1058
       3    1185    1131    1177
       3    1131    1130    1068
       3    1077    1004     996
       3    1138    1066    1134
       3    1120    1067    1118
       3    1084     997    1067
       3    1079    1076    1020
       3    1068    1014    1002
       3    1082    1022     995
       3    1137    1131    1065
       3    1122    1070    1121
       3    1070    1017    1005
       3    1141    1071    1075
       3    1142    1071    1141
       3    1129    1072    1122
       3    1085     999    1072
       3    1125    1124    1078
       3    1073    1000    1011
       3    1080    1074    1001
       3    1139    1074    1135
       3    1115    1015    1056
       3    1176    1075    1115
       3    1079    1020    1007
       3    1127    1076    1126
       3    1136    1134    1077
       3    1136    1077    1060
       3    1086     171     998
       3    1124    1119    1059
       3    1078    1059    1003
       3    1081    1079    1007
       3    1128    1079    1081
       3    1133    1061    1132
       3    1135    1080    1133
       3    1130    1128    1081
       3    1128    1126    1079
       3    1140    1137    1069
       3    1082    1069    1022
       3    1116    1115    1056
       3    1083    1021    1012
       3    1123    1084    1120
       3    1084    1062    1018
       3    1132    1085    1129
       3    1085    1061    1006
       3    1164    1163    1103
       3    1172    1113     976
       3    1143    1108    1053
       3    1087    1023    1025
       3    1088    1024    1054
       3    1146    1088    1144
       3    1147    1089    1027
       3    1145    1143    1087
       3    1357    1148    1209
       3    1090    1028    1026
       3    1210    1147    1091
       3    1091      37      38
       3    1092     146    1028
       3    1800    1092     958
       3    1150    1144    1040
       3    1108    1035    1053
       3    1274    1219    1270
       3    1157    1098    1095
       3    1098    1094    1033
       3    1155    1099    1153
       3    1100    1032    1049
       3    1029    1151    1110
       3    1159    1096    1155
       3    1096    1041    1045
       3    1097    1031    1046
       3    1217    1156    1154
       3    1098    1033    1044
       3    1157    1154    1098
       3    1099    1096    1045
       3    1099    1031    1097
       3    1160    1093    1159
       3    1101    1049    1037
       3    1102    1037    1042
       3    1161    1101    1158
       3    1103    1042    1036
       3    1163    1102    1103
       3    1104    1103    1048
       3    1163    1158    1102
       3     960    1204    1112
       3     977    1166    1104
       3    1105    1039    1052
       3    1107    1038    1051
       3    1169    1106    1107
       3    1108    1109    1034
       3    1211    1095    1149
       3    1110    1051    1029
       3    1108    1043    1035
       3    1205    1108    1143
       3    1149    1095    1111
       3    1171    1111    1109
       3    1162    1151    1050
       3    1111    1095    1030
       3    1110    1107    1051
       3    1050    1151    1029
       3    1111    1030    1047
       3    1113    1172    1086
       3    1173    1136    1060
       3    1114    1060    1010
       3    1201    1115    1116
       3    1115    1075    1015
       3    1174    1083    1138
       3    1201    1116    1174
       3    1175    1064    1139
       3    1175    1117    1064
       3    1118    1063    1112
       3    1112    1063    1203
       3    1119    1086    1059
       3    1119    1113    1086
       3    1225    1159    1224
       3    1118    1067    1063
       3    1124    1059    1078
       3    1223    1222    1164
       3    1123    1121    1062
       3    1120    1084    1067
       3    1123    1062    1084
       3    1186    1121    1184
       3    1180    1129    1122
       3    1122    1072    1070
       3    1193    1120    1118
       3    1195    1123    1120
       3    1125    1078    1073
       3    1222    1221    1163
       3    1127    1073    1076
       3    1188    1125    1127
       3    1190    1126    1182
       3    1126    1076    1079
       3    1188    1187    1125
       3    1127    1125    1073
       3    1130    1081    1068
       3    1183    1128    1130
       3    1239    1181    1180
       3    1129    1085    1072
       3    1131    1068    1065
       3    1185    1130    1131
       3    1137    1065    1069
       3    1183    1182    1128
       3    1192    1132    1181
       3    1132    1061    1085
       3    1196    1133    1192
       3    1133    1080    1061
       3    1189    1138    1134
       3    1134    1066    1077
       3    1254    1202    1175
       3    1135    1074    1080
       3    1173    1060    1114
       3    1191    1189    1134
       3    1140    1069    1082
       3    1178    1137    1140
       3    1230    1138    1189
       3    1138    1083    1066
       3    1202    1117    1175
       3    1139    1064    1074
       3    1142    1082    1071
       3    1178    1177    1137
       3    1233    1199    1141
       3    1199    1142    1141
       3    1200    1142    1199
       3    1142    1140    1082
       3    1145    1087    1089
       3    1205    1226    1108
       3    1207    1144    1150
       3    1144    1088    1054
       3    1208    1145    1089
       3    1308    1205    1206
       3    1259    1209    1146
       3    1146    1090    1088
       3    1147    1027    1091
       3    1261    1210     637
       3    1148     958    1092
       3    1148    1028    1090
       3    1194    1113    1119
       3    1218    1157    1211
       3    1228    1170    1215
       3    1214    1211    1149
       3    1152    1040    1105
       3    1213    1207    1150
       3    1167    1152    1105
       3    1170    1110    1151
       3    1167    1105    1106
       3    1216    1152    1167
       3    1108    1226    1168
       3    1156    1097    1094
       3    1219    1155    1153
       3    1220    1156    1217
       3    1154    1094    1098
       3    1224    1155    1219
       3    1155    1096    1099
       3    1156    1153    1097
       3    1156    1094    1154
       3    1158    1101    1102
       3    1195    1120    1193
       3    1159    1093    1096
       3    1257    1160    1225
       3    1267    1264    1162
       3    1161    1100    1101
       3    1162    1100    1161
       3    1164    1103    1104
       3    1221    1267    1158
       3    1165    1164    1104
       3    1251    1223    1165
       3    1166    1165    1104
       3    1197    1124    1187
       3    1194    1166    1113
       3    1197    1194    1119
       3    1169    1167    1106
       3    1227    1167    1169
       3    1276    1214    1229
       3    1171    1109    1168
       3    1265    1212    1264
       3    1228    1169    1170
       3    1170    1107    1110
       3    1215    1151    1212
       3    1229    1171    1168
       3    1171    1149    1111
       3    1231    1191    1136
       3    1202    1114    1117
       3    1201    1176    1115
       3    1174    1116    1083
       3    1232    1139    1198
       3    1232    1175    1139
       3    1285    1233    1283
       3    1176    1141    1075
       3    1236    1177    1178
       3    1177    1131    1137
       3    1200    1140    1142
       3    1236    1234    1177
       3    1193    1118    1179
       3    1179    1118    1112
       3    1186    1122    1121
       3    1239    1180    1238
       3    1237    1192    1181
       3    1181    1132    1129
       3    1190    1188    1127
       3    1182    1126    1128
       3    1185    1183    1130
       3    1242    1183    1240
       3    1246    1238    1186
       3    1184    1121    1123
       3    1234    1185    1177
       3    1240    1185    1234
       3    1246    1186    1184
       3    1186    1180    1122
       3    1269    1268    1221
       3    1187    1124    1125
       3    1190    1127    1126
       3    1244    1188    1243
       3    1191    1134    1136
       3    1241    1190    1182
       3    1243    1190    1241
       3    1231    1136    1173
       3    1280    1191    1231
       3    1245    1192    1237
       3    1192    1133    1132
       3    1301    1248    1299
       3    1248    1247    1195
       3    1197    1119    1124
       3    1248    1195    1193
       3    1195    1184    1123
       3    1252    1196    1245
       3    1196    1135    1133
       3    1273    1269    1222
       3    1250    1187    1244
       3    1333    1326    1280
       3    1198    1139    1135
       3    1233    1141    1176
       3    1256    1255    1200
       3    1255    1236    1178
       3    1200    1178    1140
       3    1253    1174    1230
       3    1253    1201    1174
       3    1254    1175    1232
       3    1202    1173    1114
       3    1206    1143    1145
       3    1206    1205    1143
       3    1258    1206    1145
       3    1307    1206    1258
       3    1309    1213    1266
       3    1207    1146    1144
       3    1310    1258    1208
       3    1208    1089    1147
       3    1209    1090    1146
       3    1311    1209    1259
       3    1401    1210    1091
       3    1261    1260    1210
       3    1214    1149    1171
       3    1212    1151    1162
       3    1267    1162    1161
       3    1162    1264    1212
       3    1309    1207    1213
       3    1213    1150    1152
       3    1229    1168    1226
       3    1279    1276    1229
       3    1272    1218    1262
       3    1211    1157    1095
       3    1227    1216    1167
       3    1215    1170    1151
       3    1266    1213    1216
       3    1216    1213    1152
       3    1267    1161    1158
       3    1218    1217    1154
       3    1271    1220    1217
       3    1218    1154    1157
       3    1220    1219    1153
       3    1298    1293    1246
       3    1220    1153    1156
       3    1271    1270    1220
       3    1221    1158    1163
       3    1222    1163    1164
       3    1223    1164    1165
       3    1295    1243    1292
       3    1251    1165    1166
       3    1350    1273    1302
       3    1257    1179    1204
       3    1224    1159    1155
       3    1225    1160    1159
       3    1251    1166    1194
       3    1251    1194    1197
       3    1317    1263    1276
       3    1228    1227    1169
       3    1278    1228    1275
       3    1265    1215    1212
       3    1275    1228    1215
       3    1263    1262    1211
       3    1229    1214    1171
       3    1235    1233    1176
       3    1230    1174    1138
       3    1280    1412    1191
       3    1249    1173    1202
       3    1281    1198    1252
       3    1254    1249    1202
       3    1235    1176    1201
       3    1283    1233    1235
       3    1284    1234    1236
       3    1282    1240    1234
       3    1253    1235    1201
       3    1290    1235    1253
       3    1255    1178    1200
       3    1284    1282    1234
       3    1339    1287    1329
       3    1297    1237    1287
       3    1286    1239    1238
       3    1238    1180    1186
       3    1287    1239    1286
       3    1239    1237    1181
       3    1242    1241    1182
       3    1240    1183    1185
       3    1242    1182    1183
       3    1292    1243    1241
       3    1289    1240    1282
       3    1294    1242    1289
       3    1319    1316    1268
       3    1243    1188    1190
       3    1412    1189    1191
       3    1244    1187    1188
       3    1305    1245    1297
       3    1245    1196    1192
       3    1247    1184    1195
       3    1293    1286    1238
       3    1248    1193    1257
       3    1257    1193    1179
       3    1321    1270    1320
       3    1247    1246    1184
       3    1409    1345    1321
       3    1288    1280    1231
       3    1249    1231    1173
       3    1300    1244    1295
       3    1250    1197    1187
       3    1251    1197    1250
       3    1328    1252    1305
       3    1252    1198    1196
       3    1291    1230    1412
       3    1291    1253    1230
       3    1296    1232    1281
       3    1296    1254    1232
       3    1256    1200    1199
       3    1304    1284    1236
       3    1285    1199    1233
       3    1306    1304    1255
       3    1257    1204    1160
       3    1299    1225    1274
       3    1258    1145    1208
       3    1308    1279    1226
       3    1356    1311    1259
       3    1259    1146    1207
       3    1358    1310    1260
       3    1260    1147    1210
       3    1312    1261     637
       3    1482    1312     636
       3    1263    1211    1214
       3    1276    1263    1214
       3    1317    1315    1263
       3    1316    1264    1267
       3    1278    1227    1228
       3    1275    1215    1265
       3    1354    1266    1322
       3    1277    1216    1227
       3    1320    1271    1318
       3    1262    1218    1211
       3    1268    1267    1221
       3    1316    1314    1264
       3    1269    1221    1222
       3    1273    1222    1223
       3    1341    1292    1337
       3    1343    1332    1293
       3    1270    1219    1220
       3    1272    1271    1217
       3    1318    1272    1315
       3    1272    1217    1218
       3    1302    1223    1251
       3    1302    1273    1223
       3    1274    1224    1219
       3    1299    1257    1225
       3    1274    1225    1224
       3    1314    1265    1264
       3    1278    1277    1227
       3    1279    1229    1226
       3    1324    1317    1276
       3    1322    1266    1277
       3    1277    1266    1216
       3    1314    1275    1265
       3    1323    1278    1275
       3    1327    1308    1307
       3    1367    1317    1324
       3    1302    1251    1250
       3    1350    1319    1269
       3    1290    1283    1235
       3    1412    1230    1189
       3    1326    1412    1280
       3    1288    1231    1249
       3    1303    1254    1296
       3    1281    1232    1198
       3    1330    1282    1284
       3    1331    1282    1330
       3    1338    1290    1291
       3    1351    1283    1336
       3    1304    1236    1255
       3    1348    1284    1304
       3    1340    1306    1256
       3    1285    1256    1199
       3    1293    1238    1246
       3    1329    1287    1286
       3    1372    1329    1370
       3    1287    1237    1239
       3    1303    1249    1254
       3    1371    1326    1333
       3    1294    1292    1241
       3    1289    1242    1240
       3    1291    1290    1253
       3    1338    1291    1335
       3    1335    1291    1412
       3    1294    1241    1242
       3    1363    1361    1316
       3    1298    1246    1247
       3    1332    1329    1286
       3    1334    1294    1289
       3    1337    1294    1334
       3    1344    1295    1341
       3    1295    1244    1243
       3    1347    1281    1328
       3    1349    1296    1347
       3    1352    1297    1339
       3    1297    1245    1237
       3    1301    1247    1248
       3    1365    1320    1364
       3    1299    1248    1257
       3    1345    1299    1274
       3    1300    1250    1244
       3    1345    1274    1321
       3    1301    1298    1247
       3    1302    1250    1300
       3    1342    1333    1288
       3    1303    1288    1249
       3    1306    1255    1256
       3    1348    1330    1284
       3    1376    1305    1352
       3    1305    1252    1245
       3    1340    1256    1285
       3    1353    1348    1304
       3    1355    1258    1310
       3    1327    1324    1279
       3    1308    1226    1205
       3    1308    1206    1307
       3    1356    1309    1354
       3    1309    1259    1207
       3    1310    1208    1260
       3    1396    1310     576
       3    1398    1357    1311
       3    1437    1398    1311
       3    1401    1360     637
       3    1482    1443    1359
       3    1399    1397    1313
       3    1397    1358    1313
       3    1315    1262    1263
       3    1361    1314    1316
       3    1439    1361    1402
       3    1316    1267    1268
       3    1315    1272    1262
       3    1325    1278    1323
       3    1323    1275    1314
       3    1319    1268    1269
       3    1410    1403    1362
       3    1324    1276    1279
       3    1364    1318    1362
       3    1318    1271    1272
       3    1350    1269    1273
       3    1386    1378    1343
       3    1320    1270    1271
       3    1350    1302    1300
       3    1448    1341    1381
       3    1409    1321    1365
       3    1321    1274    1270
       3    1438    1322    1368
       3    1325    1277    1278
       3    1366    1314    1361
       3    1369    1323    1366
       3    1327    1279    1308
       3    1394    1327    1385
       3    1368    1322    1325
       3    1325    1322    1277
       3    1412    1326    1411
       3    1333    1280    1288
       3    1385    1307    1355
       3    1394    1324    1327
       3    1390    1328    1376
       3    1328    1281    1252
       3    1332    1286    1293
       3    1423    1372    1413
       3    1382    1330    1348
       3    1373    1331    1330
       3    1374    1331    1373
       3    1331    1289    1282
       3    1343    1293    1298
       3    1378    1332    1343
       3    1342    1288    1303
       3    1380    1333    1342
       3    1334    1289    1331
       3    1375    1337    1334
       3    1338    1336    1290
       3    1351    1340    1285
       3    1336    1283    1290
       3    1381    1337    1375
       3    1337    1292    1294
       3    1377    1338    1335
       3    1379    1338    1377
       3    1389    1339    1372
       3    1339    1297    1287
       3    1351    1285    1283
       3    1383    1353    1306
       3    1341    1295    1292
       3    1349    1303    1296
       3    1380    1371    1333
       3    1346    1298    1301
       3    1378    1370    1332
       3    1408    1363    1319
       3    1344    1300    1295
       3    1345    1301    1299
       3    1405    1365    1403
       3    1346    1343    1298
       3    1346    1301    1345
       3    1388    1387    1349
       3    1347    1296    1281
       3    1353    1304    1306
       3    1382    1373    1330
       3    1387    1380    1342
       3    1349    1342    1303
       3    1350    1300    1344
       3    1384    1336    1379
       3    1392    1340    1351
       3    1424    1352    1389
       3    1352    1305    1297
       3    1383    1306    1340
       3    1391    1382    1348
       3    1395    1356    1354
       3    1354    1309    1266
       3    1355    1307    1258
       3    1427    1385    1355
       3    1437    1356    1395
       3    1356    1259    1309
       3    1357     958    1148
       3    1357    1209    1311
       3    1358     576    1310
       3    1358    1260    1313
       3    1443    1399    1359
       3    1359    1261    1312
       3    1445    1360     612
       3    1445    1400    1360
       3    1466    1406    1439
       3    1393    1315    1317
       3    1363    1316    1319
       3    1404    1402    1361
       3    1362    1318    1315
       3    1408    1319    1350
       3    1404    1363    1408
       3    1364    1320    1318
       3    1408    1350    1344
       3    1471    1381    1417
       3    1421    1414    1378
       3    1365    1321    1320
       3    1369    1368    1325
       3    1366    1323    1314
       3    1440    1394    1427
       3    1429    1393    1367
       3    1407    1368    1369
       3    1369    1325    1323
       3    1439    1406    1366
       3    1406    1369    1366
       3    1414    1413    1370
       3    1370    1329    1332
       3    1419    1371    1380
       3    1371    1411    1326
       3    1372    1339    1329
       3    1453    1413    1451
       3    1418    1373    1382
       3    1415    1374    1373
       3    1416    1375    1374
       3    1374    1334    1331
       3    1375    1334    1374
       3    1417    1381    1375
       3    1390    1388    1347
       3    1376    1328    1305
       3    1411    1377    1335
       3    1420    1379    1377
       3    1386    1343    1346
       3    1421    1378    1386
       3    1425    1379    1420
       3    1379    1336    1338
       3    1387    1342    1349
       3    1426    1380    1387
       3    1448    1447    1404
       3    1381    1341    1337
       3    1391    1348    1353
       3    1418    1415    1373
       3    1392    1351    1384
       3    1422    1391    1353
       3    1431    1384    1425
       3    1384    1351    1336
       3    1448    1344    1341
       3    1385    1327    1307
       3    1427    1355    1396
       3    1409    1386    1346
       3    1484    1403    1446
       3    1388    1349    1347
       3    1426    1419    1380
       3    1390    1347    1328
       3    1428    1426    1387
       3    1459    1389    1423
       3    1389    1352    1339
       3    1433    1376    1424
       3    1432    1428    1388
       3    1422    1353    1383
       3    1430    1418    1382
       3    1434    1383    1392
       3    1392    1383    1340
       3    1393    1362    1315
       3    1393    1317    1367
       3    1435    1396     576
       3    1394    1367    1324
       3    1514    1437    1395
       3    1438    1354    1322
       3    1396    1355    1310
       3    1435     576    1397
       3    1476    1474    1440
       3    1397     576    1358
       3    1481    1480    1398
       3    1480    1441    1398
       3    1399    1313    1359
       3    1478    1442    1399
       3    1445    1444    1400
       3    1400     636    1312
       3    1839      38      39
       3    1401     612    1360
       3    1523    1506    1488
       3    1410    1362    1393
       3    1473    1404    1447
       3    1404    1361    1363
       3    1403    1364    1362
       3    1484    1446    1522
       3    1403    1365    1364
       3    1405    1409    1365
       3    1449    1407    1406
       3    1407    1369    1406
       3    1475    1395    1438
       3    1475    1438    1407
       3    1408    1344    1448
       3    1409    1346    1345
       3    1440    1367    1394
       3    1450    1410    1429
       3    1436    1371    1419
       3    1486    1411    1436
       3    1412    1411    1335
       3    1413    1372    1370
       3    1487    1485    1451
       3    1456    1451    1414
       3    1414    1370    1378
       3    1457    1455    1415
       3    1455    1416    1415
       3    1416    1374    1415
       3    1417    1375    1416
       3    1430    1382    1391
       3    1523    1488    1500
       3    1461    1419    1426
       3    1472    1419    1461
       3    1494    1420    1454
       3    1460    1425    1420
       3    1405    1421    1386
       3    1434    1392    1431
       3    1458    1430    1391
       3    1459    1424    1389
       3    1423    1389    1372
       3    1433    1432    1390
       3    1424    1376    1352
       3    1447    1448    1381
       3    1381    1471    1447
       3    1464    1425    1460
       3    1425    1384    1379
       3    1428    1387    1388
       3    1463    1426    1428
       3    1440    1429    1367
       3    1427    1394    1385
       3    1432    1388    1390
       3    1463    1461    1426
       3    1450    1446    1410
       3    1429    1410    1393
       3    1458    1391    1422
       3    1462    1457    1418
       3    1468    1431    1464
       3    1431    1392    1384
       3    1433    1390    1376
       3    1465    1463    1428
       3    1469    1424    1459
       3    1467    1465    1432
       3    1470    1434    1468
       3    1434    1422    1383
       3    1479    1397    1442
       3    1516    1479    1511
       3    1569    1472    1530
       3    1437     959    1398
       3    1437    1311    1356
       3    1438    1395    1354
       3    1438    1368    1407
       3    1439    1366    1361
       3    1473    1452    1402
       3    1477    1427    1435
       3    1474    1450    1429
       3    1518     958    1441
       3    1441     958    1357
       3    1442    1397    1399
       3    1515    1511    1442
       3    1551    1482     636
       3    1582    1478    1443
       3    1444     636    1400
       3    1553    1519    1444
       3    1802    1445     612
       3    1445     613    1444
       3    1446    1403    1410
       3    1506    1471    1488
       3    1484    1456    1421
       3    1405    1484    1421
       3    1484    1405    1403
       3    1448    1404    1408
       3    1503    1500    1455
       3    1514    1513     959
       3    1405    1386    1409
       3    1474    1429    1440
       3    1451    1413    1414
       3    1485    1453    1451
       3    1452    1439    1402
       3    1506    1490    1452
       3    1492    1459    1423
       3    1453    1423    1413
       3    1494    1454    1486
       3    1454    1420    1377
       3    1455    1417    1416
       3    1457    1415    1418
       3    1484    1487    1456
       3    1456    1414    1421
       3    1462    1418    1430
       3    1526    1462    1491
       3    1470    1422    1434
       3    1491    1462    1430
       3    1492    1423    1453
       3    1469    1467    1433
       3    1527    1460    1494
       3    1497    1464    1460
       3    1496    1461    1463
       3    1508    1461    1496
       3    1491    1430    1458
       3    1556    1528    1495
       3    1465    1428    1432
       3    1498    1496    1463
       3    1499    1468    1464
       3    1464    1431    1425
       3    1467    1432    1433
       3    1501    1465    1467
       3    1466    1449    1406
       3    1466    1439    1452
       3    1469    1433    1424
       3    1501    1498    1465
       3    1507    1468    1499
       3    1468    1434    1431
       3    1504    1459    1492
       3    1509    1469    1504
       3    1507    1470    1468
       3    1470    1458    1422
       3    1488    1471    1417
       3    1530    1472    1508
       3    1472    1436    1419
       3    1473    1402    1404
       3    1473    1447    1471
       3    1476    1440    1427
       3    1510    1502    1450
       3    1514    1395    1475
       3    1475    1407    1449
       3    1477    1476    1427
       3    1529    1476    1489
       3    1479    1477    1435
       3    1539    1516    1511
       3    1478    1399    1443
       3    1579    1548    1578
       3    1479    1435    1397
       3    1511    1479    1442
       3    1481    1398     959
       3    1550    1518    1480
       3    1531    1514    1475
       3    1549    1481    1513
       3    1482    1359    1312
       3    1551     636    1520
       3    1552    1520    1483
       3    1483     636    1444
       3    1502    1446    1450
       3    1484    1522    1487
       3    1524    1492    1453
       3    1486    1454    1411
       3    1486    1436    1472
       3    1487    1451    1456
       3    1521    1487    1522
       3    1500    1417    1455
       3    1503    1457    1495
       3    1570    1521    1522
       3    1489    1476    1477
       3    1493    1466    1490
       3    1490    1466    1452
       3    1505    1491    1458
       3    1526    1495    1462
       3    1524    1453    1485
       3    1534    1492    1524
       3    1546    1493    1525
       3    1493    1449    1466
       3    1527    1497    1460
       3    1494    1460    1420
       3    1597    1541    1565
       3    1495    1457    1462
       3    1532    1496    1498
       3    1536    1496    1532
       3    1561    1497    1527
       3    1533    1499    1497
       3    1537    1532    1498
       3    1498    1463    1465
       3    1499    1464    1497
       3    1507    1505    1470
       3    1500    1488    1417
       3    1503    1455    1457
       3    1509    1467    1469
       3    1542    1501    1509
       3    1502    1522    1446
       3    1510    1450    1474
       3    1565    1541    1528
       3    1541    1503    1528
       3    1544    1504    1534
       3    1504    1469    1459
       3    1538    1526    1491
       3    1505    1458    1470
       3    1506    1452    1473
       3    1506    1473    1471
       3    1540    1507    1499
       3    1543    1507    1540
       3    1592    1530    1559
       3    1508    1472    1461
       3    1542    1537    1501
       3    1509    1501    1467
       3    1529    1510    1474
       3    1598    1594    1562
       3    1515    1442    1478
       3    1545    1516    1539
       3    1512    1449    1493
       3    1633    1610    1588
       3    1549    1517    1481
       3    1513    1481     959
       3    1514     959    1437
       3    1531    1475    1512
       3    1548    1478     600
       3    1547    1539    1511
       3    1516    1489    1477
       3    1516    1477    1479
       3    1608    1581    1550
       3    1517    1480    1481
       3    1730    1581    1723
       3    1518    1441    1480
       3    1553    1444     613
       3    1655    1631    1519
       3    1601    1582    1583
       3    1583    1551    1520
       3    1521    1485    1487
       3    1535    1502    1510
       3    1535    1522    1502
       3    1525    1490    1523
       3    1541    1500    1503
       3    1554    1485    1521
       3    1570    1535    1557
       3    1525    1493    1490
       3    1528    1503    1495
       3    1538    1491    1505
       3    1596    1590    1564
       3    1569    1494    1486
       3    1561    1533    1497
       3    1556    1495    1526
       3    1633    1588    1613
       3    1529    1474    1476
       3    1545    1489    1516
       3    1569    1555    1494
       3    1559    1508    1536
       3    1558    1512    1546
       3    1531    1513    1514
       3    1595    1566    1567
       3    1566    1536    1532
       3    1591    1533    1561
       3    1568    1540    1533
       3    1544    1542    1509
       3    1534    1504    1492
       3    1570    1522    1535
       3    1557    1510    1529
       3    1589    1536    1566
       3    1536    1508    1496
       3    1574    1567    1537
       3    1537    1498    1501
       3    1543    1538    1505
       3    1564    1556    1526
       3    1547    1511    1515
       3    1628    1621    1560
       3    1540    1499    1533
       3    1573    1543    1540
       3    1597    1523    1541
       3    1541    1523    1500
       3    1544    1509    1504
       3    1576    1542    1544
       3    1573    1572    1543
       3    1543    1505    1507
       3    1571    1534    1562
       3    1576    1544    1571
       3    1605    1598    1570
       3    1563    1489    1545
       3    1558    1531    1512
       3    1546    1512    1493
       3    1579    1515    1548
       3    1576    1574    1542
       3    1548    1515    1478
       3    1578    1548     600
       3    1575    1513    1558
       3    1577    1517    1549
       3    1580    1517    1577
       3    1608    1550    1580
       3    1582    1443    1551
       3    1551    1443    1482
       3    1609    1552     635
       3    1584    1583    1520
       3    1585    1553     613
       3    1734    1553     614
       3    1562    1524    1554
       3    1554    1524    1485
       3    1592    1587    1555
       3    1555    1527    1494
       3    1564    1526    1538
       3    1590    1588    1556
       3    1557    1535    1510
       3    1563    1557    1529
       3    1558    1513    1531
       3    1610    1546    1597
       3    1587    1561    1527
       3    1559    1530    1508
       3    1594    1571    1562
       3    1560    1539    1547
       3    1587    1527    1555
       3    1591    1568    1533
       3    1562    1534    1524
       3    1570    1562    1554
       3    1563    1529    1489
       3    1605    1545    1560
       3    1572    1564    1538
       3    1596    1572    1586
       3    1610    1597    1565
       3    1588    1528    1556
       3    1567    1566    1532
       3    1615    1566    1595
       3    1567    1532    1537
       3    1618    1567    1574
       3    1600    1568    1591
       3    1573    1568     599
       3    1569    1486    1472
       3    1569    1530    1555
       3    1570    1554    1521
       3    1605    1557    1563
       3    1599    1576    1571
       3    1571    1544    1534
       3    1572    1538    1543
       3    1586    1572    1573
       3    1573    1540    1568
       3    1586    1573     599
       3    1618    1574     577
       3    1574    1537    1542
       3    1616    1575    1593
       3    1575    1549    1513
       3    1599    1571    1594
       3    1617    1574    1576
       3    1606    1580    1577
       3    1603    1549    1575
       3    1667    1632    1651
       3    1607    1602    1579
       3    1638    1617    1599
       3    1579    1547    1515
       3    1630    1580    1606
       3    1580    1550    1517
       3    1723    1581     597
       3    1581    1518    1550
       3    1583    1582    1551
       3    1582     600    1478
       3    1584    1520    1552
       3    1604    1601    1583
       3    1609    1584    1552
       3    1629    1584    1609
       3    1795    1754    1585
       3    1748    1737     614
       3    1612    1586     599
       3    1626    1603    1616
       3    1611    1592    1559
       3    1636    1587    1592
       3    1588    1565    1528
       3    1590    1556    1564
       3    1635    1589    1615
       3    1589    1559    1536
       3    1596    1564    1572
       3    1620    1613    1590
       3    1614    1561    1587
       3    1623    1600    1591
       3    1592    1555    1530
       3    1611    1559    1589
       3    1593    1575    1558
       3    1593    1558    1546
       3    1598    1562    1570
       3    1621    1599    1594
       3    1618    1595    1567
       3    1641    1615    1595
       3    1622    1586    1612
       3    1622    1620    1596
       3    1597    1546    1525
       3    1597    1525    1523
       3    1605    1570    1557
       3    1621    1598    1605
       3    1602    1560    1547
       3    1617    1576    1599
       3    1682    1680    1656
       3    1600     599    1568
       3    1632    1601    1604
       3    1601     600    1582
       3    1602    1547    1579
       3    1607    1579    1578
       3    1644    1616    1633
       3    1603    1577    1549
       3    1604    1583    1584
       3    1632    1625    1578
       3    1605    1563    1545
       3    1621    1605    1560
       3    1630    1606     598
       3    1626    1577    1603
       3    1625    1607    1578
       3    1643    1617    1638
       3    1630    1608    1580
       3    1738    1581    1608
       3    1672    1668     635
       3    1653    1629    1609
       3    1610    1565    1588
       3    1610    1593    1546
       3    1662    1636    1611
       3    1636    1592    1611
       3    1619     599    1600
       3    1640    1612    1637
       3    1613    1588    1590
       3    1620    1590    1596
       3    1646    1614    1636
       3    1614    1591    1561
       3    1657    1615    1641
       3    1615    1589    1566
       3    1616    1603    1575
       3    1633    1616    1593
       3    1617     577    1574
       3    1638    1628    1627
       3    1664    1643    1627
       3    1642    1618    1634
       3    1639    1600    1623
       3    1648     598    1624
       3    1622    1596    1586
       3    1652    1626    1644
       3    1621    1594    1598
       3    1628    1560    1602
       3    1637    1612    1619
       3    1661    1640    1656
       3    1623    1591    1614
       3    1663    1639    1623
       3    1624     598    1606
       3    1626    1624    1606
       3    1632    1578    1601
       3    1677    1673    1659
       3    1644    1626    1616
       3    1626    1606    1577
       3    1627    1602    1607
       3    1647    1607    1625
       3    1628    1602    1627
       3    1628    1599    1621
       3    1651    1629     601
       3    1629    1604    1584
       3    1649    1630     598
       3    1650    1630    1649
       3    1631     635    1552
       3    1631    1483    1519
       3    1651    1632    1604
       3    1699    1667    1665
       3    1633    1593    1610
       3    1644    1633    1613
       3    1642    1641    1595
       3    1634    1618     577
       3    1679    1662    1657
       3    1635    1611    1589
       3    1636    1614    1587
       3    1662    1611    1635
       3    1660    1619    1639
       3    1680    1670    1648
       3    1643    1638    1627
       3    1638    1599    1628
       3    1674    1660    1639
       3    1639    1619    1600
       3    1661    1645    1640
       3    1640    1622    1612
       3    1675    1641    1658
       3    1642    1595    1618
       3    1659    1658    1642
       3    1658    1641    1642
       3    1643     577    1617
       3    1664    1627    1647
       3    1644    1613    1620
       3    1645    1644    1620
       3    1645    1620    1622
       3    1645    1622    1640
       3    1679    1646    1662
       3    1646    1623    1614
       3    1647    1627    1607
       3    1666    1625    1654
       3    1670    1649    1648
       3    1676    1661    1656
       3    1649     598    1648
       3    1689    1669    1683
       3    1684    1650    1669
       3    1650    1608    1630
       3    1651    1604    1629
       3    1665    1651     601
       3    1652    1624    1626
       3    1652    1644    1645
       3    1685    1653    1668
       3    1653     601    1629
       3    1678    1666    1654
       3    1654    1625    1632
       3    1700    1672    1686
       3    1655     635    1631
       3    1656    1640    1637
       3    1682    1637    1660
       3    1679    1663    1646
       3    1657    1635    1615
       3    1687    1658    1673
       3    1659    1642    1634
       3    1664    1659    1634
       3    1677    1664    1647
       3    1703    1682    1695
       3    1660    1637    1619
       3    1661    1624    1652
       3    1661    1652    1645
       3    1662    1646    1636
       3    1662    1635    1657
       3    1690    1674    1663
       3    1663    1623    1646
       3    1664    1634    1643
       3    1677    1647    1666
       3    1681     601    1671
       3    1692    1687    1673
       3    1666    1647    1625
       3    1678    1673    1677
       3    1667    1654    1632
       3    1667    1651    1665
       3    1668    1609     635
       3    1709    1697    1685
       3    1683    1649    1670
       3    1693    1669    1689
       3    1680    1648    1676
       3    1688    1683    1670
       3    1696    1681    1671
       3    1671     601    1653
       3    1712    1698    1672
       3    1672     635    1655
       3    1687    1675    1658
       3    1673    1658    1659
       3    1674    1639    1663
       3    1714    1708     578
       3    1691    1679    1675
       3    1675    1657    1641
       3    1680    1676    1656
       3    1676    1648    1624
       3    1677    1659    1664
       3    1678    1677    1666
       3    1699    1654    1667
       3    1694    1665    1681
       3    1679    1657    1675
       3    1691    1690    1679
       3    1682    1656    1637
       3    1717    1695    1713
       3    1699    1692    1678
       3    1681    1665     601
       3    1682    1660    1674
       3    1695    1682    1674
       3    1689    1683    1688
       3    1683    1669    1649
       3    1745    1684    1693
       3    1738    1684     597
       3    1698    1685    1668
       3    1709    1685    1698
       3    1734    1686    1655
       3    1711    1700    1686
       3    1692    1673    1678
       3    1691    1687     578
       3    1705    1670    1680
       3    1719    1688     579
       3    1719    1704    1689
       3    1704    1693    1689
       3    1690    1663    1679
       3    1702    1695    1674
       3    1691    1675    1687
       3    1708    1691     578
       3    1706    1699    1694
       3    1692     578    1687
       3    1745    1736    1701
       3    1693    1684    1669
       3    1707    1694    1681
       3    1716    1694    1707
       3    1702    1674    1690
       3    1715    1688    1705
       3    1721    1720    1696
       3    1720    1707    1696
       3    1721    1697     602
       3    1697    1671    1685
       3    1698    1668    1672
       3    1718    1698    1712
       3    1699    1678    1654
       3    1699    1665    1694
       3    1724    1700    1711
       3    1712    1700     634
       3    1722     596    1710
       3    1701     597    1684
       3    1708    1702    1690
       3    1713    1702    1708
       3    1717    1715    1705
       3    1703    1680    1682
       3    1726    1719     579
       3    1745    1704     580
       3    1705    1688    1670
       3    1705    1680    1703
       3    1706     578    1692
       3    1706    1692    1699
       3    1707    1681    1696
       3    1739    1728    1732
       3    1708    1690    1691
       3    1714    1713    1708
       3    1718    1709    1698
       3    1755    1697    1709
       3    1735    1723    1710
       3    1710     597    1701
       3    1734    1725    1686
       3    1724    1711     615
       3    1712    1672    1700
       3    1718    1712     634
       3    1732    1728    1729
       3    1713    1695    1702
       3    1733    1706    1716
       3    1732    1729    1715
       3    1715     579    1688
       3    1717    1705    1703
       3    1716    1706    1694
       3    1728    1716    1707
       3    1717    1703    1695
       3    1732    1713    1714
       3    1731    1718     634
       3    1774    1743    1751
       3    1719    1689    1688
       3    1740     579    1729
       3    1727    1720    1721
       3    1740    1729    1728
       3    1721    1696    1697
       3    1763    1740    1727
       3    1736    1722    1701
       3    1752    1722    1746
       3    1744     958    1730
       3    1744    1730    1723
       3    1786    1742    1750
       3    1724     634    1700
       3    1748     614    1585
       3    1725     615    1711
       3    1763    1741    1762
       3    1757    1719    1726
       3    1727    1721     602
       3    1741    1727     602
       3    1728    1707    1720
       3    1740    1728    1720
       3    1729     579    1715
       3    1732    1715    1717
       3    1730     958    1518
       3    1730    1518    1581
       3    1742     634    1724
       3    1751    1743    1731
       3    1732    1717    1713
       3    1739    1714    1733
       3    1733    1714     578
       3    1733     578    1706
       3    1734    1519    1553
       3    1734     614    1725
       3    1747    1735     596
       3    1747    1744    1735
       3    1745    1701    1684
       3    1773    1758    1760
       3    1806    1737     640
       3    1806    1796    1798
       3    1738     597    1581
       3    1738    1608    1650
       3    1739    1716    1728
       3    1739    1732    1714
       3    1740    1720    1727
       3    1740    1726     579
       3    1755    1749     602
       3    1771    1756     603
       3    1750    1742    1724
       3    1789    1742    1786
       3    1789    1751    1731
       3    1756    1749    1743
       3    1744    1723    1735
       3    1800    1744     957
       3    1745    1693    1704
       3    1745     580    1736
       3    1752    1746     581
       3    1746    1722    1736
       3    1843    1747    1794
       3    1747     957    1744
       3    1754    1748    1585
       3    1748     640    1737
       3    1749    1741     602
       3    1755     602    1697
       3    1759    1724     615
       3    1803    1786     616
       3    1778    1777    1776
       3    1774    1756    1743
       3    1766    1761     581
       3    1752     596    1722
       3    1771    1753    1762
       3    1753     580    1704
       3    1795    1585     613
       3    1804    1754     639
       3    1755    1709    1718
       3    1755    1743    1749
       3    1771    1762    1756
       3    1756    1741    1749
       3    1763    1762    1757
       3    1763    1757    1726
       3    1770    1768    1760
       3    1758     580    1753
       3    1764    1759     615
       3    1759     616    1750
       3    1768    1765    1760
       3    1773    1760    1746
       3    1805    1761     582
       3    1805    1794    1801
       3    1762    1753    1757
       3    1762    1741    1756
       3    1763    1726    1740
       3    1763    1727    1741
       3    1796    1764     615
       3    1847    1764    1796
       3    1797    1766    1767
       3    1765     581    1760
       3    1766     582    1761
       3    1766     581    1765
       3    1767    1765     604
       3    1797    1767     605
       3    1770    1769    1768
       3    1768     604    1765
       3    1778    1776    1769
       3    1776    1772    1769
       3    1771    1770    1758
       3    1770     603    1769
       3    1771     603    1770
       3    1771    1758    1753
       3    1779    1775    1772
       3    1772     604    1769
       3    1773    1746    1736
       3    1773     580    1758
       3    1774     603    1756
       3    1777    1751     633
       3    1930    1783    1785
       3    1930    1767    1775
       3    1778    1769     603
       3    1781    1776    1777
       3    1777    1774    1751
       3    1781    1777     633
       3    1778     603    1774
       3    1778    1774    1777
       3    1780    1779     632
       3    1783    1779    1780
       3    1784    1780     632
       3    1791     631    1780
       3    1786    1782     633
       3    1781     632    1776
       3    1803    1790    1788
       3    1788    1784    1787
       3    1785    1783     631
       3    1783    1775    1779
       3    1787    1784     632
       3    1937     617    1845
       3    1848    1793     630
       3    1930    1785     605
       3    1789    1786     633
       3    1786    1750     616
       3    1787     632    1781
       3    1788    1787    1782
       3    1803    1788    1782
       3    1788     617    1784
       3    1789     633    1751
       3    1789    1731    1742
       3    1799    1790     616
       3    1846    1790    1799
       3    1849    1791     618
       3    1791    1780    1784
       3    1939    1845     643
       3    1792     617    1790
       3    1849     631    1791
       3    1934    1848     630
       3    1801    1794     596
       3    1843    1794     595
       3    1850    1802    1833
       3    1795     639    1754
       3    1798     615    1725
       3    1847    1796     641
       3    1924    1841    1797
       3    1797     582    1766
       3    1798    1725    1737
       3    1806    1798    1737
       3    1846    1799     642
       3    1799     616    1764
       3    1800     958    1744
       3    1852    1800     957
       3    1801     596    1752
       3    1805    1801    1761
       3    1802     613    1445
       3    1833    1802     612
       3    1803    1782    1786
       3    1803     616    1790
       3    1851    1804     639
       3    1927    1804    1851
       3    1940     582    1841
       3    1805     595    1794
       3    1842    1806     640
       3    1806     641    1796
       3    1807     949     948
       3    1807     948      90
       3    1856    1808     938
       3    1809    1808      77
       3    1809     939    1808
       3    1809      78     940
       3    1855    1810     941
       3    1920    1810      81
       3    1811     944      84
       3    1811      85     945
       3    1854    1812     946
       3    1813    1812      88
       3    1813     947    1812
       3    1813      89     948
       3    1858    1814      95
       3    1916    1814     923
       3    1860    1815     102
       3    1912    1815     858
       3    1816     107     108
       3    1918    1816     806
       3    1817     114     115
       3    1908    1817     741
       3    1818     121     122
       3    1905    1818     676
       3    1819     124     125
       3    1919    1819     650
       3    1820     128     129
       3    1903    1820     611
       3    1821     131     132
       3    1902    1821     589
       3    1900    1822     767
       3    1898    1822     780
       3    1823     105     832
       3    1910    1823     832
       3    1914    1824     897
       3    1824     910      97
       3    1907    1825     729
       3    1880    1825     716
       3    1826      47     703
       3    1906    1826     703
       3    1904    1827     664
       3    1871    1827     651
       3    1828      56      57
       3    1909    1828     794
       3    1829      68     898
       3    1915    1829     898
       3    1830      71     924
       3    1917    1830     924
       3    1831      61     833
       3    1911    1831     833
       3    1832      64     859
       3    1913    1832     859
       3    1850    1833     638
       3    1839    1833     612
       3    1901    1834     768
       3    1896    1834     755
       3    1836    1835     955
       3    1921    1835     143
       3    1882    1836     954
       3    1836     142    1835
       3    1838    1837     952
       3    1837     139     953
       3    1838     951     137
       3    1838     138    1837
       3    1839      39    1833
       3    1839     612    1401
       3    1840     951     950
       3    1840     950     135
       3    2010    1841    1924
       3    1940    1844     582
       3    1853    1842     640
       3    1935    1922    1842
       3    1891     595    1844
       3    1928    1843     956
       3    1998    1844    1940
       3    1891    1844     594
       3    2017    1845    1939
       3    2017    1937    1845
       3    1929    1846     642
       3    1846    1792    1790
       3    1926     641    1922
       3    1847     642    1799
       3    1924    1848     606
       3    1848    1785    1793
       3    1936    1849     618
       3    1938    1849    1936
       3    1923    1850     638
       3    1850     639    1795
       3    1923    1851     639
       3    1927    1851     652
       3    1928    1921     957
       3    1852     144     145
       3    1935    1853     653
       3    1853     640    1804
       3    1854     946     945
       3    1854     945      85
       3    1855     941     940
       3    1855     940      79
       3    1856     938     937
       3    1856     937      75
       3    1857     113     754
       3    1857     754     767
       3    1858      96     910
       3    1858     910     923
       3    1859      99     884
       3    1949    1859     884
       3    1860     103     845
       3    1860     845     858
       3    1861     106     819
       3    1951    1861     819
       3    1862     120     121
       3    1862     689     702
       3    1863     123     124
       3    1863     663     676
       3    1864     127     128
       3    1959    1864     625
       3    1865     130     131
       3    1865     588     611
       3    1866     116     728
       3    1953    1866     728
       3    1867     109     793
       3    1952    1867     793
       3    1966    1868     871
       3    1868     884     100
       3    1869     936     949
       3    1869     949      93
       3    1980    1870     690
       3    1870     677      45
       3    1925    1871     638
       3    1871      41      42
       3    1872      55     781
       3    1872     781     768
       3    1873      59      60
       3    1965    1873     820
       3    1874      62      63
       3    1874     846     833
       3    1875      65     872
       3    1946    1875     872
       3    1948    1876     937
       3    1876     924      71
       3    1877      58     807
       3    1944    1877     807
       3    1967    1878     885
       3    1878     872      66
       3    1879     911     898
       3    1879     898      69
       3    1880     716     703
       3    1880     703      48
       3    1881     729      50
       3    1881      51     742
       3    1882     954     953
       3    1882     953     140
       3    1883     935     948
       3    1883     949     936
       3    1884     934     947
       3    1884     948     935
       3    1885     931     944
       3    1991    1885     945
       3    1886     928     941
       3    1886     942     929
       3    1887     925     938
       3    1887     939     926
       3    1888     589     950
       3    1888     951     590
       3    1889     590     951
       3    1889     952     591
       3    1972    1890     593
       3    1890     955     594
       3    1891     594     955
       3    1891     955    1835
       3    1892     933     946
       3    1892     947     934
       3    1893     926     939
       3    1994    1893     940
       3    1894     591     952
       3    1894     953    1972
       3    1895     126     624
       3    1955    1895     624
       3    1977    1896     755
       3    1896     742      52
       3    1897      44     677
       3    1960    1897     677
       3    1941    1898     780
       3    1898     793     110
       3    1899     133     950
       3    1899     950     589
       3    1900     780    1822
       3    1976    1900     766
       3    1978    1901     769
       3    1901     756     755
       3    1902     588    1821
       3    1957    1902     590
       3    1903     625    1820
       3    1979    1903     610
       3    1904     651    1827
       3    1933    1904     665
       3    1905     689    1818
       3    1932    1905     675
       3    1906     690    1826
       3    1981    1906     704
       3    1907     716    1825
       3    1982    1907     730
       3    1908     754    1817
       3    1983    1908     740
       3    1909     781    1828
       3    1984    1909     795
       3    1910     845    1823
       3    1985    1910     831
       3    1911     820    1831
       3    1986    1911     834
       3    1912     871    1815
       3    1987    1912     857
       3    1913     846    1832
       3    1988    1913     860
       3    1914     910    1824
       3    1989    1914     896
       3    1915     885    1829
       3    1990    1915     899
       3    1971    1916     922
       3    1916     935    1883
       3    1917     911    1830
       3    1968    1917     925
       3    1918     819    1816
       3    1995    1918     805
       3    1919     663    1819
       3    1931    1919     649
       3    1920     943     942
       3    1920     942    1810
       3    1921     956    1835
       3    1921     144    1852
       3    2001    1926    1999
       3    1922     641    1842
       3    1923     638     651
       3    2002    1923     651
       3    1924     605    1848
       3    2010    1924     606
       3    1925     638    1833
       3    1925      40      41
       3    1926     642    1847
       3    1926    1847     641
       3    1933    1927     652
       3    1927     653    1853
       3    1928     956    1921
       3    1928     957    1747
       3    2001    1929     642
       3    2003    1929    2001
       3    1930     605    1767
       3    1930    1775    1783
       3    2018    1931     648
       3    1931     662    1919
       3    2019    1932     674
       3    1932     688    1905
       3    2136    2069    1933
       3    1933     652    1904
       3    2150    1934     629
       3    1934     606    1848
       3    2000    1935     653
       3    1935     654    1922
       3    2017    1996     618
       3    1938    1936     619
       3    1937     618    1791
       3    1937    1791     617
       3    2066    1997     619
       3    1938     630    1849
       3    2004    1939     643
       3    2017    1939     644
       3    1940    1841     583
       3    1998    1940     583
       3    1941     793    1898
       3    2038    1941     779
       3    1942     909     922
       3    1942     923     910
       3    1943     743     730
       3    1943     729    1881
       3    1944     808     795
       3    1944     794    1877
       3    1945     847     834
       3    1945     833     846
       3    1946     873     860
       3    1946     859    1875
       3    1947     912     899
       3    1947     898     911
       3    1948     924    1876
       3    1948     937     938
       3    1949     883     896
       3    1949     897    1859
       3    1950     844     857
       3    1950     858     845
       3    1951     818     831
       3    1951     832    1861
       3    1952     792     805
       3    1952     806    1867
       3    1953     727     740
       3    1953     741    1866
       3    2013    1954     662
       3    1954     676     663
       3    2012    1955     623
       3    1955     650    1895
       3    1956     587     610
       3    1956     611     588
       3    1957     587    1902
       3    1973    1957     591
       3    2034    1958     584
       3    1998    1958     594
       3    1959     624    1864
       3    2035    1959     626
       3    1980    1960     677
       3    2014    1960     678
       3    1961     702     689
       3    2015    1961     688
       3    1962     716    1907
       3    1962     717     704
       3    1963     767     754
       3    1963     754    1908
       3    2022    1964     782
       3    1964     769     768
       3    1965     807    1873
       3    2039    1965     821
       3    1966     884    1868
       3    2040    1966     870
       3    1967     872    1878
       3    2041    1967     886
       3    1968     912    1917
       3    1974    1968     926
       3    2045    1969     915
       3    1969     929     916
       3    1970     918     931
       3    1970     932     919
       3    1971     921     934
       3    1971     935    1916
       3    1894    1972     592
       3    1972     954    1890
       3    1973     586    1957
       3    1973     592     585
       3    1974     913    1968
       3    1974     927     914
       3    2048    1975     920
       3    1975     934     921
       3    1976     779    1900
       3    2008    1976     765
       3    2053    1977     756
       3    1977     743    1943
       3    2005    1978     770
       3    1978     757     756
       3    1979     626    1903
       3    2006    1979     609
       3    1980     677    1870
       3    2016    1980     691
       3    1981     691    1906
       3    2011    1981     705
       3    1982     717    1907
       3    2007    1982     731
       3    1983     753    1908
       3    2009    1983     739
       3    2052    1984     796
       3    1984     783     782
       3    1985     844    1910
       3    2054    1985     830
       3    1986     821    1911
       3    2055    1986     835
       3    1987     870    1912
       3    2056    1987     856
       3    1988     847    1913
       3    2057    1988     861
       3    1989     909    1914
       3    2058    1989     895
       3    1990     886    1915
       3    2059    1990     900
       3    1991     932    1885
       3    1991     945     946
       3    1993    1992     930
       3    1992     943     944
       3    1993     929     942
       3    1993     943    1992
       3    1994     927    1893
       3    1994     940     941
       3    1995     818    1918
       3    2060    1995     804
       3    2067    1996    2017
       3    2066    1996     645
       3    2121    1997     620
       3    2121    2071    1997
       3    1998     583    1958
       3    1998     594    1844
       3    1999    1922     654
       3    2001    1999     655
       3    2189    2134    2000
       3    2069    2000     653
       3    2001     642    1926
       3    2068    2003    2001
       3    2002     651    1904
       3    2002     652    1851
       3    2087    2004     656
       3    2003     643    1929
       3    2004     643    2003
       3    2087    2082    2004
       3    2090    2005     771
       3    2005     757    1978
       3    2092    2006     608
       3    2006     627    1979
       3    2007     718    1982
       3    2007     731     732
       3    2008     778    1976
       3    2008     765     764
       3    2094    2009     738
       3    2009     752    1983
       3    2061     606    1934
       3    2010     583    1841
       3    2219    2011     706
       3    2011     692    1981
       3    2012     622     648
       3    2012     649    1955
       3    2013     661     674
       3    2013     675    1954
       3    2170    2136    2014
       3    2014     665    1960
       3    2096    2015     687
       3    2015     701    1961
       3    2095    2016     692
       3    2016     678    1980
       3    2067    2017     644
       3    2017     618    1937
       3    2064    2063    2018
       3    2018     661    1931
       3    2062    2019     674
       3    2019     687    1932
       3    2020     766     753
       3    2084    2020     752
       3    2080    2021     726
       3    2021     740     727
       3    2022     769    1964
       3    2106    2022     783
       3    2023     809     796
       3    2023     795     808
       3    2079    2024     744
       3    2024     730     743
       3    2025     848     835
       3    2025     834     847
       3    2026     874     861
       3    2026     860     873
       3    2050    2027     913
       3    2027     899     912
       3    2028     882     895
       3    2028     896     883
       3    2029     843     856
       3    2029     857     844
       3    2030     817     830
       3    2030     831     818
       3    2078    2031     791
       3    2031     805     792
       3    2077    2032     714
       3    2032     728     715
       3    2049    2033     586
       3    2033     610     587
       3    2034     585     592
       3    2034     593    1958
       3    2035     623    1959
       3    2083    2035     627
       3    2081    2036     718
       3    2036     704     717
       3    2037     715     702
       3    2089    2037     701
       3    2038     792    1941
       3    2085    2038     778
       3    2039     808    1965
       3    2110    2039     822
       3    2040     883    1966
       3    2111    2040     869
       3    2041     873    1967
       3    2112    2041     887
       3    2042     922     909
       3    2042     909    1989
       3    2099    2043     902
       3    2043     916     903
       3    2044     905     918
       3    2044     919     906
       3    2045     914     927
       3    2045     928    1969
       3    2046     916     929
       3    2047    2046     930
       3    2047     917    2046
       3    2047     931     918
       3    2048     919     932
       3    2048     933    1975
       3    2049     609    2033
       3    2088    2049     585
       3    2050     900    2027
       3    2050     914     901
       3    2102    2051     907
       3    2051     921     908
       3    2052     783    1984
       3    2075    2052     797
       3    2053     744    2024
       3    2053     743    1977
       3    2054     843    1985
       3    2074    2054     829
       3    2055     822    1986
       3    2073    2055     836
       3    2056     869    1987
       3    2114    2056     855
       3    2057     848    1988
       3    2115    2057     862
       3    2058     908    1989
       3    2113    2058     894
       3    2059     887    1990
       3    2116    2059     901
       3    2060     817    1995
       3    2076    2060     803
       3    2145    2070    2061
       3    2145    2061     607
       3    2151    2062     673
       3    2151    2065    2062
       3    2152    2063    2064
       3    2137    2063     660
       3    2064    2018     648
       3    2152    2064     647
       3    2131    2065     686
       3    2065    2019    2062
       3    2177    2066    2135
       3    2066     619    1996
       3    2119     644    2082
       3    2067     645    1996
       3    2122    2068     655
       3    2068     656    2003
       3    2069     666    2000
       3    2069     653    1927
       3    2070     584    1958
       3    2070     583    2010
       3    2071     629    1934
       3    2071     630    1938
       3    2134    2072     654
       3    2166    2133    2072
       3    2146    2073     837
       3    2073     823    2055
       3    2147    2074     828
       3    2074     842    2054
       3    2148    2075     798
       3    2075     784    2052
       3    2149    2076     802
       3    2076     816    2060
       3    2077     713     726
       3    2077     727    2032
       3    2078     790     803
       3    2078     804    2031
       3    2079     745     732
       3    2079     731    2024
       3    2080     739    2021
       3    2080     726     725
       3    2081     719     706
       3    2081     705    2036
       3    2207     657    2176
       3    2082     644    2004
       3    2083     628     621
       3    2083     622    2035
       3    2084     751     764
       3    2084     765    2020
       3    2085     777     790
       3    2085     791    2038
       3    2086     757     758
       3    2086     758     745
       3    2188    2118     656
       3    2087     657    2082
       3    2145    2088     584
       3    2088     608    2049
       3    2089     700     713
       3    2089     714    2037
       3    2175    2090     771
       3    2090     758    2005
       3    2091     777    2008
       3    2192    2127     764
       3    2132     608    2088
       3    2092     628    2006
       3    2093     719    2007
       3    2193    2130     732
       3    2197    2126     738
       3    2094     751    2009
       3    2179    2095     692
       3    2095     679    2016
       3    2131     687    2065
       3    2096     700    2015
       3    2116    2097     889
       3    2097     903     890
       3    2098     892     905
       3    2113    2098     906
       3    2099     901     914
       3    2099     915    2043
       3    2100     903     916
       3    2101    2100     917
       3    2101     904    2100
       3    2101     918     905
       3    2102     906     919
       3    2102     920    2051
       3    2103     881     894
       3    2103     895     882
       3    2104     849     836
       3    2104     835     848
       3    2105     875     862
       3    2105     861     874
       3    2106     770    2022
       3    2143    2106     784
       3    2140    2107     842
       3    2107     856     843
       3    2141    2108     816
       3    2108     830     817
       3    2142    2109     810
       3    2109     796     809
       3    2110     809    2039
       3    2144    2110     823
       3    2111     882    2040
       3    2156    2111     868
       3    2112     874    2041
       3    2158    2112     888
       3    2113     907    2058
       3    2113     893    2098
       3    2114     868    2056
       3    2139    2114     854
       3    2115     849    2057
       3    2164    2115     863
       3    2116     888    2059
       3    2116     902    2097
       3    2117     117     118
       3    2117     715     728
       3    2215    2118    2188
       3    2176    2118     670
       3    2165    2119    2120
       3    2119     645    2067
       3    2120    2082     657
       3    2165    2120     658
       3    2169     620     621
       3    2121     629    2071
       3    2133    2122     655
       3    2208    2188    2122
       3    2150    2123    2132
       3    2169    2123     629
       3    2216    2124     693
       3    2180    2124     680
       3    2191    2125    2130
       3    2181    2125     720
       3    2168    2126     737
       3    2168    2129    2126
       3    2167    2127     763
       3    2167    2128    2127
       3    2196    2128     776
       3    2128    2091    2127
       3    2192    2129     750
       3    2129    2094    2126
       3    2130    2093     732
       3    2191    2130     733
       3    2277    2131     686
       3    2182    2131     699
       3    2132    2092     608
       3    2150    2132     607
       3    2208    2133     668
       3    2133     655    2072
       3    2134     654    2000
       3    2166    2134     667
       3    2201     645    2165
       3    2177    2135     646
       3    2136     666    2069
       3    2136     665    2014
       3    2178    2137     660
       3    2137     674     661
       3    2138     648     622
       3    2138     621     647
       3    2190    2139     853
       3    2139     867    2114
       3    2140     841     854
       3    2140     855    2107
       3    2141     815     828
       3    2141     829    2108
       3    2142     811     798
       3    2142     797    2109
       3    2143     785     772
       3    2143     771    2106
       3    2144     824     811
       3    2144     810    2110
       3    2145     584    2070
       3    2145     607    2088
       3    2204    2146     837
       3    2146     824    2073
       3    2221    2147     828
       3    2147     841    2074
       3    2223    2174     798
       3    2148     785    2075
       3    2185    2172     802
       3    2149     815    2076
       3    2150     629    2123
       3    2150     607    1934
       3    2264     672    2256
       3    2151     686    2065
       3    2201    2152     646
       3    2152     660    2063
       3    2184    2153     850
       3    2153     836     849
       3    2154     876     863
       3    2154     862     875
       3    2185    2155     789
       3    2155     803     790
       3    2156     881    2111
       3    2187    2156     867
       3    2157     894     881
       3    2157     881    2156
       3    2158     875    2112
       3    2159    2158     889
       3    2159     876    2158
       3    2159     890     877
       3    2160     879     892
       3    2160     893     880
       3    2161     890     903
       3    2162    2161     904
       3    2162     891    2161
       3    2162     905     892
       3    2186    2163     712
       3    2163     726     713
       3    2164     850    2115
       3    2183    2164     864
       3    2239    2201    2165
       3    2165     645    2119
       3    2231     667    2205
       3    2166     668    2133
       3    2167     776    2128
       3    2167     763     762
       3    2305    2168     737
       3    2305    2304    2168
       3    2169     621     628
       3    2169     628    2123
       3    2180     679    2124
       3    2170     666    2136
       3    2218    2171    2174
       3    2222    2171     786
       3    2203    2172     801
       3    2203    2173    2172
       3    2224    2173     814
       3    2173    2149    2172
       3    2174    2148     798
       3    2218    2174     799
       3    2209    2175     772
       3    2175     759     758
       3    2244    2207    2176
       3    2176     657    2118
       3    2202     646     647
       3    2177     620    1997
       3    2262    2178     660
       3    2178     673    2137
       3    2179     692    2011
       3    2179     693    2124
       3    2205    2180     680
       3    2180     666    2170
       3    2251    2181     720
       3    2181     706     719
       3    2206    2182     699
       3    2182     713     700
       3    2217    2183     865
       3    2183     851    2164
       3    2184     851     838
       3    2184     837    2153
       3    2185     788     801
       3    2185     802    2155
       3    2186     725    2163
       3    2315    2186     712
       3    2187     880    2156
       3    2187     867     866
       3    2215    2188     669
       3    2188     656    2122
       3    2189     667    2134
       3    2189     666    2180
       3    2190     866    2139
       3    2190     853     852
       3    2191     720    2125
       3    2300    2191     733
       3    2213    2192     750
       3    2192     764     751
       3    2214    2193     746
       3    2193     732     745
       3    2194     877     864
       3    2194     863     876
       3    2211    2195     840
       3    2195     854     841
       3    2212    2196     776
       3    2196     790     777
       3    2307    2197     724
       3    2197     738     725
       3    2198     877     890
       3    2199    2198     891
       3    2199     878    2198
       3    2199     892     879
       3    2200     746     745
       3    2200     745     758
       3    2201     659    2152
       3    2201    2135     645
       3    2202     620    2177
       3    2202     647     621
       3    2203     800     813
       3    2203     814    2173
       3    2234    2204     838
       3    2204     825     824
       3    2248    2231    2205
       3    2205     667    2180
       3    2316    2315    2206
       3    2206     712    2182
       3    2244    2228    2207
       3    2207     658    2120
       3    2231    2230     668
       3    2208     669    2188
       3    2209     773     760
       3    2209     759    2175
       3    2210     759     760
       3    2241    2210     760
       3    2211     839     852
       3    2211     853    2195
       3    2212     775     788
       3    2212     789    2196
       3    2213     750     749
       3    2306    2213     749
       3    2214     747     734
       3    2214     733    2193
       3    2250     669    2208
       3    2215     670    2118
       3    2246    2216     693
       3    2216     680    2124
       3    2217     852    2183
       3    2217     865    2190
       3    2218     800     787
       3    2218     786    2171
       3    2233     706    2181
       3    2219     693    2011
       3    2226    2220     878
       3    2220     864     877
       3    2240    2221     827
       3    2221     840    2195
       3    2222     772     785
       3    2238    2222     786
       3    2236    2223     812
       3    2223     798     811
       3    2224     828     815
       3    2237    2224     814
       3    2225     852     839
       3    2225     839    2234
       3    2226     865    2220
       3    2226     879     866
       3    2227     811     824
       3    2235    2227     825
       3    2253    2249     672
       3    2228     658    2207
       3    2269    2229     682
       3    2269    2266    2229
       3    2259    2250    2230
       3    2259    2230     681
       3    2231     681    2230
       3    2231     668    2166
       3    2245    2232    2233
       3    2246    2232     694
       3    2233    2219     706
       3    2245    2233     707
       3    2234     839     826
       3    2234     825    2204
       3    2254    2235     826
       3    2235     812    2227
       3    2236     813     800
       3    2236     799    2223
       3    2254    2237     813
       3    2237     827    2224
       3    2238     787     774
       3    2238     773    2222
       3    2239     658    2228
       3    2239     659    2201
       3    2240     826     839
       3    2240     840    2221
       3    2258    2241     760
       3    2241     747    2210
       3    2242     787     800
       3    2242     801     788
       3    2243     775     762
       3    2252    2243     761
       3    2260    2244     670
       3    2244     671    2228
       3    2285    2282    2245
       3    2245     694    2232
       3    2257    2246     694
       3    2248    2246     681
       3    2267    2247    2258
       3    2261    2247     748
       3    2248     680    2216
       3    2248     681    2231
       3    2265    2256     671
       3    2262    2253     672
       3    2250     682    2229
       3    2250    2229     669
       3    2292    2291    2251
       3    2251     707    2181
       3    2252     774    2243
       3    2258    2252     761
       3    2253     659    2239
       3    2253    2228    2249
       3    2254     826    2237
       3    2254     813    2235
       3    2255     774     787
       3    2255     788     775
       3    2271    2256    2265
       3    2264    2256     685
       3    2278    2273     682
       3    2257     681    2246
       3    2258     760    2252
       3    2267    2258     761
       3    2259     681    2257
       3    2259     682    2250
       3    2266    2260     670
       3    2270    2265    2260
       3    2301    2261     748
       3    2261     734     747
       3    2262     659    2253
       3    2262     672     673
       3    2263     761    2243
       3    2306    2263     762
       3    2268    2264     685
       3    2264    2151     672
       3    2265     671    2260
       3    2271    2265     684
       3    2270    2266     683
       3    2266     670    2215
       3    2267     748    2247
       3    2267     761    2263
       3    2272    2268     685
       3    2280    2268    2272
       3    2278     682    2259
       3    2269     683    2266
       3    2279     683    2269
       3    2270     684    2265
       3    2276     684    2275
       3    2276    2271     684
       3    2280    2277    2268
       3    2272     685    2271
       3    2281    2279    2273
       3    2279    2274     683
       3    2283    2274     696
       3    2283    2275    2274
       3    2276    2275     697
       3    2275    2270    2274
       3    2276     697    2272
       3    2276    2272    2271
       3    2277     699    2131
       3    2277     686    2268
       3    2282    2278    2257
       3    2278     695    2273
       3    2281    2273     695
       3    2279     696    2274
       3    2280    2272     698
       3    2280     698    2206
       3    2287     695    2285
       3    2281     696    2279
       3    2282     695    2278
       3    2282     694    2245
       3    2289     696    2284
       3    2289    2283     696
       3    2288    2284    2287
       3    2289    2286    2283
       3    2288    2287     708
       3    2285     695    2282
       3    2314    2290     710
       3    2286     697    2283
       3    2287    2284    2281
       3    2287    2281     695
       3    2292    2288     708
       3    2294    2288    2292
       3    2289    2284     709
       3    2293    2289     709
       3    2316    2290    2314
       3    2290     697    2286
       3    2291     708    2285
       3    2291     707    2251
       3    2294    2292     721
       3    2292     708    2291
       3    2294    2293     709
       3    2312    2293     723
       3    2294     722    2293
       3    2294     709    2288
       3    2297    2295     721
       3    2297    2296    2295
       3    2302     735    2301
       3    2296     722    2295
       3    2297     721    2191
       3    2299    2297     734
       3    2308    2298     736
       3    2310    2298     723
       3    2299     735    2296
       3    2299     734    2261
       3    2300     733    2214
       3    2300     734    2191
       3    2303    2302    2301
       3    2301     735    2261
       3    2304    2302     749
       3    2302     736    2298
       3    2303     749    2302
       3    2303     748    2267
       3    2304     736    2302
       3    2304     749    2168
       3    2308    2305    2307
       3    2305     736    2304
       3    2306     762    2213
       3    2306     749    2303
       3    2307     737    2197
       3    2311    2308    2307
       3    2308     723    2298
       3    2308     736    2305
       3    2309     724    2197
       3    2309     725    2186
       3    2310     723    2293
       3    2310     722    2298
       3    2313    2311     724
       3    2313    2312    2311
       3    2312     710    2293
       3    2312     723    2311
       3    2313     724    2309
       3    2314    2313     711
       3    2314     710    2312
       3    2316    2314     711
       3    2315     711    2186
       3    2315     712    2206
       3    2316     698    2290
       3    2316     711    2315
       3    2749     167     166
       3    3223    3054    3006
       3    3281    3055    2336
       3    3341    2335    3232
       3    3408    2323    3395
       3    3489    2322    2321
       3    3409    2321    2320
       3    3421    2320    2319
       3    3410    2319    2318
       3    3411    2318    2317
       3    3382     207     208
       3    3343     208     209
       3    3373    3343     209
       3    3373     209     210
       3    3373    2340    3343
       3    3460    2354    2353
       3    3498    2368    2367
       3    3549    2382    2381
       3    3580    2396    2395
       3    3678    2410    3658
       3    3704    2424    3706
       3    2438    2437    2451
       3    3650    3624    2452
       3    3572    2466    2465
       3    3563    2480    2479
       3    3490    2494    2493
       3    3428    2508    2507
       3     276    2521     275
       3    3386     276     277
       3    3386     277    3360
       3    3386    3360    2508
       3    3461    2494    2495
       3    3507    2480    2481
       3    3551    2466    2467
       3    3661    3583    3606
       3    3666    2438    2439
       3    2424    2425    2411
       3    2410    2411    2397
       3    3653    3625    2396
       3    3574    2382    2383
       3    3564    2368    2369
       3    3491    2354    2355
       3    3429    2340    2341
       3    3430    2340    2353
       3    3430    2353    2354
       3       4     206     135
       3     135     206    2317
       3     136    2318     137
       3    3397     138     137
       3    3396     139     138
       3     140    2321     141
       3     141    2322     142
       3    3395     143     142
       3    3402    2324    3394
       3    3231    2324    3096
       3    2715    2675       5
       3    2660     157     156
       3    2705     339    2694
       3    2717    2715     148
       3    3231    3096    2325
       3    3402     143    2323
       3    3395     142    2322
       3    2322     141    2321
       3    3404    2321     140
       3    3397    3396     138
       3    3397     137    2318
       3    3398    2318     136
       3     206     207    2317
       3     210     211    2353
       3    3356     211     212
       3    3437    2367    2366
       3    3499    2381    2380
       3    3550    2395    2394
       3    3663    3584    3607
       3    3642    2423    2422
       3    3704    3707    2437
       3    2451    2450    2464
       3    3648    3620    2465
       3    3570    2479    2478
       3    3542    2493    2492
       3    3492    2507    2506
       3    3431    2521    2520
       3    3423     274    3363
       3    3363     275    2521
       3    3374     212     213
       3    3374    2366    3356
       3    3438    2380    2379
       3    3500    2394    2393
       3    3523    2408    2407
       3    3642    3610    3609
       3    3692    2436    2435
       3    2450    2449    2463
       3    3691    2464    2463
       3    3647    3619    2478
       3    3568    2492    2491
       3    3543    2506    2505
       3    3493    2520    2519
       3    3470    2534    2533
       3     273    2547     272
       3    3423     273     274
       3     213     214    2379
       3    3375    2379     214
       3    3439    2393    2392
       3    3501    2407    2406
       3    3524    2421    2420
       3    3608    2434    3585
       3    3657    2448    3629
       3    3708    2463    2462
       3    3681    2477    2476
       3    3646    3616    2491
       3    3567    2505    2504
       3    3544    2519    2518
       3    3526    2533    2532
       3    3432    2547    2546
       3    3357     271    3391
       3    3391     272    2547
       3    3375     215    3355
       3    3375    3355    2392
       3    3441    2406    2405
       3    3502    2420    2419
       3    3522    2434    2433
       3    3662    3581    3629
       3    3655    2461    3627
       3    3705    2476    3708
       3    3680    2490    2489
       3    3644    3615    2504
       3    3598    2518    2517
       3    3593    2532    2531
       3    3494    2546    2545
       3    3433    2560    2559
       3    3427     270    3357
       3    3357     270     271
       3    3376     216     217
       3    3376    2405    3355
       3    3443    2419    2418
       3    3504    2433    2432
       3    3552    2447    2446
       3    3579    2461    2460
       3    3652    2474    3626
       3    3702    2489    3705
       3    3695    2503    2502
       3    3688    3614    2517
       3    3630    2531    2530
       3    3545    2545    2544
       3    3495    2559    2558
       3    3471    2573    2572
       3    3358     268    2586
       3    3427     269     270
       3     217     218    2418
       3    3354     218     219
       3    3445    2432    2431
       3    3506    2446    2445
       3    3554    2460    2459
       3    3578    2474    2473
       3    3651    2487    3623
       3    3690    2502    2501
       3    3685    3672    2516
       3    3668    2530    2529
       3    3599    2544    2543
       3    3546    2558    2557
       3    3527    2572    2571
       3    3434    2586    2585
       3    3422     267    3358
       3    3358     267     268
       3    3377     219     220
       3    3377    2431    3354
       3    3447    2445    2444
       3    3508    2459    2458
       3    3565    2473    2472
       3    3576    2487    2486
       3    3645    2500    3621
       3    3700    2515    2514
       3    3703    2529    3696
       3    3611    2543    2542
       3    3600    2557    2556
       3    3594    2571    2570
       3    3496    2585    2584
       3    3472    2599    2598
       3    3425     265    2612
       3    3422     266     267
       3     220     221    2444
       3    3378    2444     221
       3    3449    2458    2457
       3    3519    2472    2471
       3    3555    2486    2485
       3    3573    2500    2499
       3    3643    2513    3618
       3    3684    2527    3671
       3    3683    3669    2542
       3    3639    2556    2555
       3    3631    2570    2569
       3    3547    2584    2583
       3    3528    2598    2597
       3    3478    2612    3472
       3    3359     264    2625
       3    3425     264     265
       3    3378     222    3353
       3    3378    3353    2457
       3    3462    2471    2470
       3    3509    2485    2484
       3    3556    2499    2498
       3    3571    2513    2512
       3    3687    3613    3671
       3    3682    2540    3670
       3    3698    3665    2555
       3    3673    2569    2568
       3    3601    2583    2582
       3    3595    2597    2596
       3    3536    2611    3528
       3    3435    2625    2624
       3    3390     262     263
       3    3359     263     264
       3    3370     223     224
       3    3370    2470    3353
       3    3451    2484    2483
       3    3510    2498    2497
       3    3557    2512    2511
       3    3602    2526    2525
       3    3612    2540    2539
       3    3697    3664    3693
       3    3675    2568    2567
       3    3673    3637    2582
       3    3632    2596    2595
       3    3597    2610    3595
       3    3484    2624    2623
       3    3436    2638    2637
       3     260     261    2651
       3     262    2651     261
       3     224     225    2483
       3    3344    2483     225
       3    3452    2497    2496
       3    3511    2511    2510
       3    3558    2525    2524
       3    3603    2539    2538
       3    3641    2553    2552
       3    3694    2567    2566
       3    3636    2581    2580
       3    3590    2595    2594
       3    3632    3592    2609
       3    3541    2623    2622
       3    3420    2637    2636
       3    3467     259    2651
       3       8     261     260
       3    3381    3344     226
       3    3381    2496    3344
       3    3453    2510    2509
       3    3512    2524    2523
       3    3559    2538    2537
       3    3604    2552    2551
       3    3674    2566    2565
       3    3694    3676    2580
       3    3589    2594    2593
       3    3535    2608    2607
       3    3538    2622    2621
       3    3497    2636    2635
       3    3345    2650    2649
       3    3467     258     259
       3     227     228    2509
       3    3371    2509     228
       3    3454    2523    2522
       3    3513    2537    2536
       3    3560    2551    2550
       3    3633    2565    2564
       3    3674    3635    2579
       3    3638    2593    2592
       3    3534    2607    2606
       3    3483    2621    3535
       3    3486    2635    2634
       3    2649    2648     257
       3    3345     257     258
       3    3371     229    3346
       3    3371    3346    2522
       3    3455    2536    2535
       3    3514    2550    2549
       3    3596    2564    2563
       3    3633    3605    2578
       3    3635    3588    2592
       3    3591    2606    2605
       3    3482    2620    2619
       3    3419    2634    3483
       3    3466     255    2648
       3     257    2648     256
       3    3346     230    2535
       3    3372    2535     231
       3    3456    2549    2548
       3    3529    2563    2562
       3    3596    3561    2577
       3    3587    2591    2590
       3    3533    2605    2604
       3    3537    2619    2618
       3    3418    2633    2632
       3    3347    2647    2646
       3    3466     254     255
       3    3372     232    3348
       3    3372    3348    2548
       3    3473    2562    2561
       3    3529    3515    2576
       3    3566    2590    2589
       3    3587    3532    2604
       3    3481    2618    3533
       3    3485    2632    2631
       3    3383     252     253
       3    3347     253     254
       3    3424    3348     233
       3    3424     233     234
       3    3473    3457    2575
       3    3520    2589    2588
       3    3562    2603    2602
       3    3480    2617    2616
       3    3417    2631    3481
       3    3465    2645    2644
       3     252    2645     251
       3    3424    2561    3348
       3    3379    2574     235
       3    3463    2588    2587
       3    3516    2602    2601
       3    3540    2616    2615
       3    3416    2630    2629
       3    3350    2644    2643
       3    3465     250     251
       3    3379     236    3349
       3    3349     236     237
       3    3458    2601    2600
       3    3479    2615    2614
       3    3488    2629    2628
       3    3384     248     249
       3    3350     249     250
       3    3379    3349    2587
       3    3380    2600     238
       3    3459    2614    2613
       3    3479    3415    2628
       3    3464    2642    2641
       3     248    2642     247
       3    3380     239    3351
       3    3380    3351    2613
       3    3459    3414    2627
       3    3352    2641    2640
       3    3464     246     247
       3    3351     240    2626
       3    3426     240     241
       3    3385     244     245
       3    3352     245     246
       3    3426    2626     240
       3    2639     242     243
       3     244    2639     243
       3     242       7     243
       3    3392    3360     278
       3    3392    2495    3360
       3    3448    2481    2482
       3    3505    2467    2468
       3    3521    2453    2454
       3    3640    2439    3606
       3    2425    2426    2412
       3    2411    2412    2398
       3    2397    2398    2384
       3    3649    3622    2383
       3    3569    2369    2370
       3    3564    3539    2355
       3    3491    3474    2341
       3    3429    3411    2328
       3    3429    2328    3343
       3     279     280    2482
       3    3387    2482     280
       3    3446    2468    2469
       3    3503    2454    2455
       3    3525    2440    2441
       3    3689    2426    3640
       3    2412    2413    2399
       3    2398    2399    2385
       3    3699    2384    2385
       3    3634    3617    2370
       3    3531    2356    2357
       3    3487    2342    2343
       3    3410    2329    2330
       3    3474    2330    2329
       3    3387     281    3364
       3    3387    3364    2469
       3    3444    2455    2456
       3    3477    2441    2442
       3    3469    2427    2428
       3    2413    2414    2400
       3    2399    2400    2386
       3    2385    2386    3709
       3    3667    2371    2372
       3    3582    2357    2358
       3    3475    2343    2344
       3    3421    2330    3487
       3    3421    3487    2331
       3    3388     282     283
       3    3388    2456    3364
       3    3442    2442    2443
       3    3413    2428    2429
       3    3407    2414    2415
       3    2400    2401    2387
       3    3406    2386    2387
       3    2372    2373    2359
       3    3677    2358    2359
       3    3530    2344    2345
       3    3409    2331    2332
       3    3475    2332    2331
       3     283     284    2443
       3    3365    2443     284
       3    3440    2429    2430
       3    3405    3401    2402
       3    3400    2401    2402
       3    3399    2387    2388
       3    3403    2373    2374
       3    2359    2360    2346
       3    3476    2345    2346
       3    3489    2332    2333
       3    3530    2333    2332
       3    3389     285     286
       3    3389    2430    3365
       3    3412    2416    2417
       3    3401    3330    3369
       3    3328    2388    2389
       3    3368    3342    3367
       3    3335    2360    2361
       3    3366    2347    3339
       3    3408    2333    2334
       3    3476    2334    2333
       3     286     287    2417
       3    3393     287     288
       3    3308    2403    2404
       3    3340    3260    3315
       3    3323    2376    3304
       3    3338    3333    3334
       3    3329    3316    3325
       3    3366    3341    2334
       3    3366    3339    2335
       3    3361     288     289
       3    3361    2404     288
       3    3259    3135    3230
       3    3282    2377    3228
       3    3326    3313    3314
       3    3312    3305    3291
       3    3232    2336    3055
       3    3339    3325    2335
       3    3362     290    3229
       3    3229     290    2785
       3    3134    3052    3098
       3    3279    3227    3254
       3    3301    3300    3292
       3    3193    3184    2326
       3    3303    3296    2336
       3    2718     292    2716
       3    2783    2716    2781
       3    3168    3133    3132
       3    3112    3077    2339
       3    3247    3225    3245
       3    3287    3272    3270
       3    2653       9     294
       3    2677     297     298
       3    2779    2756    2686
       3    2709    2704     336
       3    2838    2775    2836
       3    2652     303     304
       3    2701     316    2700
       3    2710     326    2693
       3    2660    2659     157
       3    3112    3101    3077
       3    2710     325     326
       3    3491    2342    3474
       3    3539    2343    2342
       3    3531    2344    2343
       3    3582    2345    2344
       3    3677    2346    2345
       3    2347    2346    2360
       3    3335    2348    3329
       3    3334    3321    2348
       3    3322    3314    3306
       3    3293    3280    3256
       3    3130    3093    3090
       3    3517    2367    2368
       3    3517    2354    3460
       3    3564    2356    3539
       3    3569    2357    2356
       3    3634    2357    3617
       3    3667    2359    2358
       3    2360    2359    2373
       3    3403    2361    2360
       3    3367    3342    3338
       3    3313    3304    2363
       3    3257    2364    3256
       3    3053    3052    2954
       3    3460    2366    2367
       3    3548    2381    2382
       3    3548    2368    3498
       3    3574    2370    2369
       3    3686    3622    3649
       3    3699    2372    2371
       3    2373    2372    3709
       3    3406    2374    2373
       3    3399    2375    3368
       3    3336    3328    2376
       3    3307    3260    2377
       3    3230    3097    2377
       3    3437    2379    2380
       3    3498    2380    2381
       3    3577    2395    2396
       3    3577    2383    2382
       3    3625    2384    2383
       3    2385    2384    2398
       3    2386    2385    2399
       3    2387    2386    2400
       3    2388    2387    2401
       3    3400    2389    2388
       3    3340    3330    2390
       3    3308    2391    3259
       3    3438    2392    2393
       3    3499    2393    2394
       3    3549    2394    2395
       3    3658    3628    2409
       3    3628    2397    3653
       3    2398    2397    2411
       3    2399    2398    2412
       3    2400    2399    2413
       3    2401    2400    2414
       3    3407    2402    2401
       3    3468    3401    3405
       3    3412    2404    2403
       3    3439    2405    2406
       3    3500    2406    2407
       3    3550    2407    2408
       3    3663    3580    2408
       3    3704    3706    2423
       3    3706    2410    2423
       3    2412    2411    2425
       3    2413    2412    2426
       3    3689    2414    2413
       3    3469    2415    2414
       3    3413    2416    2415
       3    3440    2417    2416
       3    3441    2418    2419
       3    3501    2419    2420
       3    3523    2420    2421
       3    3607    3584    2421
       3    3678    2422    2423
       3    2437    2438    2424
       3    2424    2438    2425
       3    3666    2426    2425
       3    3689    3640    2427
       3    3525    2428    2427
       3    3477    2429    2428
       3    3442    2430    2429
       3    3443    2431    2432
       3    3502    2432    2433
       3    3524    2433    2434
       3    3609    3586    2434
       3    3642    2435    2436
       3    3704    2436    3707
       3    3679    2451    3650
       3    3679    2438    2451
       3    3606    3583    2440
       3    3521    2441    2440
       3    3503    2442    2441
       3    3444    2443    2442
       3    3445    2444    2445
       3    3504    2445    2446
       3    3522    2446    2447
       3    3662    3608    3585
       3    3692    2448    3657
       3    3707    2449    2450
       3    2450    2451    2437
       3    3575    2465    2466
       3    3624    3575    2452
       3    3551    2454    2453
       3    3505    2455    2454
       3    3446    2456    2455
       3    3447    2457    2458
       3    3506    2458    2459
       3    3552    2459    2460
       3    3581    2460    2461
       3    3657    3629    2462
       3    2462    2463    2449
       3    2463    2464    2450
       3    3650    3648    2465
       3    3553    2479    2480
       3    3553    2467    2466
       3    3507    2468    2467
       3    3448    2469    2468
       3    3449    2470    2471
       3    3508    2471    2472
       3    3554    2472    2473
       3    3579    2473    2474
       3    3655    3627    2475
       3    3705    3708    2475
       3    3691    2476    2477
       3    3691    3659    3648
       3    3572    2478    2479
       3    3518    2493    2494
       3    3518    2481    2480
       3    3461    2482    2481
       3    3462    2483    2484
       3    3519    2484    2485
       3    3565    2485    2486
       3    3578    2486    2487
       3    3652    3626    2488
       3    3702    3705    2488
       3    3681    2489    2490
       3    3681    3656    3647
       3    3570    2491    2492
       3    3563    2492    2493
       3    3450    2507    2508
       3    3450    2495    2494
       3    3451    2496    2497
       3    3509    2497    2498
       3    3555    2498    2499
       3    3576    2499    2500
       3    3651    3623    2500
       3    3702    2501    2502
       3    3680    2502    2503
       3    3680    3654    3646
       3    3568    2504    2505
       3    3542    2505    2506
       3    3490    2506    2507
       3    3452    2509    2510
       3    3510    2510    2511
       3    3556    2511    2512
       3    3573    2512    2513
       3    3660    3621    2513
       3    3690    2514    2515
       3    3695    2515    3685
       3    3688    3615    3644
       3    3567    2517    2518
       3    3543    2518    2519
       3    3492    2519    2520
       3    3428    2520    2521
       3    3453    2522    2523
       3    3511    2523    2524
       3    3557    2524    2525
       3    3571    2525    2526
       3    3687    3643    3618
       3    3700    2527    3684
       3    3696    3672    3685
       3    3614    2529    2530
       3    3598    2530    2531
       3    3544    2531    2532
       3    3493    2532    2533
       3    3431    2533    2534
       3    3454    2535    2536
       3    3512    2536    2537
       3    3558    2537    2538
       3    3602    2538    2539
       3    3613    2539    2540
       3    3684    3671    2540
       3    3703    3696    2528
       3    3668    2542    2543
       3    3630    2543    2544
       3    3593    2544    2545
       3    3526    2545    2546
       3    3470    2546    2547
       3    3455    2548    2549
       3    3513    2549    2550
       3    3559    2550    2551
       3    3603    2551    2552
       3    3612    2552    2553
       3    3697    3682    3670
       3    3698    3669    3683
       3    3611    2555    2556
       3    3599    2556    2557
       3    3545    2557    2558
       3    3494    2558    2559
       3    3432    2559    2560
       3    3456    2561    2562
       3    3514    2562    2563
       3    3560    2563    2564
       3    3604    2564    2565
       3    3641    2565    2566
       3    3664    2566    2567
       3    3665    2567    2568
       3    3639    2568    2569
       3    3600    2569    2570
       3    3546    2570    2571
       3    3495    2571    2572
       3    3433    2572    2573
       3    3473    2574    3457
       3    3529    2575    3515
       3    3596    2576    3561
       3    3633    2577    3605
       3    3674    2578    3635
       3    3694    2579    3676
       3    3675    2580    2581
       3    3673    2581    3637
       3    3631    2582    2583
       3    3594    2583    2584
       3    3527    2584    2585
       3    3471    2585    2586
       3    3457    2587    2588
       3    3515    2588    2589
       3    3561    2589    2590
       3    3605    2590    2591
       3    3635    2591    3588
       3    3676    2592    2593
       3    3636    2593    2594
       3    3637    2594    2595
       3    3601    2595    2596
       3    3547    2596    2597
       3    3496    2597    2598
       3    3434    2598    2599
       3    3463    2600    2601
       3    3520    2601    2602
       3    3566    2602    2603
       3    3587    2603    3532
       3    3588    2604    2605
       3    3638    2605    2606
       3    3589    2606    2607
       3    3590    2607    2608
       3    3632    2608    3592
       3    3597    3595    2609
       3    3536    3528    2610
       3    3478    3472    2611
       3    3458    2613    2614
       3    3516    2614    2615
       3    3562    2615    2616
       3    3532    2616    2617
       3    3481    3533    2617
       3    3591    2618    2619
       3    3534    2619    2620
       3    3483    3535    2620
       3    3592    2621    2622
       3    3597    2622    2623
       3    3536    2623    2624
       3    3478    2624    2625
       3    3459    2626    3414
       3    3479    2627    3415
       3    3540    2628    2629
       3    3480    2629    2630
       3    3417    3481    2630
       3    3537    2631    2632
       3    3482    2632    2633
       3    3419    3483    2633
       3    3538    2634    2635
       3    3541    2635    2636
       3    3484    2636    2637
       3    3435    2637    2638
       3    3414    2639    2640
       3    3415    2640    2641
       3    3488    2641    2642
       3    3416    2642    2643
       3    3417    2643    2644
       3    3485    2644    2645
       3    3418    2645    2646
       3    3419    2646    2647
       3    3486    2647    2648
       3    3497    2648    2649
       3    3420    2649    2650
       3    3436    2650    2651
       3    2896    2662    2795
       3    2662    2661     165
       3    2663    2662     164
       3    2664    2663     163
       3    2665    2664     162
       3    2666    2665     161
       3    2667    2666     160
       3    2668     158    2659
       3    2669    2660     156
       3    2738    2669    2670
       3    2670    2669     155
       3    2671    2670     154
       3    2672    2671     153
       3    2673    2672     152
       3    2674    2673     151
       3    2675     149       5
       3    2784    2717    2719
       3    2719    2717     147
       3    3394     145     144
       3    3404     139    3396
       3    3398     135    2317
       3     241     242    2639
       3     237     238    2600
       3     234     235    2574
       3     230     231    2535
       3    3381     226     227
       3    3353     222     223
       3    3377    3354     219
       3    3355     215     216
       3    3374    3356     212
       3    3382     208    2328
       3     259     260    2651
       3     255     256    2648
       3    3383     253    3347
       3    3384     249    3350
       3    3385     245    3352
       3    3359    3390     263
       3     265     266    2612
       3     268     269    2586
       3    3391     271     272
       3    3363     274     275
       3    3392     278     279
       3    3364     281     282
       3    3365     284     285
       3    3393     288    2404
       3    2785     290     291
       3    2716     293    2714
       3    2714       9    2653
       3    2677     298    2654
       3    2655     299     300
       3    2722    2654    2655
       3    2655    2654     299
       3    2679     301     302
       3    2679     302    2656
       3    2656     303    2652
       3    2681     305     306
       3    2681     306    2657
       3    2657     306     307
       3    2658    2657     307
       3    2683     309     310
       3     311    2683     310
       3    2780     311     312
       3    2780     312     313
       3     312      10     313
       3     350       6     167
       3    2749     350     167
       3    2895    2778     348
       3    2895     348     349
       3    2713     346     347
       3    2685     344     345
       3    2697     344    2685
       3    2697     343     344
       3    2691     341     342
       3    2702     341    2691
       3    2694     339     340
       3    2684     337     338
       3    2709     337    2684
       3    2704     335     336
       3    2751     335    2704
       3    2751     334     335
       3    2687     332     333
       3    2699     332    2687
       3    2688     330     331
       3    2706     330    2688
       3    2750     329    2706
       3    2750     328     329
       3    2711     327     328
       3    2772    2768    2700
       3    2780    2733     311
       3    2686     324     325
       3    2695     324    2686
       3    2690     322     323
       3    2708     322    2690
       3    2696     320     321
       3    2698     320    2696
       3    2692     318     319
       3    2703     318    2692
       3    2700     316     317
       3    2715       5     148
       3    2653     294     295
       3    2747    2714    2653
       3    2680     304     305
       3    2721    2656    2652
       3    2653     295     296
       3    2676     296     297
       3    2740    2653    2676
       3    2677    2676     297
       3    2654     298     299
       3    2678     300     301
       3    2742    2655    2678
       3    2679    2678     301
       3    2656     302     303
       3    2658     307     308
       3    2681    2680     305
       3    2682     308     309
       3    2746    2658    2682
       3    2683    2682     309
       3    2733    2683     311
       3    2780     313     314
       3     314    2701    2780
       3    2661     166     165
       3    2661    2749     166
       3    2737    2667    2668
       3    2659     158     157
       3    2669     156     155
       3    2735    2660    2720
       3    2662     165     164
       3    2663     164     163
       3    2664     163     162
       3    2795    2663    2664
       3    2665     162     161
       3    2795    2664    2725
       3    2666     161     160
       3    2736    2665    2666
       3    2667     160     159
       3    2736    2666    2724
       3    2668    2667     159
       3    2791    2726    2856
       3    2668     159     158
       3    2726    2668    2659
       3    2670     155     154
       3    2808    2738    2804
       3    2671     154     153
       3    2738    2670    2727
       3    2672     153     152
       3    2739    2671    2672
       3    2673     152     151
       3    2739    2672    2728
       3    2674     151     150
       3    2734    2673    2674
       3    2675    2674     150
       3    2675     150     149
       3    2748    2729    2675
       3    2798    2740    2730
       3    2676    2653     296
       3    2741    2654    2722
       3    2741    2677    2654
       3    2857    2742    2731
       3    2678    2655     300
       3    2743    2656    2721
       3    2743    2731    2679
       3    2744    2680    2732
       3    2680    2652     304
       3    2745    2657    2723
       3    2745    2681    2657
       3    2683    2746    2682
       3    2682    2658     308
       3    2705     338     339
       3    2837    2776    2753
       3    2689     345     346
       3    2712     343    2697
       3    2752    2710    2693
       3    2695    2690     323
       3    2707     333     334
       3    2699    2688     331
       3    2699     331     332
       3    2761    2688    2754
       3    2713    2689     346
       3    2774    2689    2713
       3    2689    2685     345
       3    2695     323     324
       3    2708    2696     321
       3    2712     342     343
       3    2702    2694     340
       3    2698     319     320
       3    2703    2700     317
       3    2693     326     327
       3    2890    2889    2830
       3    2702     340     341
       3    2763    2694    2759
       3    2756    2695    2686
       3    2769    2695    2756
       3    2708     321     322
       3    2767    2696    2708
       3    2749    2895     349
       3    2895    2661    2809
       3    2762    2685    2757
       3    2764    2697    2762
       3    2766    2758    2692
       3    2698    2692     319
       3    2773    2687    2760
       3    2773    2699    2687
       3    2703     317     318
       3    2796    2788    2723
       3    2897    2701    2768
       3    2701     315     316
       3    2765    2691    2712
       3    2771    2702    2691
       3    2758    2703    2692
       3    2772    2703    2758
       3    2751    2707     334
       3    2709     336     337
       3    2763    2705    2694
       3    2705    2684     338
       3    2750    2711     328
       3    2706     329     330
       3    2760    2687    2707
       3    2707    2687     333
       3    2755    2708    2690
       3    2767    2708    2755
       3    2753    2709    2684
       3    2776    2709    2753
       3    2779    2710    2752
       3    2710    2686     325
       3    2777    2752    2693
       3    2711    2693     327
       3    2765    2712    2764
       3    2712    2691     342
       3    2778    2713     347
       3    2781    2716    2714
       3    2714     293       9
       3    2717     148     147
       3    2782    2748    2715
       3    2901    2843    2783
       3    2716     292     293
       3    2719     147     146
       3    2784    2782    2717
       3    2843    2785    2718
       3    2718     291     292
       3    2786    2719     146
       3    2955    2844    2325
       3    2846    2735    2720
       3    2720    2660    2669
       3    2744    2652    2680
       3    2857    2743    2802
       3    2801    2747    2653
       3    2865    2799    2806
       3    2741    2730    2677
       3    2745    2732    2681
       3    2723    2657    2658
       3    2736    2725    2665
       3    2724    2666    2667
       3    2774    2757    2689
       3    2795    2662    2663
       3    2795    2725    2794
       3    2725    2664    2665
       3    2735    2726    2659
       3    2792    2737    2791
       3    2804    2727    2803
       3    2727    2670    2671
       3    2800    2739    2728
       3    2728    2672    2673
       3    2734    2800    2728
       3    2729    2674    2675
       3    2858    2898    2798
       3    2730    2676    2677
       3    2807    2742    2857
       3    2731    2678    2679
       3    2790    2732    2745
       3    2732    2680    2681
       3    2733    2746    2683
       3    2809    2661    2662
       3    2897    2733    2780
       3    2768    2701    2700
       3    2734    2728    2673
       3    2734    2674    2729
       3    2735    2659    2660
       3    2864    2808    2804
       3    2793    2724    2792
       3    2794    2736    2793
       3    2737    2724    2667
       3    2737    2668    2726
       3    2863    2803    2861
       3    2738    2720    2669
       3    2803    2739    2800
       3    2739    2727    2671
       3    2740    2676    2730
       3    2799    2798    2730
       3    2806    2741    2722
       3    2742    2722    2655
       3    2742    2678    2731
       3    2743    2679    2656
       3    2802    2721    2787
       3    2789    2744    2732
       3    2744    2721    2652
       3    2788    2745    2723
       3    2790    2745    2788
       3    2797    2796    2746
       3    2746    2723    2658
       3    2839    2747    2801
       3    2748    2675    2715
       3    2840    2748    2782
       3    2749     349     350
       3    2895    2749    2661
       3    2813    2706    2761
       3    2813    2750    2706
       3    2812    2704    2776
       3    2812    2751    2704
       3    2701     314     315
       3    2777    2693    2711
       3    2880    2828    2873
       3    2775    2684    2705
       3    2891    2811    2812
       3     348    2778     347
       3    2832    2761    2754
       3    2754    2688    2699
       3    2769    2690    2695
       3    2770    2696    2767
       3    2828    2827    2769
       3    2779    2686    2710
       3    2816    2757    2815
       3    2757    2685    2689
       3    2766    2692    2698
       3    2860    2796    2797
       3    2834    2759    2819
       3    2759    2694    2702
       3    2835    2833    2773
       3    2811    2707    2751
       3    2810    2777    2711
       3    2761    2706    2688
       3    2821    2762    2816
       3    2762    2697    2685
       3    2836    2763    2834
       3    2775    2705    2763
       3    2820    2818    2765
       3    2764    2712    2697
       3    2818    2771    2765
       3    2771    2691    2765
       3    2770    2698    2696
       3    2824    2766    2822
       3    2825    2823    2767
       3    2823    2822    2770
       3    2772    2700    2703
       3    2827    2825    2755
       3    2769    2755    2690
       3    2823    2770    2767
       3    2770    2766    2698
       3    2819    2771    2818
       3    2771    2759    2702
       3    2824    2758    2766
       3    2852    2797    2733
       3    2833    2832    2754
       3    2773    2754    2699
       3    2778    2774    2713
       3    2815    2774    2814
       3    2872    2834    2871
       3    2775    2753    2684
       3    2812    2811    2751
       3    2776    2704    2709
       3    2810    2711    2750
       3    2831    2830    2752
       3    2915    2854    2914
       3    2830    2829    2779
       3    2829    2828    2756
       3    2781    2714    2747
       3    2841    2781    2839
       3    2840    2805    2748
       3    2782    2715    2717
       3    2954    2843    2901
       3    2783    2718    2716
       3    2844    2784    2719
       3    2842    2840    2782
       3    2785     291    2718
       3    3229    2785    2378
       3    2844    2786    2325
       3    2786     146     145
       3    2805    2729    2748
       3    2801    2653    2740
       3    2798    2898    2801
       3    2848    2802    2787
       3    2787    2721    2744
       3    2796    2723    2746
       3    2790    2789    2732
       3    2911    2908    2850
       3    2789    2787    2744
       3    2851    2849    2790
       3    2851    2790    2788
       3    2856    2726    2735
       3    2856    2913    2791
       3    2791    2737    2726
       3    2791    2853    2792
       3    2792    2724    2737
       3    2854    2793    2853
       3    2793    2736    2724
       3    2855    2794    2854
       3    2794    2725    2736
       3    2963    2914    2962
       3    2662    2896    2809
       3    2797    2746    2733
       3    2860    2859    2796
       3    2817    2768    2772
       3    2799    2730    2741
       3    2862    2806    2807
       3    2805    2800    2734
       3    2861    2800    2847
       3    2801    2740    2798
       3    2906    2857    2848
       3    2802    2743    2721
       3    2904    2856    2846
       3    2803    2727    2739
       3    2800    2805    2847
       3    2847    2805    2845
       3    2857    2731    2743
       3    2857    2802    2848
       3    2735    2846    2856
       3    2804    2738    2727
       3    2808    2846    2720
       3    2805    2734    2729
       3    2806    2799    2741
       3    2807    2806    2722
       3    2807    2722    2742
       3    2808    2720    2738
       3    2866    2897    2768
       3    2897    2780    2701
       3    2813    2810    2750
       3    2894    2810    2813
       3    2867    2835    2760
       3    2811    2760    2707
       3    2869    2776    2837
       3    2869    2812    2776
       3    2868    2761    2832
       3    2894    2813    2868
       3    2814    2778    2809
       3    2809    2778    2895
       3    2916    2855    2915
       3    2814    2774    2778
       3    2944    2815    2935
       3    2815    2757    2774
       3    2821    2820    2764
       3    2816    2762    2757
       3    2826    2772    2758
       3    2946    2879    2943
       3    2820    2765    2764
       3    2878    2818    2877
       3    2878    2819    2818
       3    2819    2759    2771
       3    2821    2764    2762
       3    2884    2820    2821
       3    2885    2816    2815
       3    2884    2877    2820
       3    2881    2879    2824
       3    2822    2766    2770
       3    2825    2767    2755
       3    2882    2881    2822
       3    2879    2826    2824
       3    2826    2758    2824
       3    2827    2755    2769
       3    2883    2825    2876
       3    2965    2859    2860
       3    2826    2817    2772
       3    2828    2769    2756
       3    2880    2827    2828
       3    2829    2756    2779
       3    2880    2876    2827
       3    2830    2779    2752
       3    2889    2829    2830
       3    2831    2752    2777
       3    2889    2873    2829
       3    2870    2777    2810
       3    2998    2931    2978
       3    2833    2754    2773
       3    2923    2832    2887
       3    2835    2773    2760
       3    2887    2833    2874
       3    2834    2763    2759
       3    2871    2834    2819
       3    2867    2760    2811
       3    2924    2835    2867
       3    2838    2837    2753
       3    2836    2775    2763
       3    2838    2753    2775
       3    2981    2924    2936
       3    2892    2836    2872
       3    2893    2838    2892
       3    2997    2898    2918
       3    2839    2781    2747
       3    2842    2782    2784
       3    2900    2840    2842
       3    2952    2901    2841
       3    2841    2783    2781
       3    2902    2842    2784
       3    2900    2845    2840
       3    3005    2785    2843
       3    2843    2718    2783
       3    2844    2719    2786
       3    2955    2902    2844
       3    2852    2733    2866
       3    2866    2733    2897
       3    2845    2805    2840
       3    2905    2845    2900
       3    2862    2807    2857
       3    2863    2804    2803
       3    2920    2861    2910
       3    2910    2847    2905
       3    2850    2787    2789
       3    2858    2798    2799
       3    2918    2898    2858
       3    2908    2906    2848
       3    2849    2789    2790
       3    2850    2848    2787
       3    2850    2789    2849
       3    2859    2788    2796
       3    2912    2911    2849
       3    2860    2797    2852
       3    2903    2866    2817
       3    2914    2853    2913
       3    2853    2793    2792
       3    3012    2962    3010
       3    2854    2794    2793
       3    2896    2875    2809
       3    2855    2795    2794
       3    2951    2795    2916
       3    2865    2806    2862
       3    2965    2852    2903
       3    2859    2851    2788
       3    2992    2937    2990
       3    2888    2826    2879
       3    2910    2861    2847
       3    2861    2803    2800
       3    2907    2862    2857
       3    2968    2909    2922
       3    2864    2804    2863
       3    2909    2904    2846
       3    2864    2846    2808
       3    2919    2865    2862
       3    2865    2858    2799
       3    2866    2768    2817
       3    2903    2817    2888
       3    2924    2874    2835
       3    2891    2812    2869
       3    2894    2870    2810
       3    2868    2813    2761
       3    2925    2837    2893
       3    2928    2891    2869
       3    2931    2890    2831
       3    2870    2831    2777
       3    2926    2872    2871
       3    2927    2871    2878
       3    2947    2872    2926
       3    2872    2836    2834
       3    2930    2873    2889
       3    2873    2828    2829
       3    2939    2887    2874
       3    2874    2833    2835
       3    2935    2814    2875
       3    2875    2814    2809
       3    2886    2816    2885
       3    2935    2815    2814
       3    2883    2882    2823
       3    2876    2825    2827
       3    2938    2927    2878
       3    2877    2818    2820
       3    2927    2926    2871
       3    2878    2871    2819
       3    2881    2824    2822
       3    2917    2912    2851
       3    2929    2880    2873
       3    2934    2880    2929
       3    2882    2822    2823
       3    2943    2881    2937
       3    2883    2823    2825
       3    2941    2882    2883
       3    2933    2883    2876
       3    2941    2883    2933
       3    2886    2821    2816
       3    2940    2938    2877
       3    3013    2915    2963
       3    2815    2944    2885
       3    2942    2940    2884
       3    2886    2884    2821
       3    2973    2887    2939
       3    2887    2832    2833
       3    2965    2903    2888
       3    2888    2817    2826
       3    2890    2830    2831
       3    2930    2929    2873
       3    2931    2831    2870
       3    2949    2930    2889
       3    2928    2869    2925
       3    2891    2867    2811
       3    2950    2892    2947
       3    2892    2838    2836
       3    2984    2893    2950
       3    2893    2837    2838
       3    2948    2868    2923
       3    2948    2894    2868
       3    2899    2839    2898
       3    2898    2839    2801
       3    2997    2918    2971
       3    2899    2841    2839
       3    2953    2900    2842
       3    3002    2900    2953
       3    2901    2783    2841
       3    3003    2954    2901
       3    3004    2953    2902
       3    2902    2784    2844
       3    2903    2852    2866
       3    2909    2846    2864
       3    2905    2847    2845
       3    2920    2863    2861
       3    2908    2848    2850
       3    2921    2865    2919
       3    2919    2862    2907
       3    2911    2850    2849
       3    2959    2956    2906
       3    2922    2864    2863
       3    2958    2957    2904
       3    3002    2905    2900
       3    2970    2910    2960
       3    2965    2860    2852
       3    2912    2849    2851
       3    2961    2959    2908
       3    2917    2851    2859
       3    2964    2961    2911
       3    2962    2913    2957
       3    2791    2913    2853
       3    2945    2885    2944
       3    2914    2854    2853
       3    2951    2875    2896
       3    2915    2855    2854
       3    2951    2935    2875
       3    2916    2795    2855
       3    2965    2917    2859
       3    2994    2943    2992
       3    3001    2997    2971
       3    2921    2858    2865
       3    2966    2907    2956
       3    2969    2919    2966
       3    2970    2920    2910
       3    2922    2863    2920
       3    2971    2921    2969
       3    2921    2918    2858
       3    3007    2958    2968
       3    2922    2909    2864
       3    2932    2931    2870
       3    2923    2868    2832
       3    2974    2939    2874
       3    2936    2867    2891
       3    2979    2928    2925
       3    2925    2869    2837
       3    3023    2975    3022
       3    2983    2926    2975
       3    2938    2878    2877
       3    2976    2927    2938
       3    2985    2928    2979
       3    2936    2891    2928
       3    2982    2929    2930
       3    2980    2934    2977
       3    2949    2889    2890
       3    2982    2977    2929
       3    2932    2870    2894
       3    2978    2931    2932
       3    2948    2932    2894
       3    2996    2932    2948
       3    2934    2933    2876
       3    2941    2937    2882
       3    2934    2876    2880
       3    2977    2934    2929
       3    2985    2936    2928
       3    2936    2924    2867
       3    3038    2992    3036
       3    2937    2881    2882
       3    2940    2877    2884
       3    2976    2975    2927
       3    2974    2874    2924
       3    2973    2939    2339
       3    2942    2884    2886
       3    2988    2976    2938
       3    2986    2933    2980
       3    2990    2941    2986
       3    2945    2886    2885
       3    2989    2988    2940
       3    2943    2879    2881
       3    3013    2963    3012
       3    3060    3108    3012
       3    2993    2989    2942
       3    2945    2942    2886
       3    2946    2888    2879
       3    3000    2947    2983
       3    2947    2892    2872
       3    2987    2923    2973
       3    2987    2948    2923
       3    2998    2890    2931
       3    2999    2982    2930
       3    2984    2979    2925
       3    2950    2893    2892
       3    2951    2896    2795
       3    2991    2916    3013
       3    3051    2952    3001
       3    2952    2841    2899
       3    2953    2842    2902
       3    3002    2960    2905
       3    3098    3053    3094
       3    3052    3005    2954
       3    3006    2955    2325
       3    3054    3004    2955
       3    2958    2904    2909
       3    2956    2907    2857
       3    3061    3009    3008
       3    2956    2857    2906
       3    3010    2957    3007
       3    2957    2856    2904
       3    2972    2922    2920
       3    2959    2906    2908
       3    3008    3009    2956
       3    2961    2908    2911
       3    2960    2910    2905
       3    2972    2920    2970
       3    2964    2911    2912
       3    3059    3057    2959
       3    2957    2913    2856
       3    2995    2993    2945
       3    2962    2914    2913
       3    3039    2991    3013
       3    2963    2915    2914
       3    2967    2912    2917
       3    3011    3059    2961
       3    2965    2967    2917
       3    2991    2951    2916
       3    3013    2916    2915
       3    3009    2966    2956
       3    2966    2919    2907
       3    3014    3011    2964
       3    2967    2964    2912
       3    3015    2965    3018
       3    2968    2958    2909
       3    3016    2969    2966
       3    2969    2921    2919
       3    3048    2960    3002
       3    3021    2970    3017
       3    3050    2971    3020
       3    2971    2918    2921
       3    3065    3007    3019
       3    2972    2968    2922
       3    2965    2888    2946
       3    2996    2948    2987
       3    2973    2923    2887
       3    3026    2974    2981
       3    3047    2939    2974
       3    2991    2935    2951
       3    2975    2926    2927
       3    3072    3022    3027
       3    2988    2938    2940
       3    3027    2976    2988
       3    3029    3024    2977
       3    3024    2980    2977
       3    3033    3032    2996
       3    3041    2978    3032
       3    2984    2925    2893
       3    2985    2981    2936
       3    3025    2980    3024
       3    2980    2933    2934
       3    3030    2981    2985
       3    2981    2974    2924
       3    2999    2930    2949
       3    3074    3071    3024
       3    3045    2983    3023
       3    2983    2947    2926
       3    3042    2950    3000
       3    3046    2984    3042
       3    3031    3030    2985
       3    3030    3026    2981
       3    3035    2986    3025
       3    2986    2941    2933
       3    3028    2973    2339
       3    3028    2987    2973
       3    2989    2940    2942
       3    3027    3022    2976
       3    2993    2942    2945
       3    3034    3027    2988
       3    3036    2990    3035
       3    2990    2937    2941
       3    2995    2944    2991
       3    2991    2944    2935
       3    3104    3038    3084
       3    2992    2943    2937
       3    2995    2945    2944
       3    3037    3034    2989
       3    2994    2946    2943
       3    3033    2987    3028
       3    2996    2978    2932
       3    3001    2899    2997
       3    2997    2899    2898
       3    3043    2998    3041
       3    2998    2949    2890
       3    3043    2949    2998
       3    3044    3029    2982
       3    3085    3000    3045
       3    3000    2950    2947
       3    3051    3003    2952
       3    3001    2952    2899
       3    3049    3002    2953
       3    3048    3017    2960
       3    3053    3003    2365
       3    3003    2901    2952
       3    3128    3049    3004
       3    3004    2902    2955
       3    3005    2378    2785
       3    3005    2843    2954
       3    3055    3006    2325
       3    3283    3255    3258
       3    3007    2957    2958
       3    3019    2968    2972
       3    3008    2956    2959
       3    3057    3061    3008
       3    3016    2966    3009
       3    3059    2959    2961
       3    2959    3057    3008
       3    3011    2961    2964
       3    3021    2972    2970
       3    3056    3058    3007
       3    3060    3010    3058
       3    3010    2962    2957
       3    3014    2964    2967
       3    3140    3080    3037
       3    3012    2963    2962
       3    3015    2967    2965
       3    3062    3059    3011
       3    3063    2994    3038
       3    3084    3036    3081
       3    3015    3014    2967
       3    3061    3016    3009
       3    3020    2969    3016
       3    3017    2970    2960
       3    3021    3019    2972
       3    3018    2965    2946
       3    3018    2946    2994
       3    3102    3056    3065
       3    3019    3007    2968
       3    3066    3020    3016
       3    3020    2971    2969
       3    3067    3017    3048
       3    3065    3056    3007
       3    3022    2975    2976
       3    3069    3023    3022
       3    3082    3023    3069
       3    3023    2983    2975
       3    3071    3025    3024
       3    3029    2977    2982
       3    3073    3025    3071
       3    3025    2986    2980
       3    3075    3026    3030
       3    3070    3047    3026
       3    3034    2988    2989
       3    3072    3069    3022
       3    3077    3028    2339
       3    3079    3033    3077
       3    3044    2982    2999
       3    3117    3074    3088
       3    3031    2985    2979
       3    3075    3070    3026
       3    3046    2979    2984
       3    3078    3075    3030
       3    3083    3032    3079
       3    3032    2978    2996
       3    3033    2996    2987
       3    3037    2989    2993
       3    3080    3076    3034
       3    3081    3035    3073
       3    3035    2990    2986
       3    3103    3100    3062
       3    3036    2992    2990
       3    3040    2993    2995
       3    3140    3037    3040
       3    3063    3018    2994
       3    3038    2994    2992
       3    3039    2995    2991
       3    3108    3039    3013
       3    3040    3037    2993
       3    3040    2995    3039
       3    3089    3041    3083
       3    3041    2998    2978
       3    3091    3042    3085
       3    3042    2984    2950
       3    3087    3044    2999
       3    3043    2999    2949
       3    3087    2999    3043
       3    3088    3074    3029
       3    3118    3045    3082
       3    3045    3000    2983
       3    3086    3078    3031
       3    3046    3031    2979
       3    3047    2339    2939
       3    3047    2974    3026
       3    3049    3048    3002
       3    3092    3067    3048
       3    3049    2953    3004
       3    3128    3092    3049
       3    3093    3050    3090
       3    3050    3001    2971
       3    3051    3001    3050
       3    3095    3003    3051
       3    3169    3098    3133
       3    3052    2378    3005
       3    3053    2954    3003
       3    3094    3053    2365
       3    3154    2326    3128
       3    3054    2955    3006
       3    3096    3055    2325
       3    3232    3096    2324
       3    3127    3061    3057
       3    3058    3010    3007
       3    3068    3019    3021
       3    3102    3099    3056
       3    3146    3100    3136
       3    3100    3057    3059
       3    3062    3011    3014
       3    3108    3013    3012
       3    3142    3115    3080
       3    3060    3012    3010
       3    3142    3060    3058
       3    3066    3016    3061
       3    3064    3014    3015
       3    3063    3015    3018
       3    3104    3063    3038
       3    3064    3062    3014
       3    3064    3015    3063
       3    3106    3102    3065
       3    3131    3068    3067
       3    3105    3066    3061
       3    3090    3020    3066
       3    3067    3021    3017
       3    3139    3102    3106
       3    3068    3065    3019
       3    3068    3021    3067
       3    3113    3069    3107
       3    3107    3069    3072
       3    3166    3112    3124
       3    3070    2339    3047
       3    3109    3073    3071
       3    3074    3024    3029
       3    3076    3072    3027
       3    3138    3107    3072
       3    3148    3081    3073
       3    3073    3035    3025
       3    3088    3029    3044
       3    3111    3109    3071
       3    3078    3030    3031
       3    3114    3075    3078
       3    3115    3138    3076
       3    3076    3027    3034
       3    3112    2339    3070
       3    3152    3077    3101
       3    3077    3033    3028
       3    3086    3031    3046
       3    3120    3078    3086
       3    3116    3083    3079
       3    3079    3032    3033
       3    3142    3080    3140
       3    3080    3034    3037
       3    3201    3081    3148
       3    3081    3036    3035
       3    3118    3085    3045
       3    3082    3045    3023
       3    3089    3087    3043
       3    3083    3041    3032
       3    3108    3140    3040
       3    3140    3060    3142
       3    3084    3038    3036
       3    3091    3086    3046
       3    3085    3042    3000
       3    3091    3046    3042
       3    3120    3114    3078
       3    3089    3043    3041
       3    3119    3088    3044
       3    3119    3044    3087
       3    3141    3109    3111
       3    3121    3083    3116
       3    3125    3087    3089
       3    3110    3066    3105
       3    3090    3050    3020
       3    3126    3085    3118
       3    3123    3120    3086
       3    3092    3048    3049
       3    3157    3092    3128
       3    3129    3095    3093
       3    3093    3051    3050
       3    3132    2365    3129
       3    3133    3098    3094
       3    3095    2365    3003
       3    3095    3051    3093
       3    3231    2325    2786
       3    3341    3232    2324
       3    3230    3135    3097
       3    3097    2378    3052
       3    3228    3134    3169
       3    3098    3052    3053
       3    3265    3176    3161
       3    3099    3058    3056
       3    3202    3236    3172
       3    3145    3137    3105
       3    3100    3059    3062
       3    3195    3155    3116
       3    3152    3116    3079
       3    3142    3058    3099
       3    3103    3062    3064
       3    3161    3102    3139
       3    3106    3065    3068
       3    3104    3103    3064
       3    3104    3064    3063
       3    3137    3110    3105
       3    3110    3090    3066
       3    3173    3143    3170
       3    3159    3131    3122
       3    3170    3143    3138
       3    3205    3179    3178
       3    3108    3040    3039
       3    3140    3108    3060
       3    3148    3109    3141
       3    3111    3071    3074
       3    3130    3129    3093
       3    3130    3090    3110
       3    3117    3111    3074
       3    3147    3111    3117
       3    3124    3070    3075
       3    3192    3124    3151
       3    3138    3072    3076
       3    3149    3118    3082
       3    3113    3082    3069
       3    3148    3073    3109
       3    3153    3114    3120
       3    3124    3075    3114
       3    3138    3115    2327
       3    3115    3076    3080
       3    3142    2327    3115
       3    3201    3084    3081
       3    3155    3121    3116
       3    3152    3079    3077
       3    3150    3088    3119
       3    3147    3141    3111
       3    3149    3082    3113
       3    3126    3123    3091
       3    3125    3089    3121
       3    3164    3119    3125
       3    3123    3086    3091
       3    3153    3151    3114
       3    3162    3121    3155
       3    3121    3089    3083
       3    3122    3067    3092
       3    3157    3122    3092
       3    3126    3091    3085
       3    3165    3123    3126
       3    3151    3124    3114
       3    3124    3112    3070
       3    3164    3125    3162
       3    3125    3119    3087
       3    3163    3126    3118
       3    3165    3126    3163
       3    3127    3105    3061
       3    3127    3057    3100
       3    3154    3128    3004
       3    3157    3128    2326
       3    3167    3129    3130
       3    3129    2365    3095
       3    3156    3110    3137
       3    3167    3130    3156
       3    3131    3106    3068
       3    3131    3067    3122
       3    3226    3168    3216
       3    3132    3094    2365
       3    3133    3094    3132
       3    3169    3134    3098
       3    3134    2377    3097
       3    3134    3097    3052
       3    3229    3135    2391
       3    3135    2378    3097
       3    3237    3145    3146
       3    3136    3100    3103
       3    3145    3105    3127
       3    3194    3137    3171
       3    3201    3136    3103
       3    3201    3148    2352
       3    3201    3103    3104
       3    3201    3104    3084
       3    3177    2327    3176
       3    3158    3106    3131
       3    3174    3172    3141
       3    3172    3148    3141
       3    3176    3142    3099
       3    3144    3107    3143
       3    3143    3107    3138
       3    3180    3149    3113
       3    3144    3113    3107
       3    3146    3145    3127
       3    3237    2352    3236
       3    3146    3127    3100
       3    3237    3136    2352
       3    3181    3117    3150
       3    3202    3172    3174
       3    3180    3113    3144
       3    3186    3149    3180
       3    3189    3181    3150
       3    3150    3117    3088
       3    3182    3151    3153
       3    3252    3242    3222
       3    3175    3152    3101
       3    3195    3152    3175
       3    3160    3153    3120
       3    3185    3153    3160
       3    3154    3004    3054
       3    3193    3154    3054
       3    3187    3162    3155
       3    3195    3116    3152
       3    3196    3156    3194
       3    3156    3130    3110
       3    3176    2327    3142
       3    3184    3157    2326
       3    3197    3157    3184
       3    3158    3139    3106
       3    3159    3158    3131
       3    3197    3122    3157
       3    3183    3178    3158
       3    3185    3182    3153
       3    3160    3120    3123
       3    3161    3099    3102
       3    3265    3205    3200
       3    3190    3164    3162
       3    3162    3125    3121
       3    3176    3099    3161
       3    3191    3188    3165
       3    3163    3118    3149
       3    3190    3189    3164
       3    3164    3150    3119
       3    3191    3165    3163
       3    3165    3160    3123
       3    3207    3175    3166
       3    3166    3101    3112
       3    3219    3194    3209
       3    3167    3132    3129
       3    3198    3132    3167
       3    3227    3199    3226
       3    3199    3169    3133
       3    3228    3169    2364
       3    3170    3138    2327
       3    3178    3139    3158
       3    3201    2352    3136
       3    3236    3202    3209
       3    3171    3137    3145
       3    3172    2352    3148
       3    3174    3141    3147
       3    3211    3180    3204
       3    3173    3144    3143
       3    3206    3147    3181
       3    3236    3209    3171
       3    3175    3101    3166
       3    3213    3155    3195
       3    3265    3161    3179
       3    3179    3139    3178
       3    3177    3170    2327
       3    3183    3158    3159
       3    3208    3205    3178
       3    3265    3200    3177
       3    3179    3161    3139
       3    3204    3144    3173
       3    3204    3180    3144
       3    3214    3181    3189
       3    3181    3147    3117
       3    3212    3182    3185
       3    3207    3203    3175
       3    3197    3159    3122
       3    3244    3211    3235
       3    3265    3177    3176
       3    3193    2326    3154
       3    3210    3197    3184
       3    3188    3185    3160
       3    3215    3212    3185
       3    3218    3186    3211
       3    3186    3163    3149
       3    3243    3217    3187
       3    3217    3190    3187
       3    3220    3215    3188
       3    3188    3160    3165
       3    3189    3150    3164
       3    3214    3206    3181
       3    3190    3162    3187
       3    3221    3190    3217
       3    3220    3191    3218
       3    3191    3163    3186
       3    3192    3166    3124
       3    3222    3151    3182
       3    3223    3193    3054
       3    3224    3193    3223
       3    3263    3214    3253
       3    3194    3156    3137
       3    3203    3195    3175
       3    3213    3195    3203
       3    3216    3198    3196
       3    3196    3167    3156
       3    3225    3197    3210
       3    3197    3183    3159
       3    3198    3168    3132
       3    3198    3167    3196
       3    3199    2364    3169
       3    3199    3133    3168
       3    3238    3170    3200
       3    3200    3170    3177
       3    3237    3236    3171
       3    3236    2352    3172
       3    3271    3174    3206
       3    3271    3206    3241
       3    3207    3166    3192
       3    3250    3203    3242
       3    3233    3205    3208
       3    3238    3233    3234
       3    3233    3200    3205
       3    3208    3178    3183
       3    3262    3251    3216
       3    3206    3174    3147
       3    3222    3192    3151
       3    3222    3182    3212
       3    3225    3183    3197
       3    3261    3234    3233
       3    3219    3216    3196
       3    3209    3194    3171
       3    3224    3184    3193
       3    3267    3235    3261
       3    3249    3218    3244
       3    3211    3186    3180
       3    3248    3212    3215
       3    3252    3222    3212
       3    3250    3213    3203
       3    3213    3187    3155
       3    3221    3214    3189
       3    3262    3216    3219
       3    3215    3185    3188
       3    3248    3215    2338
       3    3216    3168    3198
       3    3219    3196    3194
       3    3243    3187    3213
       3    3221    3217    2351
       3    3249    3220    3218
       3    3218    3191    3186
       3    3239    3209    3202
       3    3239    3219    3209
       3    3220    2338    3215
       3    3220    3188    3191
       3    3221    3189    3190
       3    3275    3263    3253
       3    3242    3207    3222
       3    3222    3207    3192
       3    3281    3258    3006
       3    3255    3224    3223
       3    3255    3240    3224
       3    3224    3210    3184
       3    3225    3208    3183
       3    3245    3210    3240
       3    3254    3226    3251
       3    3226    3199    3168
       3    3269    2351    3246
       3    3227    2364    3199
       3    3297    3282    3257
       3    3228    2377    3134
       3    3229    2378    3135
       3    3362    3229    2391
       3    3260    3230    2377
       3    3259    3230    2390
       3    3231    2786     145
       3    3394    3231     145
       3    3325    3232    2335
       3    3232    3055    3096
       3    3238    3234    3173
       3    3247    3208    3225
       3    3235    3204    3234
       3    3234    3204    3173
       3    3278    3264    3240
       3    3235    3211    3204
       3    3237    3171    3145
       3    3237    3146    3136
       3    3238    3173    3170
       3    3238    3200    3233
       3    3241    3206    3214
       3    3284    3271    3241
       3    3240    3210    3224
       3    3264    3245    3240
       3    3253    3214    3221
       3    3284    3241    3263
       3    3274    3250    3242
       3    3242    3203    3207
       3    3266    3243    3250
       3    3246    3217    3243
       3    3276    3244    3267
       3    3244    3218    3211
       3    3273    3245    3264
       3    3245    3225    3210
       3    3279    3254    3277
       3    3246    2351    3217
       3    3273    3267    3261
       3    3247    3233    3208
       3    3272    2338    3270
       3    3268    3252    3212
       3    3285    3273    3264
       3    3249    2338    3220
       3    3250    3243    3213
       3    3286    3250    3274
       3    3277    3275    3253
       3    3251    3226    3216
       3    3268    3212    3248
       3    3290    3252    3268
       3    3253    3221    2351
       3    3295    3277    3269
       3    3254    3227    3226
       3    3284    3275    3251
       3    3258    3255    3223
       3    3283    3278    3255
       3    3280    3257    3256
       3    3256    2364    3227
       3    3327    3297    3304
       3    3257    3228    2364
       3    3258    3223    3006
       3    3296    3258    3281
       3    3308    3259    2390
       3    3259    2391    3135
       3    3315    3260    3307
       3    3260    2390    3230
       3    3261    3235    3234
       3    3261    3233    3247
       3    3262    3219    3239
       3    3284    3239    3271
       3    3284    3263    3275
       3    3263    3241    3214
       3    3302    3288    3289
       3    3285    3267    3273
       3    3265    3179    3205
       3    3294    3269    3246
       3    3266    3246    3243
       3    3267    3244    3235
       3    3273    3261    3247
       3    3292    3248    3272
       3    3290    3274    3252
       3    3294    3246    3266
       3    3295    3293    3279
       3    3302    3287    3288
       3    3270    2338    3249
       3    3271    3239    3202
       3    3271    3202    3174
       3    3292    3290    3268
       3    3272    3248    2338
       3    3273    3247    3245
       3    3285    3276    3267
       3    3298    3274    3290
       3    3274    3242    3252
       3    3277    3253    2351
       3    3275    3254    3251
       3    3276    3270    3249
       3    3276    3249    3244
       3    3277    3254    3275
       3    3277    2351    3269
       3    3289    3278    2337
       3    3278    3240    3255
       3    3299    3295    3269
       3    3279    3256    3227
       3    3306    3280    3293
       3    3297    3280    2363
       3    3296    3281    2336
       3    3281    3006    3055
       3    3327    3307    3282
       3    3282    3228    3257
       3    3296    3291    3283
       3    3283    2337    3278
       3    3284    3251    3262
       3    3284    3262    3239
       3    3289    3264    3278
       3    3288    3276    3285
       3    3298    3294    3286
       3    3286    3266    3250
       3    3288    3287    3270
       3    3311    2350    3300
       3    3288    3270    3276
       3    3289    3288    3285
       3    3289    3285    3264
       3    3302    3289    2337
       3    3292    3268    3248
       3    3300    3298    3290
       3    3312    3291    3303
       3    3291    2337    3283
       3    3301    3272    3287
       3    3301    3292    3272
       3    3318    3293    3299
       3    3293    3256    3279
       3    3294    3266    3286
       3    3322    3310    2350
       3    3295    3279    3277
       3    3299    3269    3294
       3    3296    3283    3258
       3    3316    3303    2336
       3    3297    3257    3280
       3    3304    3297    2363
       3    3317    3310    3294
       3    3298    3286    3274
       3    3310    3299    3294
       3    3299    3293    3295
       3    3317    3300    2350
       3    3300    3290    3292
       3    3309    3301    3287
       3    3311    3301    3309
       3    3305    3302    2337
       3    3319    3302    3305
       3    3321    3312    3303
       3    3303    3291    3296
       3    3323    3313    2362
       3    3327    3304    2376
       3    3305    2337    3291
       3    3319    3309    3302
       3    3332    3322    3324
       3    3306    2363    3280
       3    3307    2377    3282
       3    3315    3307    2376
       3    3330    3308    2390
       3    3361    3308    2404
       3    3309    3287    3302
       3    3320    3309    3319
       3    3317    3294    3298
       3    3322    3318    3310
       3    3324    3311    3320
       3    3311    3300    3301
       3    3321    3303    3316
       3    3331    3312    2349
       3    3314    3313    2363
       3    3342    3323    2362
       3    3332    3326    3314
       3    3314    2363    3306
       3    3328    3315    2376
       3    3340    3315    2389
       3    3321    3316    2348
       3    3325    3316    2336
       3    3317    3298    3300
       3    3317    2350    3310
       3    3318    3306    3293
       3    3318    3299    3310
       3    3331    3319    3305
       3    3331    3320    3319
       3    3337    3320    3331
       3    3320    3311    3309
       3    3334    3333    2349
       3    3321    2349    3312
       3    3322    3306    3318
       3    3324    3322    2350
       3    3336    3323    2375
       3    3323    3304    3313
       3    3332    2349    3326
       3    3324    2350    3311
       3    3325    2336    3232
       3    3339    3329    3325
       3    3333    3326    2349
       3    3326    2362    3313
       3    3327    2376    3307
       3    3327    3282    3297
       3    3328    2375    2388
       3    3328    2389    3315
       3    3335    3329    2347
       3    3329    2348    3316
       3    3369    3330    3340
       3    3330    2403    3308
       3    3331    3305    3312
       3    3337    3331    2349
       3    3332    3314    3322
       3    3337    3332    3324
       3    3333    2362    3326
       3    3334    2349    3321
       3    3335    3334    2348
       3    3338    3334    2361
       3    3335    2347    2360
       3    3335    2361    3334
       3    3336    2375    3328
       3    3336    2376    3323
       3    3337    3324    3320
       3    3337    2349    3332
       3    3403    3367    2361
       3    3338    2362    3333
       3    3366    2335    3341
       3    3339    2347    3329
       3    3369    3340    2389
       3    3340    2390    3260
       3    3402    3341    2324
       3    3341    2323    2334
       3    3342    2375    3323
       3    3342    2362    3338
       3    3429    3343    2340
       3    3343    2328     208
       3    3344     225     226
       3    3451    3344    2496
       3    3345    2649     257
       3    3467    3345     258
       3    3346     229     230
       3    3454    3346    2535
       3    3383    3347    2646
       3    3466    3347     254
       3    3348     232     233
       3    3456    3348    2561
       3    3349     237    2600
       3    3463    3349    2600
       3    3384    3350    2643
       3    3465    3350     250
       3    3351     239     240
       3    3459    3351    2626
       3    3385    3352    2640
       3    3464    3352     246
       3    3370    3353     223
       3    3449    3353    2470
       3    3443    3354    2431
       3    3354    2418     218
       3    3376    3355     216
       3    3439    3355    2405
       3    3460    3356    2366
       3    3356    2353     211
       3    3433    3357    2560
       3    3427    3357    2573
       3    3434    3358    2586
       3    3422    3358    2599
       3    3435    3359    2625
       3    3359    2638    3390
       3    3360     277     278
       3    3450    3360    2495
       3    3362    3361     289
       3    3361    2391    3308
       3    3362    2391    3361
       3    3362     289     290
       3    3431    3363    2521
       3    3423    3363    2534
       3    3388    3364     282
       3    3446    3364    2456
       3    3389    3365     285
       3    3442    3365    2430
       3    3366    2334    2346
       3    3366    2346    2347
       3    3367    3338    2361
       3    3368    3367    2374
       3    3399    3368    2374
       3    3368    2375    3342
       3    3400    3369    2389
       3    3401    3369    2402
       3    3370     224    2483
       3    3370    2483    2470
       3    3371     228     229
       3    3371    2522    2509
       3    3372     231     232
       3    3372    2548    2535
       3    3373     210    2353
       3    3373    2353    2340
       3    3374     213    2379
       3    3374    2379    2366
       3    3375     214     215
       3    3375    2392    2379
       3    3376     217    2418
       3    3376    2418    2405
       3    3377     220    2444
       3    3377    2444    2431
       3    3378     221     222
       3    3378    2457    2444
       3    3379     235     236
       3    3379    2587    2574
       3    3380     238     239
       3    3380    2613    2600
       3    3381     227    2509
       3    3381    2509    2496
       3    3382    2328    2317
       3    3382    2317     207
       3    3383    2646    2645
       3    3383    2645     252
       3    3384    2643    2642
       3    3384    2642     248
       3    3385    2640    2639
       3    3385    2639     244
       3    3386    2508    2521
       3    3386    2521     276
       3    3387     280     281
       3    3387    2469    2482
       3    3388     283    2443
       3    3388    2443    2456
       3    3389     286    2417
       3    3389    2417    2430
       3    3390    2638    2651
       3    3390    2651     262
       3    3391    2547    2560
       3    3357    3391    2560
       3    3392     279    2482
       3    3392    2482    2495
       3    3393    2404    2417
       3    3393    2417     287
       3    3402    3394     144
       3    3394    2324    3231
       3    3408    3395    2322
       3    3395    2323     143
       3    3396    2319    2320
       3    3404    3396    2320
       3    3397    2318    2319
       3    3397    2319    3396
       3    3398     136     135
       3    3398    2317    2318
       3    3399    2388    2375
       3    3406    3399    2374
       3    3400    2388    2401
       3    3400    2402    3369
       3    3407    3405    2402
       3    3401    2403    3330
       3    3402     144     143
       3    3402    2323    3341
       3    3403    2360    2373
       3    3403    2374    3367
       3    3404     140     139
       3    3404    2320    2321
       3    3405    2415    2416
       3    3468    3405    2416
       3    3406    2373    2386
       3    3406    2387    3399
       3    3407    2401    2414
       3    3407    2415    3405
       3    3408    2334    2323
       3    3408    2322    2333
       3    3489    3409    2332
       3    3409    2320    2331
       3    3410    2330    2319
       3    3410    2318    2329
       3    3411    2329    2318
       3    3411    2317    2328
       3    3412    2417    2404
       3    3468    3412    2403
       3    3440    3413    2429
       3    3469    3413    2415
       3    3414    2626    2639
       3    3414    2640    2627
       3    3415    2627    2640
       3    3415    2641    2628
       3    3488    3416    2629
       3    3416    2643    2630
       3    3417    2630    2643
       3    3417    2644    2631
       3    3485    3418    2632
       3    3418    2646    2633
       3    3419    2633    2646
       3    3419    2647    2634
       3    3420    2636    2649
       3    3436    3420    2650
       3    3421    2331    2320
       3    3421    2319    2330
       3    3472    3422    2599
       3    3422    2612     266
       3    3470    3423    2534
       3    3423    2547     273
       3    3424     234    2574
       3    3473    3424    2574
       3    3478    3425    2612
       3    3425    2625     264
       3    3426     241    2639
       3    3426    2639    2626
       3    3427    2573    2586
       3    3427    2586     269
       3    3428    2521    2508
       3    3492    3428    2507
       3    3474    3429    2341
       3    3429    2329    3411
       3    3491    3430    2354
       3    3430    2341    2340
       3    3431    2534    3363
       3    3493    3431    2520
       3    3432    2560    2547
       3    3494    3432    2546
       3    3433    2573    3357
       3    3495    3433    2559
       3    3434    2599    3358
       3    3496    3434    2585
       3    3435    2638    3359
       3    3484    3435    2624
       3    3436    2651    2638
       3    3436    2637    3420
       3    3437    2366    2379
       3    3498    3437    2380
       3    3438    2379    2392
       3    3499    3438    2393
       3    3439    2392    3355
       3    3500    3439    2406
       3    3440    2430    2417
       3    3440    2416    3413
       3    3441    2405    2418
       3    3501    3441    2419
       3    3442    2443    3365
       3    3477    3442    2429
       3    3443    2418    3354
       3    3502    3443    2432
       3    3444    2456    2443
       3    3503    3444    2442
       3    3445    2431    2444
       3    3504    3445    2445
       3    3446    2469    3364
       3    3505    3446    2455
       3    3447    2444    2457
       3    3506    3447    2458
       3    3448    2482    2469
       3    3507    3448    2468
       3    3449    2457    3353
       3    3508    3449    2471
       3    3450    2508    3360
       3    3490    3450    2494
       3    3451    2483    3344
       3    3509    3451    2497
       3    3452    2496    2509
       3    3510    3452    2510
       3    3453    2509    2522
       3    3511    3453    2523
       3    3454    2522    3346
       3    3512    3454    2536
       3    3455    2535    2548
       3    3513    3455    2549
       3    3456    2548    3348
       3    3514    3456    2562
       3    3457    2574    2587
       3    3515    3457    2588
       3    3458    2600    2613
       3    3516    3458    2614
       3    3459    2613    3351
       3    3479    3459    2627
       3    3460    2353    3356
       3    3517    3460    2367
       3    3461    2495    2482
       3    3518    3461    2481
       3    3462    2470    2483
       3    3519    3462    2484
       3    3463    2587    3349
       3    3520    3463    2601
       3    3464    2641    3352
       3    3464     247    2642
       3    3465    2644    3350
       3    3465     251    2645
       3    3466    2648    2647
       3    3466    2647    3347
       3    3467    2651    2650
       3    3467    2650    3345
       3    3468    2416    3412
       3    3468    2403    3401
       3    3469    2414    2427
       3    3469    2428    3413
       3    3470    2547    3423
       3    3526    3470    2533
       3    3471    2586    2573
       3    3527    3471    2572
       3    3472    2612    3422
       3    3528    3472    2598
       3    3473    2575    2562
       3    3473    2561    3424
       3    3474    2342    2330
       3    3474    2329    3429
       3    3475    2344    2332
       3    3475    2331    2343
       3    3476    2346    2334
       3    3476    2333    3530
       3    3477    2442    3442
       3    3525    3477    2428
       3    3478    2611    2624
       3    3478    2625    3425
       3    3479    2614    3459
       3    3540    3479    2628
       3    3540    3480    2616
       3    3480    2630    2617
       3    3481    2617    2630
       3    3481    2631    2618
       3    3537    3482    2619
       3    3482    2633    2620
       3    3483    2620    2633
       3    3483    2634    2621
       3    3484    2623    2636
       3    3484    2637    3435
       3    3485    2631    2644
       3    3485    2645    3418
       3    3486    2634    2647
       3    3497    3486    2648
       3    3487    2343    2331
       3    3487    2330    2342
       3    3488    2628    2641
       3    3488    2642    3416
       3    3489    2333    2322
       3    3489    2321    3409
       3    3490    2507    3450
       3    3542    3490    2493
       3    3491    2341    3430
       3    3539    3491    2355
       3    3492    2520    3428
       3    3543    3492    2506
       3    3493    2533    3431
       3    3544    3493    2519
       3    3494    2559    3432
       3    3545    3494    2545
       3    3495    2572    3433
       3    3546    3495    2558
       3    3496    2598    3434
       3    3547    3496    2584
       3    3497    2649    2636
       3    3497    2635    3486
       3    3498    2367    3437
       3    3548    3498    2381
       3    3499    2380    3438
       3    3549    3499    2394
       3    3500    2393    3439
       3    3550    3500    2407
       3    3501    2406    3441
       3    3523    3501    2420
       3    3502    2419    3443
       3    3524    3502    2433
       3    3503    2455    3444
       3    3521    3503    2441
       3    3504    2432    3445
       3    3522    3504    2446
       3    3505    2468    3446
       3    3551    3505    2454
       3    3506    2445    3447
       3    3552    3506    2459
       3    3507    2481    3448
       3    3553    3507    2467
       3    3508    2458    3449
       3    3554    3508    2472
       3    3509    2484    3451
       3    3555    3509    2498
       3    3510    2497    3452
       3    3556    3510    2511
       3    3511    2510    3453
       3    3557    3511    2524
       3    3512    2523    3454
       3    3558    3512    2537
       3    3513    2536    3455
       3    3559    3513    2550
       3    3514    2549    3456
       3    3560    3514    2563
       3    3515    2575    3457
       3    3561    3515    2589
       3    3516    2601    3458
       3    3562    3516    2615
       3    3564    3517    2368
       3    3517    2355    2354
       3    3518    2494    3461
       3    3563    3518    2480
       3    3519    2471    3462
       3    3565    3519    2485
       3    3520    2588    3463
       3    3566    3520    2602
       3    3583    3521    2440
       3    3521    2454    3503
       3    3585    3522    2447
       3    3522    2433    3504
       3    3584    3523    2421
       3    3523    2407    3501
       3    3586    3524    2434
       3    3524    2420    3502
       3    3525    2427    2440
       3    3525    2441    3477
       3    3526    2546    3470
       3    3593    3526    2532
       3    3527    2585    3471
       3    3594    3527    2571
       3    3528    2611    3472
       3    3595    3528    2597
       3    3529    2576    2563
       3    3529    2562    2575
       3    3476    3530    2345
       3    3530    2332    2344
       3    3582    3531    2357
       3    3531    2343    2356
       3    3562    3532    2603
       3    3532    2617    2604
       3    3533    2604    2617
       3    3533    2618    2605
       3    3591    3534    2606
       3    3534    2620    2607
       3    3535    2607    2620
       3    3535    2621    2608
       3    3536    2610    2623
       3    3536    2624    2611
       3    3537    2618    2631
       3    3537    2632    3482
       3    3538    2621    2634
       3    3541    3538    2635
       3    3539    2356    2343
       3    3539    2342    3491
       3    3540    2615    3479
       3    3540    2629    3480
       3    3541    2622    3538
       3    3541    2636    2623
       3    3542    2506    3490
       3    3568    3542    2492
       3    3543    2519    3492
       3    3567    3543    2505
       3    3544    2532    3493
       3    3598    3544    2518
       3    3545    2558    3494
       3    3599    3545    2544
       3    3546    2571    3495
       3    3600    3546    2557
       3    3547    2597    3496
       3    3601    3547    2583
       3    3574    3548    2382
       3    3548    2369    2368
       3    3549    2381    3499
       3    3577    3549    2395
       3    3550    2394    3500
       3    3580    3550    2408
       3    3551    2467    3505
       3    3575    3551    2453
       3    3552    2446    3506
       3    3581    3552    2460
       3    3553    2480    3507
       3    3572    3553    2466
       3    3554    2459    3508
       3    3579    3554    2473
       3    3555    2485    3509
       3    3576    3555    2499
       3    3556    2498    3510
       3    3573    3556    2512
       3    3557    2511    3511
       3    3571    3557    2525
       3    3558    2524    3512
       3    3602    3558    2538
       3    3559    2537    3513
       3    3603    3559    2551
       3    3560    2550    3514
       3    3604    3560    2564
       3    3561    2576    3515
       3    3605    3561    2590
       3    3562    2602    3516
       3    3562    2616    3532
       3    3563    2493    3518
       3    3570    3563    2479
       3    3564    2355    3517
       3    3569    3564    2369
       3    3565    2472    3519
       3    3578    3565    2486
       3    3566    2589    3520
       3    3587    3566    2603
       3    3615    3567    2504
       3    3567    2518    3543
       3    3616    3568    2491
       3    3568    2505    3542
       3    3617    3569    2370
       3    3569    2356    3564
       3    3619    3570    2478
       3    3570    2492    3563
       3    3618    3571    2526
       3    3571    2512    3557
       3    3620    3572    2465
       3    3572    2479    3553
       3    3621    3573    2513
       3    3573    2499    3556
       3    3622    3574    2383
       3    3574    2369    3548
       3    3575    2466    3551
       3    3661    3575    2453
       3    3623    3576    2500
       3    3576    2486    3555
       3    3625    3577    2396
       3    3577    2382    3549
       3    3626    3578    2487
       3    3578    2473    3565
       3    3627    3579    2474
       3    3579    2460    3554
       3    3663    3628    3580
       3    3580    2395    3550
       3    3629    3581    2461
       3    3581    2447    3552
       3    3582    2358    2345
       3    3582    2344    3531
       3    3640    3606    2440
       3    3583    2453    3521
       3    3610    3586    3609
       3    3584    2408    3523
       3    3662    3585    2447
       3    3585    2434    3522
       3    3609    2434    3608
       3    3586    2421    3524
       3    3587    2590    3566
       3    3588    3587    2604
       3    3588    2591    3587
       3    3588    2605    2592
       3    3638    3589    2593
       3    3589    2607    2594
       3    3590    2594    2607
       3    3632    3590    2608
       3    3591    2605    2618
       3    3591    2619    3534
       3    3592    2608    2621
       3    3597    3592    2622
       3    3593    2545    3526
       3    3630    3593    2531
       3    3594    2584    3527
       3    3631    3594    2570
       3    3595    2610    3528
       3    3632    2609    2596
       3    3596    2577    2564
       3    3596    2563    2576
       3    3597    2609    3592
       3    3597    2623    2610
       3    3598    2531    3544
       3    3614    3598    2517
       3    3599    2557    3545
       3    3611    3599    2543
       3    3600    2570    3546
       3    3639    3600    2556
       3    3601    2596    3547
       3    3637    3601    2582
       3    3602    2525    3558
       3    3613    3602    2539
       3    3603    2538    3559
       3    3612    3603    2552
       3    3604    2551    3560
       3    3641    3604    2565
       3    3605    2577    3561
       3    3635    3605    2591
       3    3679    3606    2439
       3    3661    3606    2452
       3    3678    3607    2422
       3    3663    3607    2409
       3    3692    3608    2448
       3    3609    3608    2435
       3    3642    3609    2435
       3    3610    2422    3607
       3    3610    3607    2421
       3    3610    2421    3586
       3    3669    3611    2542
       3    3611    2556    3599
       3    3670    3612    2553
       3    3612    2539    3603
       3    3671    3613    2540
       3    3613    2526    3602
       3    3688    3672    3614
       3    3614    2530    3598
       3    3654    3616    3646
       3    3615    2517    3567
       3    3656    3619    3647
       3    3616    2504    3568
       3    3686    3634    2370
       3    3617    2357    3569
       3    3687    3618    2526
       3    3618    2513    3571
       3    3659    3620    3648
       3    3619    2491    3570
       3    3650    2465    3624
       3    3620    2478    3572
       3    3660    3645    3621
       3    3621    2500    3573
       3    3649    2383    2384
       3    3622    2370    3574
       3    3651    2500    3645
       3    3623    2487    3576
       3    3679    3650    2452
       3    3624    2465    3575
       3    3628    3653    2396
       3    3625    2383    3577
       3    3626    2487    2488
       3    3626    2474    3578
       3    3627    2474    2475
       3    3627    2461    3579
       3    3678    3658    2409
       3    3628    2396    3580
       3    3629    2461    2462
       3    3662    3629    2448
       3    3630    2544    3593
       3    3668    3630    2530
       3    3631    2583    3594
       3    3673    3631    2569
       3    2596    2609    3595
       3    3632    2595    3590
       3    3633    2578    2565
       3    3633    2564    2577
       3    3667    3634    2371
       3    3634    2358    2357
       3    3635    2578    3605
       3    3676    3635    2592
       3    3676    3636    2580
       3    3636    2594    2581
       3    3637    2581    2594
       3    3637    2595    3601
       3    3638    2592    2605
       3    3638    2606    3589
       3    3639    2569    3600
       3    3665    3639    2555
       3    3640    2440    2427
       3    3666    3640    2426
       3    3641    2552    3604
       3    3664    3641    2566
       3    3642    2436    2423
       3    3642    2422    3610
       3    3700    3643    2527
       3    3690    3660    2514
       3    3695    3644    2503
       3    3688    3644    2516
       3    3690    3645    3660
       3    3651    3645    2501
       3    3680    3646    2490
       3    3654    2503    3644
       3    3681    3647    2477
       3    3656    2490    3646
       3    3691    3648    2464
       3    3659    2477    3647
       3    3699    3649    2384
       3    3686    3649    2371
       3    3650    2451    2464
       3    3650    2464    3648
       3    3651    2501    2488
       3    3651    2488    2487
       3    3652    2488    3705
       3    3652    2475    2474
       3    3653    2397    2384
       3    3653    2384    3625
       3    3654    3644    2504
       3    3654    2504    3616
       3    3655    2475    3708
       3    3655    2462    2461
       3    3656    3646    2491
       3    3656    2491    3619
       3    3657    2462    2449
       3    3692    3657    2449
       3    3658    2410    2397
       3    3658    2397    3628
       3    3659    3647    2478
       3    3659    2478    3620
       3    3660    2513    3643
       3    3660    3643    2514
       3    3661    2452    3575
       3    3661    2453    3583
       3    3662    2447    3581
       3    3662    2448    3608
       3    3663    2409    3628
       3    3663    2408    3584
       3    3693    3664    2567
       3    3664    2553    3641
       3    3693    3665    2554
       3    3665    2568    3639
       3    3666    2425    2438
       3    3666    2439    3640
       3    3667    2372    2359
       3    3667    2358    3634
       3    3668    2529    2542
       3    3668    2543    3630
       3    3703    3683    2542
       3    3669    2555    3611
       3    3697    3670    2553
       3    3670    2540    3612
       3    3684    2540    3682
       3    3687    3671    2527
       3    3695    3685    2516
       3    3672    2529    3614
       3    3673    2582    3631
       3    3675    3673    2568
       3    3694    3674    2579
       3    3674    2565    2578
       3    3675    2567    2580
       3    3675    2581    3673
       3    3676    2579    3635
       3    3676    2593    3636
       3    3677    2345    2358
       3    3677    2359    2346
       3    3678    2423    2410
       3    3678    2409    3607
       3    3679    2452    3606
       3    3679    2439    2438
       3    3680    2489    2502
       3    3680    2503    3654
       3    3681    2476    2489
       3    3681    2490    3656
       3    3682    2554    2541
       3    3684    3682    2541
       3    3683    2541    2554
       3    3698    3683    2554
       3    3684    2541    2528
       3    3700    3684    2528
       3    3685    2515    2528
       3    3696    3685    2528
       3    3686    2371    3634
       3    3686    2370    3622
       3    3687    2526    3613
       3    3687    2527    3643
       3    3688    2516    3672
       3    3688    2517    3615
       3    3689    2427    2414
       3    3689    2413    2426
       3    3701    3690    2515
       3    3690    2501    3645
       3    3691    2463    2476
       3    3691    2477    3659
       3    3692    2449    2436
       3    3692    2435    3608
       3    3693    2567    3665
       3    3697    3693    2554
       3    3694    2580    2567
       3    3694    2566    3674
       3    3701    3695    2502
       3    3695    2516    3644
       3    3703    2528    2541
       3    3696    2529    3672
       3    3697    2553    3664
       3    3697    2554    3682
       3    3698    2554    3665
       3    3698    2555    3669
       3    3699    2385    2372
       3    3699    2371    3649
       3    3700    2528    2515
       3    3700    2514    3643
       3    3701    2515    3695
       3    3701    2502    3690
       3    3702    2488    2501
       3    3702    2502    2489
       3    3703    2541    3683
       3    3703    2542    2529
       3    3704    2423    2436
       3    3704    2437    2424
       3    3652    3705    2475
       3    3705    2489    2476
       3    3706    2424    2411
       3    3706    2411    2410
       3    3707    2436    2449
       3    3707    2450    2437
       3    3655    3708    2462
       3    3708    2476    2463
       3    2372    2385    3709
       3    2386    2373    3709
       3    4157     351     352
       3    4689    4674    4640
       3    4539    4491    4444
       3    4538    4493    3730
       3    4774    3729    4713
       3    4858    3717    4806
       3    4848    3716    3715
       3    4938    3715    3714
       3    4852    3714    3713
       3    4853    3713    3712
       3    4854    3712    3711
       3    4836     385     386
       3    4788     386     387
       3    4828    4788     387
       3    4828     387     388
       3    4828    3733    4788
       3    4903    4873    3746
       3    4985    3759    3758
       3    5038    3773    3772
       3    5081    3786    5041
       3    5163    3801    3800
       3    5198    3815    3814
       3    5203    5196    3829
       3    5171    3843    3842
       3    5143    5109    3857
       3    5006    3871    3870
       3    4968    3885    3884
       3    4949    4934    3899
       3    4845    4803      53
       3    4845      52    3899
       3      52      51    3899
       3    4842    3899      51
       3    4878    3885    3886
       3    4969    3871    3872
       3    4959    3857    3858
       3    5155    3843    3844
       3    5167    3829    3830
       3    3815    3816    3802
       3    5202    3801    5215
       3    5141    3787    3788
       3    5150    5114    3773
       3    5007    3759    3760
       3    4986    3746    3747
       3    4867    3733    3734
       3    4903    3734    3733
       3    4903    3733    3745
       3      13     384     383
       3     383     384    3711
       3     382    3712     381
       3    4808     380     381
       3    4807     379     380
       3    4846     378    3714
       3    4805     376     377
       3    4806     375     376
       3    4815    3718    4810
       3    4714    3718    4537
       3    4162    4191      12
       3    4103    4098     361
       3    4136     471     472
       3    4226    4164    4166
       3    4714    4537    3719
       3    4815     375    3717
       3    4806     376    4805
       3    4806    4805    3716
       3     378     379    3714
       3    4808    4807     380
       3    4808     381    3712
       3    4809    3712     382
       3     384     385    3711
       3     388     389    3745
       3    4793     389     390
       3    4904    3758    3757
       3    4997    3772    4985
       3    4960    3786    3785
       3    5145    3800    5074
       3    5119    3814    3813
       3    5209    3828    3827
       3    5216    5205    3842
       3    5134    3856    3855
       3    5025    3870    3869
       3    5046    3884    3883
       3    4978    3898    4968
       3    4868    3912    3911
       3      54    3925      55
       3    4803      54      53
       3    4829     390     391
       3    4829    3757    4793
       3    4915    3771    4904
       3    4955    3785    3784
       3    5031    3799    3798
       3    5079    3812    5043
       3    5164    3827    3826
       3    5199    3841    3840
       3    5197    3855    3854
       3    5124    5104    3869
       3    5093    3883    3882
       3    5052    3897    5046
       3    4939    3911    3910
       3    4924    3925    3924
       3    4866      56      55
       3    4866      55    3925
       3     391     392    3770
       3    4835     392     393
       3    4886    3784    3783
       3    4987    3798    3797
       3    4962    3812    3811
       3    5146    3826    5076
       3    5120    3840    3839
       3    5207    3854    3853
       3    5158    3868    3867
       3    5179    3882    5126
       3    5091    3896    3895
       3    5008    3910    3909
       3    4970    3924    3923
       3    4869    3938    3937
       3    4862      57    3951
       3    4866    4802      56
       3    4789     393     394
       3    4835    4789    3783
       3    4905    3797    3796
       3    4945    3811    3810
       3    5033    3825    3824
       3    5078    3838    5045
       3    5165    3853    3852
       3    5212    3867    3866
       3    5191    3881    3880
       3    5182    3895    5179
       3    5023    3909    3908
       3    5047    3923    3922
       3    4940    3937    3936
       3    4925    3951    3950
       3      58    3964      59
       3    4862      58      57
       3    4830     394     395
       3    4830    3796    4789
       3    4905    4875    3810
       3    4988    3824    3823
       3    4964    3838    3837
       3    5147    3852    5077
       3    5168    3866    3865
       3    5200    3880    5212
       3    5190    3894    3893
       3    5123    5103    3908
       3    5094    3922    3921
       3    5009    3936    3935
       3    4971    3950    3949
       3    4935    3964    4925
       3    4839    4798      60
       3    4839      59    3964
       3     395     396    3809
       3    4792    3809     396
       3    4906    3823    3822
       3    4947    3837    3836
       3    5034    3851    3850
       3    5151    3865    5147
       3    5139    3879    3878
       3    5200    5210    3893
       3    5157    3907    3906
       3    5180    3921    5125
       3    5021    3935    3934
       3    5048    3949    3948
       3    4979    3963    4971
       3    4870    3977    3976
       3      61    3990      62
       3    4798      61      60
       3    4831     397     398
       3    4831    3822     397
       3    4906    4877    3836
       3    4989    3850    3849
       3    5037    3864    3863
       3    5075    3877    5044
       3    5162    3892    3891
       3    5201    3906    5210
       3    5192    3920    3919
       3    5122    5102    3934
       3    5095    3948    3947
       3    5053    3962    5048
       3    4941    3976    3975
       3    4926    3990    3989
       3    4799      63    4840
       3    4840      62    3990
       3     398     399    3835
       3    4790    3835     399
       3    4907    3849    3848
       3    4998    3863    4989
       3    4963    3877    3876
       3    5148    3891    5080
       3    5140    3905    3904
       3    5201    5211    3919
       3    5156    3933    3932
       3    5181    3947    5127
       3    5089    3961    3960
       3    5010    3975    3974
       3    4972    3989    3988
       3    4871    4003    4002
       3    4864      64    4016
       3    4799      64      63
       3    4834    4790     400
       3    4834    3848    4790
       3    4916    3862    4907
       3    4950    3876    3875
       3    5032    3890    3889
       3    5073    3903    5042
       3    5161    3918    3917
       3    5211    5214    3932
       3    5193    3946    3945
       3    5184    3960    3959
       3    5020    3974    3973
       3    5049    3988    3987
       3    4942    4002    4001
       3    4927    4016    4015
       3    4860      66    4029
       3    4864      65      64
       3     401     402    3861
       3    4832    3861     402
       3    4879    3875    3874
       3    4990    3889    3888
       3    4961    3903    3902
       3    5149    3917    5082
       3    5189    3931    3930
       3    5213    3945    5214
       3    5188    3959    3958
       3    5183    3973    3972
       3    5096    3987    3986
       3    5011    4001    4000
       3    4973    4015    4014
       3    4936    4029    4927
       3    4860    4800      67
       3    4860      67      66
       3    4832     403    4791
       3    4832    4791    3874
       3    4908    3888    3887
       3    4951    3902    3901
       3    5030    3916    3915
       3    5177    3930    3929
       3    5169    3944    3943
       3    5194    3958    3957
       3    5195    3972    3971
       3    5183    5154    3986
       3    5067    4000    3999
       3    5050    4014    4013
       3    4980    4028    4973
       3    4872    4042    4041
       3    4865      69    4055
       3    4800      68      67
       3    4833     404     405
       3    4833    3887    4791
       3    4908    4880    3901
       3    4991    3915    3914
       3    5088    3929    3928
       3    5177    5152    3943
       3    5175    3957    3956
       3    5174    3971    3970
       3    5160    3985    3984
       3    5087    3999    3998
       3    5107    4013    4012
       3    5054    4027    5050
       3    4943    4041    4040
       3    4928    4055    4054
       3    4801      70    4865
       3    4865      70      69
       3     405     406    3900
       3    4783    3900     406
       3    4909    3914    3913
       3    5058    3928    3927
       3    5098    3942    3941
       3    5097    3956    3955
       3    5121    3969    5101
       3    5170    3984    3983
       3    5185    3998    3997
       3    5136    4012    4011
       3    5111    4026    5107
       3    5012    4040    4039
       3    4974    4054    4053
       3    4884    4068    4067
       3    4841      72      71
       3    4801      71      70
       3    4826    4783     407
       3    4826    3913    4783
       3    4992    3927    3926
       3    5061    3941    5058
       3    5062    3955    3954
       3    5022    3969    3968
       3    5144    3983    5128
       3    5186    3996    5137
       3    5176    4011    4010
       3    5117    4025    4024
       3    5068    4039    4038
       3    5012    4982    4053
       3    4974    4900    4067
       3    4929    4081    4080
       3     444      73    4094
       3      72    4094      73
       3     408     409    3926
       3    5071    3926     409
       3    4999    3940    4992
       3    5000    3954    3953
       3    5013    3968    3967
       3    5090    3982    3981
       3    5086    3996    3995
       3    5186    5178    4010
       3    5132    4024    4023
       3    5066    4038    4037
       3    5057    4052    4051
       3    4899    4066    4065
       3    4851    4080    4079
       3    4888     443    4094
       3       2      73     444
       3    5071     410    3939
       3    3939     410     411
       3    4917    3953    3952
       3    4952    3967    3966
       3    5059    3981    3980
       3    5069    3995    3994
       3    5133    4009    4008
       3    5153    4023    4022
       3    5112    4037    4036
       3    5005    4051    4050
       3    4984    4065    4064
       3    4850    4079    4078
       3    4777    4093    4092
       3    4888     442     443
       3    3939     411    3952
       3    4823    3952     412
       3    4881    3966    3965
       3    4993    3980    3979
       3    5014    3994    3993
       3    5113    4008    4007
       3    5110    4022    4021
       3    5116    4036    5153
       3    5056    4050    4049
       3    4937    4064    5005
       3    4902    4078    4077
       3    4778    4092    4091
       3    4777     441     442
       3    4784    4823     413
       3    4784    3965    4823
       3    4910    3979    3978
       3    4953    3993    3992
       3    5060    4007    4006
       3    5115    4021    5113
       3    5055    4035    4034
       3    5065    4049    4048
       3    4983    4063    4062
       3    4859    4077    4937
       3    4820     439     440
       3    4778     440     441
       3    4784     414    3978
       3    4824    3978     415
       3    4910    4882    3992
       3    4994    4006    4005
       3    5063    4020    5060
       3    5070    4034    4033
       3    4981    4048    4047
       3    5004    4062    4061
       3    4901    4076    4075
       3    4779    4090    4089
       3    4820     438     439
       3    4824     416    4785
       3    4824    4785    3991
       3    4911    4005    4004
       3    5001    4019    4994
       3    5015    4033    4032
       3    5064    4047    4046
       3    4898    4061    4060
       3    4923    4075    4074
       3    4821     436     437
       3    4779     437     438
       3    4861    4785     417
       3    4861     417     418
       3    4918    4018    4911
       3    4954    4032    4031
       3    5015    5002    4046
       3    5003    4060    4059
       3    4849    4074    4073
       3    4887    4088    4087
       3     436    4088     435
       3    4861    4004    4785
       3    4825    4017     419
       3    4883    4031    4030
       3    4995    4045    4044
       3    4920    4059    4058
       3    4922    4073    4072
       3    4780    4087    4086
       3    4887     434     435
       3    4825     420    4786
       3    4825    4786    4030
       3    4912    4044    4043
       3    4995    4919    4058
       3    4857    4072    4071
       3    4822     432     433
       3    4780     433     434
       3    4786     421    4043
       3     422    4043     421
       3    4912    4885    4057
       3    4919    4856    4071
       3    4781    4085    4084
       3     432    4085     431
       3    4827    4043     422
       3    4827    4787    4056
       3    4885    4855    4070
       3    4782    4084    4083
       3    4781     430     431
       3    4787     424    4069
       3    4863     424     425
       3    4811     428    4083
       3    4782     429     430
       3    4863    4069     424
       3    4082     426     427
       3    4811     427     428
       3     426      14     427
       3    4842      50    3886
       3    4797    3886      50
       3    4930    3872    3873
       3    4946    3858    3859
       3    5029    3844    3845
       3    5142    3830    3831
       3    3816    3817    3803
       3    3802    3803    3789
       3    5166    3788    3789
       3    5108    3774    3775
       3    5024    3760    3761
       3    4996    3747    3748
       3    4986    4913    3734
       3    4867    4854    3722
       3    4867    3722    4788
       3    4843      49      48
       3    4843    3873    4797
       3    4930    4876    3859
       3    4975    3845    3846
       3    5036    3831    3832
       3    5105    3817    3818
       3    3803    3804    3790
       3    3789    3790    5218
       3    5135    3775    3776
       3    5051    3761    3762
       3    5028    3748    3749
       3    4914    3735    3736
       3    4853    3723    3724
       3    4913    3724    3723
       3      48      47    3860
       3    4796      47      46
       3    4931    3846    3847
       3    4977    3832    4975
       3    5019    3819    4967
       3    5172    3804    3805
       3    3790    3791    3777
       3    3776    3777    3763
       3    5217    5204    5092
       3    4976    3749    3750
       3    4966    3736    3737
       3    4852    3724    4914
       3    4852    4914    3725
       3    4837      46      45
       3    4837    3847      46
       3    4933    3833    4931
       3    4895    3819    3820
       3    5085    3805    5018
       3    5084    3791    3792
       3    3777    3778    3764
       3    5130    3763    3764
       3    5187    5035    3750
       3    4897    3737    3738
       3    4938    3725    3726
       3    4966    3725    3736
       3      45      44    3834
       3    4844      44      43
       3    4874    3820    3821
       3    4965    3806    3807
       3    5131    4889    5017
       3    4957    3778    3779
       3    4818    3764    3765
       3    5083    3752    5016
       3    4921    3738    3739
       3    4848    3726    3727
       3    4897    3727    3726
       3    4794      43      42
       3    4844    4794    3821
       3    4932    3807    3808
       3    5106    4894    4847
       3    4956    4814    4890
       3    4891    4818    3765
       3    4958    4893    3753
       3    4892    3740    4817
       3    4858    3727    3728
       3    4921    3728    3727
       3    4838      42      41
       3    4838      41    3795
       3    4813    3794    3795
       3    4773    3781    4712
       3    4812    4735    4769
       3    4771    4767    4766
       3    4817    4656    4768
       3    4774    3728    3729
       3    4892    4817    3729
       3    4804      40      39
       3    4804    4795    3782
       3    4716    4443    3768
       3    4684    4653    4618
       3    4762    4759    4754
       3    4686    4619    3741
       3    4713    3730    4493
       3    4656    4619    3730
       3    4795      38    4715
       3    4715      38    4227
       3    4492    4443    4392
       3    4684    4654    3755
       3    4751    4747    4743
       3    4444    4393    3719
       3    4619    4583    3730
       3    4165      36    4163
       3    4706    4536    4581
       3    4574    4511    4528
       3    4640    4596    4614
       3    4751    4743    4742
       3    4225    4163    4223
       3    4190    4161    4123
       3    4167    4115    4099
       3    4138    4131     457
       3    4159    4127     469
       3    4156    4150     467
       3    4528    4467    4503
       3    4270    4269    4201
       3    4138     457     458
       3    4986    3735    4913
       3    4996    3736    3735
       3    5028    3737    3736
       3    4976    3738    3737
       3    5035    3739    3738
       3    5072    5016    3740
       3    4816    3741    4775
       3    4819    4816    3753
       3    4762    3755    4759
       3    4734    4683    4733
       3    4168    4119    4118
       3    4613    4579    4578
       3    4944    3758    3759
       3    4944    3746    4873
       3    5007    3748    3747
       3    5024    3749    3748
       3    5051    3750    3749
       3    5217    5092    3762
       3    5130    3752    5083
       3    4893    4818    3753
       3    4772    3754    4767
       3    4769    3755    4765
       3    4618    4582    3756
       3    4490    4445    4391
       3    4873    3757    3758
       3    5027    3772    3773
       3    5027    3760    3759
       3    5114    3761    3760
       3    5108    3762    3761
       3    5217    5135    3776
       3    3764    3763    3777
       3    3765    3764    3778
       3    4957    3766    4891
       3    4890    4814    4770
       3    4685    3768    4653
       3    4494    3769    4443
       3    4915    4904    3770
       3    4997    4985    3771
       3    5150    3786    5081
       3    5150    3773    3786
       3    5141    3775    3774
       3    5166    3776    3775
       3    3777    3776    5218
       3    3778    3777    3791
       3    5084    3779    3778
       3    4956    4889    3780
       3    4847    3781    4773
       3    4813    3782    4776
       3    4915    3783    3784
       3    4997    3784    3785
       3    5038    3785    3786
       3    5118    3800    3801
       3    5118    3788    3787
       3    5202    3789    3788
       3    3790    3789    3803
       3    3791    3790    3804
       3    5172    3792    3791
       3    5131    5085    3793
       3    5106    4965    3794
       3    4932    3795    3794
       3    4886    3796    3797
       3    4955    3797    3798
       3    4960    3798    3799
       3    5145    5074    3799
       3    5215    3814    3815
       3    5215    3801    3814
       3    3803    3802    3816
       3    3804    3803    3817
       3    5105    3805    3804
       3    5085    5018    3806
       3    4895    3807    3806
       3    4874    3808    3807
       3    4905    3809    4875
       3    4987    3810    3811
       3    5031    3811    3812
       3    5145    3812    5079
       3    5163    3813    3814
       3    5206    3828    5203
       3    5206    3816    3815
       3    5167    3817    3816
       3    5142    3818    3817
       3    5036    3819    5019
       3    4977    3820    3819
       3    4933    3821    3820
       3    4875    3822    3823
       3    4945    3823    3824
       3    4962    3824    3825
       3    5146    5076    3825
       3    5119    3826    3827
       3    5198    3827    3828
       3    5159    3842    3843
       3    5196    5159    3829
       3    5155    3831    3830
       3    5029    3832    3831
       3    4977    4975    3833
       3    4933    4931    3834
       3    4906    3835    4877
       3    4988    3836    3837
       3    5033    3837    3838
       3    5146    3838    5078
       3    5164    3839    3840
       3    5209    3840    3841
       3    5216    5196    5203
       3    5143    3857    5040
       3    5143    5040    3844
       3    4959    3845    3844
       3    4946    3846    3845
       3    4876    3847    3846
       3    4877    3848    3849
       3    4947    3849    3850
       3    4964    3850    3851
       3    5147    5077    3851
       3    5120    3852    3853
       3    5199    3853    3854
       3    5205    3854    3855
       3    5171    3855    3856
       3    5026    3870    3871
       3    5026    3857    3870
       3    4969    3859    3858
       3    4930    3860    4876
       3    4916    4907    3861
       3    4998    4989    3862
       3    5034    3863    3864
       3    5151    5147    3864
       3    5165    3865    3866
       3    5207    3866    3867
       3    5197    3867    3868
       3    5134    3868    5124
       3    5109    3869    3870
       3    4948    3884    3885
       3    4948    3872    3871
       3    4878    3873    3872
       3    4916    3874    3875
       3    4998    3875    3876
       3    5037    3876    3877
       3    5151    3877    5075
       3    5168    3878    3879
       3    5200    5212    3879
       3    5158    3880    3881
       3    5126    3882    5104
       3    5025    3882    3883
       3    5006    3883    3884
       3    4949    3898    4934
       3    4949    3886    3885
       3    4879    3887    3888
       3    4950    3888    3889
       3    4963    3889    3890
       3    5148    5080    3890
       3    5139    3891    3892
       3    5200    3892    5210
       3    5191    3893    3894
       3    5182    5179    3894
       3    5093    3895    3896
       3    5052    5046    3896
       3    4978    4968    3897
       3    4908    3900    4880
       3    4990    3901    3902
       3    5032    3902    3903
       3    5148    3903    5073
       3    5162    3904    3905
       3    5201    5210    3905
       3    5190    3906    3907
       3    5182    3907    5123
       3    5091    3908    3909
       3    5052    3909    3910
       3    4978    3910    3911
       3    4934    3911    3912
       3    4880    3913    3914
       3    4951    3914    3915
       3    4961    3915    3916
       3    5149    5082    3916
       3    5140    3917    3918
       3    5201    3918    5211
       3    5157    3919    3920
       3    5125    3921    5103
       3    5023    3921    3922
       3    5008    3922    3923
       3    4939    3923    3924
       3    4868    3924    3925
       3    4909    3926    3927
       3    4991    3927    3928
       3    5030    3928    3929
       3    5149    3929    3930
       3    5161    3930    3931
       3    5211    3931    5214
       3    5192    3932    3933
       3    5180    3933    5122
       3    5094    3934    3935
       3    5047    3935    3936
       3    4970    3936    3937
       3    4924    3937    3938
       3    4999    4992    3939
       3    5061    5058    3940
       3    5088    3941    3942
       3    5177    3942    5152
       3    5189    3943    3944
       3    5213    5214    3944
       3    5156    3945    3946
       3    5127    3947    5102
       3    5021    3947    3948
       3    5009    3948    3949
       3    4940    3949    3950
       3    4869    3950    3951
       3    4999    3952    3953
       3    5061    3953    3954
       3    5098    3954    3955
       3    5152    3955    3956
       3    5169    3956    3957
       3    5213    3957    3958
       3    5193    3958    3959
       3    5181    3959    3960
       3    5095    3960    3961
       3    5053    5048    3961
       3    4979    4971    3962
       3    4935    4925    3963
       3    4917    3965    3966
       3    5000    3966    3967
       3    5062    3967    3968
       3    5097    3968    3969
       3    5175    3969    5121
       3    5194    3970    3971
       3    5188    3971    3972
       3    5184    3972    3973
       3    5089    3973    3974
       3    5053    3974    3975
       3    4979    3975    3976
       3    4935    3976    3977
       3    4881    3978    3979
       3    4952    3979    3980
       3    5013    3980    3981
       3    5022    3981    3982
       3    5144    5128    3982
       3    5174    3983    3984
       3    5195    3984    3985
       3    5183    3986    5100
       3    5020    3986    3987
       3    5010    3987    3988
       3    4941    3988    3989
       3    4870    3989    3990
       3    4910    3991    4882
       3    4993    3992    3993
       3    5059    3993    3994
       3    5090    3994    3995
       3    5144    3995    3996
       3    5170    3996    3997
       3    5160    3997    3998
       3    5154    3998    3999
       3    5096    3999    4000
       3    5049    4000    4001
       3    4972    4001    4002
       3    4926    4002    4003
       3    4882    4004    4005
       3    4953    4005    4006
       3    5014    4006    4007
       3    5069    4007    4008
       3    5086    4008    4009
       3    5186    4009    5178
       3    5185    4011    5138
       3    5087    4011    4012
       3    5067    4012    4013
       3    5011    4013    4014
       3    4942    4014    4015
       3    4871    4015    4016
       3    4918    4911    4017
       3    5001    4994    4018
       3    5063    5060    4019
       3    5115    5113    4020
       3    5133    4021    4022
       3    5178    4022    4023
       3    5176    4023    4024
       3    5136    4024    4025
       3    5111    5107    4025
       3    5054    5050    4026
       3    4980    4973    4027
       3    4936    4927    4028
       3    4918    4030    4031
       3    5001    4031    4032
       3    5063    4032    4033
       3    5115    4033    4034
       3    5110    4034    4035
       3    5116    5153    4035
       3    5132    4036    4037
       3    5117    4037    4038
       3    5111    4038    4039
       3    5054    4039    4040
       3    4980    4040    4041
       3    4936    4041    4042
       3    4883    4043    4044
       3    4954    4044    4045
       3    5015    4045    5002
       3    5070    4046    4047
       3    5055    4047    4048
       3    5116    4048    4049
       3    5112    4049    4050
       3    5066    4050    4051
       3    5068    4051    4052
       3    5012    4052    4982
       3    4943    4053    4054
       3    4872    4054    4055
       3    4912    4056    4885
       3    4995    4057    4919
       3    5002    4058    4059
       3    5064    4059    4060
       3    4981    4060    4061
       3    5065    4061    4062
       3    5056    4062    4063
       3    4937    5005    4063
       3    5057    4064    4065
       3    4982    4065    4066
       3    4974    4066    4900
       3    4928    4067    4068
       3    4885    4069    4855
       3    4919    4070    4856
       3    4920    4071    4072
       3    5003    4072    4073
       3    4898    4073    4074
       3    5004    4074    4075
       3    4983    4075    4076
       3    4859    4937    4076
       3    4984    4077    4078
       3    4899    4078    4079
       3    4900    4079    4080
       3    4884    4080    4081
       3    4855    4082    4083
       3    4856    4083    4084
       3    4857    4084    4085
       3    4922    4085    4086
       3    4849    4086    4087
       3    4923    4087    4088
       3    4901    4088    4089
       3    4859    4089    4090
       3    4902    4090    4091
       3    4850    4091    4092
       3    4851    4092    4093
       3    4929    4093    4094
       3    4191     369      12
       3    4096     365     366
       3    4101     365    4096
       3    4175    4102    4101
       3    4097     362     363
       3    4103     362    4097
       3    4104     360    4098
       3    4105     359    4104
       3    4106     358    4105
       3    4107     357    4106
       3    4108     356    4107
       3    4109     355    4108
       3    4110     354    4109
       3    4284    4197    4137
       3    4809     383    3711
       3    4846     377     378
       3    4810     373     374
       3    4166    4164     371
       3    4164    4162     370
       3     425     426    4082
       3    4827     423    4787
       3     418     419    4017
       3     414     415    3978
       3     411     412    3952
       3    4826     407     408
       3    4791     403     404
       3    4834     400     401
       3    4792     396     397
       3    4835     393    4789
       3    4829    4793     390
       3    4836     386    3722
       3     443     444    4094
       3    4820     440    4778
       3    4821     437    4779
       3    4822     433    4780
       3     428     429    4083
       3    4161       1    4123
       3    4163      35    4161
       3    4227      38      37
       3      41      40    3795
       3    4844      43    4794
       3    4796      46    3847
       3    4797      50      49
       3    4845      53      52
       3    4802      57      56
       3    4839      60      59
       3    4840      63      62
       3      66      65    4029
       3      69      68    4055
       3    4801    4841      71
       3      16       0     445
       3    4151      16     445
       3    4169      19      18
       3    4095      19    4169
       3    4124      20    4095
       3    4112      22      21
       3    4113      22    4112
       3    4242    4183    4229
       3    4115      25    4099
       3    4116      26    4115
       3    4117      27    4116
       3    4118      28    4117
       3    4119      29    4118
       3    4120      30    4119
       3    4121      31    4120
       3    4122      32    4121
       3    4186    4121    4171
       3     482      11     351
       3    4157     482     351
       3    4145    4137     480
       3    4137    4129     479
       3    4129     478     479
       3    4134     478    4129
       3    4134     477     478
       3    4125     475     476
       3    4158     475    4125
       3    4140     473     474
       3    4149     473    4140
       3    4136    4126     471
       3    4159     470    4126
       3    4127     468     469
       3    4156     468    4127
       3    4150     466     467
       3    4192     466    4150
       3    4132     464     465
       3    4146     464    4132
       3    4141     462     463
       3    4155     462    4141
       3    4128     460     461
       3    4154     460    4128
       3    4154     459     460
       3    4135     447     448
       3    4151     445     446
       3    4131     456     457
       3    4152     456    4131
       3    4152     455     456
       3    4130     453     454
       3    4153     453    4130
       3    4133     451     452
       3    4142     451    4133
       3    4139     449     450
       3    4147     449    4139
       3    4123       1      34
       3    4123      34      33
       3    4162      12     370
       3    4283      18      17
       3    4124    4112      21
       3    4095      20      19
       3    4100     366     367
       3    4252    4175    4177
       3    4102     363     364
       3    4234    4103    4246
       3    4111     353    4110
       3    4235    4098    4234
       3    4098     360     361
       3    4099      25      24
       3    4114      24      23
       3    4174     368     369
       3    4100     367    4174
       3    4174     367     368
       3    4100    4096     366
       3    4101     364     365
       3    4177    4096    4173
       3    4102    4097     363
       3    4102     364    4101
       3    4103     361     362
       3    4246    4103    4097
       3    4178    4104    4235
       3    4104     359     360
       3    4179    4105    4178
       3    4105     358     359
       3    4180    4106    4179
       3    4106     357     358
       3    4181    4107    4180
       3    4107     356     357
       3    4182    4108    4181
       3    4108     355     356
       3    4197    4193    4129
       3    4109     354     355
       3    4230    4182    4181
       3    4110     353     354
       3    4111    4157     352
       3    4111     352     353
       3    4124      21      20
       3    4170    4114    4113
       3    4114      23    4113
       3    4113      23      22
       3    4231    4187    4170
       3    4114    4099      24
       3    4188    4115    4167
       3    4115      26      25
       3    4232    4117    4116
       3    4116      27      26
       3    4117      28      27
       3    4189    4171    4120
       3    4118      29      28
       3    4189    4119    4168
       3    4119      30      29
       3    4171    4121    4120
       3    4120      31      30
       3    4190    4123    4172
       3    4121      32      31
       3    4172    4123    4122
       3    4122      33      32
       3    4123      33    4122
       3    4151      17      16
       3    4144     447    4135
       3    4283    4169      18
       3    4283      17    4151
       3    4183    4095    4169
       3    4184    4124    4183
       3    4160     476     477
       3    4158    4140     474
       3    4126     470     471
       3    4198    4126    4136
       3    4159     469     470
       3    4336    4255    4310
       3    4155     461     462
       3    4143    4138     458
       3    4193    4134    4129
       3    4137     479     480
       3    4148     454     455
       3    4153    4133     452
       3    4216    4138    4143
       3    4152    4148     455
       3    4192     465     466
       3    4146    4141     463
       3    4153     452     453
       3    4142    4139     450
       3    4222    4134    4193
       3    4160     477    4134
       3    4147     448     449
       3    4256    4229    4169
       3    4149     472     473
       3    4200    4136    4149
       3    4145     480     481
       3    4284    4145    4157
       3    4143     458     459
       3    4216    4196    4138
       3    4142     450     451
       3    4215    4139    4199
       3    4158     474     475
       3    4208    4140    4158
       3    4146     463     464
       3    4210    4141    4206
       3    4213    4133    4153
       3    4214    4142    4133
       3    4154    4143     459
       3    4219    4143    4154
       3    4144     446     447
       3    4157    4145     481
       3    4205    4146    4132
       3    4206    4146    4205
       3    4209    4256    4135
       3    4147    4135     448
       3    4217    4148    4152
       3    4148    4130     454
       3    4200    4198    4136
       3    4149    4136     472
       3    4255    4150    4203
       3    4156     467     468
       3    4151     446    4144
       3    4201    4131    4196
       3    4217    4152    4201
       3    4202    4153    4130
       3    4213    4153    4202
       3    4221    4128    4155
       3    4194    4154    4128
       3    4221    4155    4210
       3    4155    4128     461
       3    4212    4156    4127
       3    4203    4150    4156
       3    4157     481     482
       3    4284    4157    4111
       3    4195    4158    4125
       3    4208    4158    4195
       3    4204    4126    4198
       3    4220    4159    4204
       3    4222    4160    4134
       3    4160    4125     476
       3    4223    4163    4161
       3    4161      35       1
       3    4164     370     371
       3    4224    4191    4162
       3    4340    4289    4225
       3    4163      36      35
       3    4166     371     372
       3    4226    4224    4164
       3    4289    4227    4165
       3    4165      37      36
       3    4228    4166     372
       3    4393    4290    3719
       3    4284    4110    4243
       3    4110    4182    4243
       3    4187    4099    4114
       3    4250    4118    4117
       3    4247    4249    4304
       3    4256    4169    4283
       3    4185    4113    4112
       3    4233    4187    4231
       3    4188    4232    4116
       3    4189    4120    4119
       3    4247    4171    4249
       3    4186    4172    4122
       3    4247    4285    4172
       3    4177    4175    4101
       3    4173    4096    4100
       3    4176    4097    4102
       3    4177    4101    4096
       3    4176    4246    4097
       3    4176    4102    4175
       3    4234    4098    4103
       3    4235    4104    4098
       3    4245    4174    4244
       3    4174    4173    4100
       3    4248    4173    4245
       3    4252    4177    4248
       3    4236    4178    4235
       3    4178    4105    4104
       3    4237    4179    4236
       3    4179    4106    4105
       3    4294    4237    4236
       3    4180    4107    4106
       3    4181    4108    4107
       3    4182    4109    4108
       3    4243    4182    4230
       3    4182    4110    4109
       3    4239    4185    4184
       3    4183    4124    4095
       3    4185    4112    4184
       3    4184    4112    4124
       3    4284    4111    4110
       3    4299    4239    4295
       3    4185    4170    4113
       3    4186    4122    4121
       3    4256    4144    4135
       3    4187    4167    4099
       3    4187    4114    4170
       3    4188    4116    4115
       3    4292    4241    4233
       3    4250    4168    4118
       3    4250    4117    4232
       3    4253    4189    4168
       3    4172    4285    4190
       3     369    4191    4174
       3    4286    4191    4224
       3    4255    4192    4150
       3    4192    4132     465
       3    4207    4195    4125
       3    4197    4129    4137
       3    4424    4329    4325
       3    4219    4154    4194
       3    4207    4125    4160
       3    4218    4140    4208
       3    4328    4269    4323
       3    4196    4131    4138
       3    4284    4137    4145
       3    4314    4268    4262
       3    4279    4198    4271
       3    4199    4139    4142
       3    4209    4135    4147
       3    4215    4147    4139
       3    4218    4149    4140
       3    4271    4200    4268
       3    4211    4202    4130
       3    4201    4152    4131
       3    4211    4130    4148
       3    4264    4263    4213
       3    4220    4127    4159
       3    4254    4205    4132
       3    4220    4212    4127
       3    4204    4159    4126
       3    4254    4132    4192
       3    4276    4275    4206
       3    4275    4210    4206
       3    4206    4141    4146
       3    4283    4151    4144
       3    4283    4144    4256
       3    4222    4207    4160
       3    4261    4207    4222
       3    4259    4208    4195
       3    4262    4208    4259
       3    4215    4209    4147
       3    4278    4210    4275
       3    4210    4155    4141
       3    4217    4211    4148
       3    4266    4264    4202
       3    4282    4212    4220
       3    4212    4203    4156
       3    4263    4214    4213
       3    4214    4133    4213
       3    4265    4214    4263
       3    4214    4199    4142
       3    4258    4379    4215
       3    4219    4216    4143
       3    4272    4270    4196
       3    4269    4267    4217
       3    4267    4266    4211
       3    4268    4218    4262
       3    4218    4200    4149
       3    4274    4273    4219
       3    4273    4272    4216
       3    4280    4204    4279
       3    4282    4220    4280
       3    4278    4221    4210
       3    4221    4194    4128
       3    4257    4193    4326
       3    4261    4222    4257
       3    4223    4161    4190
       3    4287    4223    4285
       3    4286    4244    4191
       3    4224    4162    4164
       3    4392    4342    4391
       3    4225    4165    4163
       3    4290    4226    4166
       3    4288    4286    4224
       3    4227      37    4165
       3    4715    4227    4342
       3    4290    4228    3719
       3    4228     372     373
       3    4244    4174    4191
       3    4247    4172    4186
       3    4361    4247    4304
       3    4298    4242    4229
       3    4229    4183    4169
       3    4238    4181    4180
       3    4240    4170    4185
       3    4356    4241    4292
       3    4307    4249    4253
       3    4241    4188    4167
       3    4452    4450    4399
       3    4233    4167    4187
       3    4354    4293    4350
       3    4403    4402    4351
       3    4236    4179    4178
       3    4297    4237    4294
       3    4237    4180    4179
       3    4238    4230    4181
       3    4238    4180    4237
       3    4242    4239    4184
       3    4299    4240    4239
       3    4240    4231    4170
       3    4240    4185    4239
       3    4241    4232    4188
       3    4241    4167    4233
       3    4242    4184    4183
       3    4298    4229    4308
       3    4291    4284    4243
       3    4305    4245    4302
       3    4245    4173    4174
       3    4251    4176    4175
       3    4249    4171    4189
       3    4247    4186    4171
       3    4252    4251    4175
       3    4248    4177    4173
       3    4251    4246    4176
       3    4305    4248    4245
       3    4303    4246    4251
       3    4253    4249    4189
       3    4253    4168    4250
       3    4255    4254    4192
       3    4309    4276    4205
       3    4310    4203    4281
       3    4310    4255    4203
       3    4308    4256    4209
       3    4379    4209    4215
       3    4379    4308    4209
       3    4326    4197    4291
       3    4291    4197    4284
       3    4258    4215    4199
       3    4326    4193    4197
       3    4260    4259    4195
       3    4257    4222    4193
       3    4265    4199    4214
       3    4327    4258    4265
       3    4260    4195    4207
       3    4313    4262    4259
       3    4261    4260    4207
       3    4317    4260    4316
       3    4321    4316    4261
       3    4321    4261    4257
       3    4314    4262    4313
       3    4262    4218    4208
       3    4264    4213    4202
       3    4320    4263    4319
       3    4266    4202    4211
       3    4319    4264    4318
       3    4327    4265    4320
       3    4265    4258    4199
       3    4267    4211    4217
       3    4322    4266    4267
       3    4269    4217    4201
       3    4322    4318    4266
       3    4311    4279    4271
       3    4268    4200    4218
       3    4270    4201    4196
       3    4367    4328    4323
       3    4272    4196    4216
       3    4331    4270    4272
       3    4315    4271    4268
       3    4271    4198    4200
       3    4273    4216    4219
       3    4331    4323    4270
       3    4274    4219    4194
       3    4332    4273    4274
       3    4277    4194    4221
       3    4330    4274    4277
       3    4276    4206    4205
       3    4278    4277    4221
       3    4309    4205    4254
       3    4363    4276    4309
       3    4329    4277    4278
       3    4277    4274    4194
       3    4325    4275    4324
       3    4329    4278    4325
       3    4312    4279    4311
       3    4279    4204    4198
       3    4282    4281    4212
       3    4280    4220    4204
       3    4410    4334    4388
       3    4281    4203    4212
       3    4335    4280    4312
       3    4335    4282    4280
       3    4434    4337    4361
       3    4285    4223    4190
       3    4288    4224    4226
       3    4339    4286    4288
       3    4389    4340    4287
       3    4287    4225    4223
       3    4341    4288    4226
       3    4339    4302    4286
       3    4391    4342    4289
       3    4289    4165    4225
       3    4290    4166    4228
       3    4393    4341    4290
       3    4302    4244    4286
       3    4343    4302    4339
       3    4396    4345    4394
       3    4307    4253    4250
       3    4303    4251    4252
       3    4358    4246    4303
       3    4247    4361    4337
       3    4301    4230    4238
       3    4377    4375    4316
       3    4298    4295    4242
       3    4308    4229    4256
       3    4300    4233    4231
       3    4357    4300    4354
       3    4293    4231    4240
       3    4296    4236    4235
       3    4348    4301    4297
       3    4353    4350    4299
       3    4295    4239    4242
       3    4351    4296    4349
       3    4349    4234    4344
       3    4296    4294    4236
       3    4296    4235    4234
       3    4348    4347    4301
       3    4297    4238    4237
       3    4379    4355    4298
       3    4355    4353    4295
       3    4353    4299    4295
       3    4299    4293    4240
       3    4300    4292    4233
       3    4300    4231    4293
       3    4301    4243    4230
       3    4301    4238    4297
       3    4306    4248    4305
       3    4302    4245    4244
       3    4306    4252    4248
       3    4358    4344    4246
       3    4307    4304    4249
       3    4343    4305    4302
       3    4360    4359    4306
       3    4360    4306    4305
       3    4306    4303    4252
       3    4346    4250    4345
       3    4346    4307    4250
       3    4336    4254    4255
       3    4363    4324    4276
       3    4364    4281    4334
       3    4371    4310    4364
       3    4365    4311    4315
       3    4366    4311    4365
       3    4335    4334    4282
       3    4312    4280    4279
       3    4317    4259    4260
       3    4376    4313    4374
       3    4372    4365    4315
       3    4315    4268    4314
       3    4372    4315    4314
       3    4315    4311    4271
       3    4375    4374    4317
       3    4316    4260    4261
       3    4375    4317    4316
       3    4317    4313    4259
       3    4368    4319    4318
       3    4318    4264    4266
       3    4378    4319    4368
       3    4319    4263    4264
       3    4327    4379    4258
       3    4320    4265    4263
       3    4382    4377    4321
       3    4328    4267    4269
       3    4370    4368    4318
       3    4385    4323    4331
       3    4323    4269    4270
       3    4503    4325    4324
       3    4324    4275    4276
       3    4424    4325    4503
       3    4325    4278    4275
       3    4291    4347    4326
       3    4379    4327    4381
       3    4381    4320    4378
       3    4380    4328    4367
       3    4328    4322    4267
       3    4369    4330    4329
       3    4330    4277    4329
       3    4326    4321    4257
       3    4333    4273    4332
       3    4332    4274    4330
       3    4333    4272    4273
       3    4386    4331    4333
       3    4373    4330    4369
       3    4384    4332    4373
       3    4386    4333    4384
       3    4333    4331    4272
       3    4477    4410    4469
       3    4334    4281    4282
       3    4387    4312    4366
       3    4388    4335    4387
       3    4371    4336    4310
       3    4336    4309    4254
       3    4338    4285    4337
       3    4337    4285    4247
       3    4434    4361    4408
       3    4338    4287    4285
       3    4390    4339    4288
       3    4438    4339    4390
       3    4340    4225    4287
       3    4441    4391    4340
       3    4442    4390    4341
       3    4341    4226    4290
       3    4715    4342    3769
       3    4342    4227    4289
       3    4359    4358    4303
       3    4408    4362    4406
       3    4397    4395    4344
       3    4345    4250    4232
       3    4362    4361    4304
       3    4362    4307    4346
       3    4241    4356    4232
       3    4425    4422    4375
       3    4347    4243    4301
       3    4352    4297    4294
       3    4401    4348    4352
       3    4344    4234    4246
       3    4401    4400    4348
       3    4349    4296    4234
       3    4398    4354    4350
       3    4350    4293    4299
       3    4402    4401    4352
       3    4351    4294    4296
       3    4352    4348    4297
       3    4352    4294    4351
       3    4355    4295    4298
       3    4454    4398    4350
       3    4354    4300    4293
       3    4379    4298    4308
       3    4356    4345    4232
       3    4357    4356    4292
       3    4357    4292    4300
       3    4399    4354    4398
       3    4359    4303    4306
       3    4455    4397    4405
       3    4407    4405    4359
       3    4405    4397    4358
       3    4360    4305    4343
       3    4485    4484    4440
       3    4458    4434    4408
       3    4362    4304    4307
       3    4396    4346    4345
       3    4448    4396    4394
       3    4383    4309    4336
       3    4409    4503    4324
       3    4414    4364    4410
       3    4364    4310    4281
       3    4411    4365    4372
       3    4413    4365    4411
       3    4433    4366    4413
       3    4366    4312    4311
       3    4460    4459    4412
       3    4416    4370    4412
       3    4370    4318    4322
       3    4419    4368    4416
       3    4466    4415    4424
       3    4415    4373    4369
       3    4380    4370    4322
       3    4418    4380    4367
       3    4420    4371    4414
       3    4383    4336    4371
       3    4376    4314    4313
       3    4417    4372    4376
       3    4431    4373    4415
       3    4373    4332    4330
       3    4423    4374    4422
       3    4374    4313    4317
       3    4377    4316    4321
       3    4425    4375    4377
       3    4417    4411    4372
       3    4376    4372    4314
       3    4382    4321    4326
       3    4427    4425    4377
       3    4454    4452    4398
       3    4378    4320    4319
       3    4381    4327    4320
       3    4409    4324    4363
       3    4380    4322    4328
       3    4418    4412    4380
       3    4426    4378    4419
       3    4486    4454    4428
       3    4424    4369    4329
       3    4500    4451    4496
       3    4429    4381    4426
       3    4430    4326    4347
       3    4420    4383    4371
       3    4383    4363    4309
       3    4386    4385    4331
       3    4384    4333    4332
       3    4432    4418    4367
       3    4385    4367    4323
       3    4435    4384    4431
       3    4436    4386    4435
       3    4437    4387    4433
       3    4387    4335    4312
       3    4469    4388    4437
       3    4388    4334    4335
       3    4347    4291    4243
       3    4430    4347    4400
       3    4489    4389    4439
       3    4389    4287    4338
       3    4390    4288    4341
       3    4488    4438    4390
       3    4391    4289    4340
       3    4445    4392    4391
       3    4617    4443    4492
       3    4392    3769    4342
       3    4493    4444    3719
       3    4491    4442    4393
       3    4529    4501    4449
       3    4397    4344    4358
       3    4394    4345    4356
       3    4451    4500    4402
       3    4449    4396    4448
       3    4406    4346    4396
       3    4405    4358    4359
       3    4404    4356    4357
       3    4454    4350    4353
       3    4450    4448    4404
       3    4399    4357    4354
       3    4474    4473    4425
       3    4400    4347    4348
       3    4402    4352    4351
       3    4453    4401    4500
       3    4403    4351    4349
       3    4451    4402    4403
       3    4395    4403    4349
       3    4395    4349    4344
       3    4447    4395    4446
       3    4404    4394    4356
       3    4404    4357    4399
       3    4454    4353    4355
       3    4472    4419    4465
       3    4428    4355    4379
       3    4428    4454    4355
       3    4407    4359    4360
       3    4457    4406    4449
       3    4406    4362    4346
       3    4440    4360    4343
       3    4456    4455    4405
       3    4458    4408    4457
       3    4408    4361    4362
       3    4421    4363    4383
       3    4503    4409    4464
       3    4429    4428    4379
       3    4468    4464    4421
       3    4410    4364    4334
       3    4461    4413    4411
       3    4462    4411    4417
       3    4459    4416    4412
       3    4412    4370    4380
       3    4478    4413    4461
       3    4413    4366    4365
       3    4477    4414    4410
       3    4414    4371    4364
       3    4476    4415    4466
       3    4465    4416    4459
       3    4416    4368    4370
       3    4423    4376    4374
       3    4462    4461    4411
       3    4432    4367    4385
       3    4504    4459    4460
       3    4499    4498    4452
       3    4419    4378    4368
       3    4468    4421    4420
       3    4421    4383    4420
       3    4464    4409    4421
       3    4421    4409    4363
       3    4471    4463    4423
       3    4422    4374    4375
       3    4467    4424    4503
       3    4471    4423    4422
       3    4423    4417    4376
       3    4424    4415    4369
       3    4427    4377    4382
       3    4473    4471    4422
       3    4426    4381    4378
       3    4430    4427    4382
       3    4453    4400    4401
       3    4429    4379    4381
       3    4475    4426    4472
       3    4430    4382    4326
       3    4487    4430    4400
       3    4480    4431    4476
       3    4431    4384    4373
       3    4436    4385    4386
       3    4479    4460    4418
       3    4481    4433    4478
       3    4433    4387    4366
       3    4439    4338    4434
       3    4434    4338    4337
       3    4483    4435    4480
       3    4435    4386    4384
       3    4482    4479    4432
       3    4436    4432    4385
       3    4521    4437    4481
       3    4437    4388    4387
       3    4484    4456    4407
       3    4438    4343    4339
       3    4489    4441    4389
       3    4439    4389    4338
       3    4440    4407    4360
       3    4440    4343    4438
       3    4490    4441    3710
       3    4441    4340    4389
       3    4534    4488    4442
       3    4442    4341    4393
       3    4716    4712    3781
       3    4443    3769    4392
       3    4538    4444    4493
       3    4580    4491    4539
       3    4530    4445    4490
       3    4536    4492    4445
       3    4529    4448    4495
       3    4497    4447    4446
       3    4446    4395    4397
       3    4455    4446    4397
       3    4502    4455    4456
       3    4448    4394    4404
       3    4450    4404    4399
       3    4449    4406    4396
       3    4501    4457    4449
       3    4452    4399    4398
       3    4545    4514    4473
       3    4500    4401    4402
       3    4447    4451    4403
       3    4498    4495    4450
       3    4487    4400    4453
       3    4447    4403    4395
       3    4486    4428    4429
       3    4519    4472    4510
       3    4456    4405    4407
       3    4484    4407    4440
       3    4531    4458    4457
       3    4457    4408    4406
       3    4531    4457    4501
       3    4458    4439    4434
       3    4460    4412    4418
       3    4505    4459    4504
       3    4479    4418    4432
       3    4517    4504    4460
       3    4506    4461    4462
       3    4515    4461    4506
       3    4463    4462    4417
       3    4507    4462    4463
       3    4507    4506    4462
       3    4463    4417    4423
       3    4508    4464    4468
       3    4510    4465    4505
       3    4465    4419    4416
       3    4467    4466    4424
       3    4518    4466    4511
       3    4562    4503    4464
       3    4511    4466    4467
       3    4470    4420    4414
       3    4513    4468    4470
       3    4477    4470    4414
       3    4469    4410    4388
       3    4513    4508    4468
       3    4470    4468    4420
       3    4473    4422    4425
       3    4514    4471    4473
       3    4543    4541    4499
       3    4472    4426    4419
       3    4474    4425    4427
       3    4514    4509    4471
       3    4487    4474    4427
       3    4545    4474    4487
       3    4475    4429    4426
       3    4522    4476    4518
       3    4476    4431    4415
       3    4523    4469    4521
       3    4520    4513    4470
       3    4524    4478    4515
       3    4478    4433    4413
       3    4482    4432    4436
       3    4555    4548    4504
       3    4483    4482    4436
       3    4480    4435    4431
       3    4564    4481    4524
       3    4481    4437    4433
       3    4483    4436    4435
       3    4525    4517    4479
       3    4526    4480    4522
       3    4527    4483    4526
       3    4485    4440    4438
       3    4623    4624    4588
       3    4488    4485    4438
       3    4533    4512    4485
       3    4486    4429    4475
       3    4487    4427    4430
       3    4545    4487    4453
       3    4488    4390    4442
       3    4534    4533    4488
       3    4535    4441    4489
       3    4532    4439    4458
       3    4490    4391    4441
       3    4530    4490    3710
       3    4534    4491    3720
       3    4491    4393    4444
       3    4492    4392    4445
       3    4582    4492    4536
       3    4537    4493    3719
       3    4713    4537    3718
       3    4776    4494    4716
       3    4715    4494    3782
       3    4577    4497    4544
       3    4497    4446    4455
       3    4549    4529    4495
       3    4495    4448    4450
       3    4496    4447    4497
       3    4502    4497    4455
       3    4550    4516    4546
       3    4498    4450    4452
       3    4499    4452    4454
       3    4559    4556    4514
       3    4621    4584    4542
       3    4496    4451    4447
       3    4541    4540    4498
       3    4584    4500    4542
       3    4547    4486    4475
       3    4558    4510    4551
       3    4579    4535    4489
       3    4578    4501    4563
       3    4516    4484    4512
       3    4548    4505    4504
       3    4517    4460    4479
       3    4551    4505    4548
       3    4505    4465    4459
       3    4554    4506    4552
       3    4552    4506    4507
       3    4509    4507    4463
       3    4553    4552    4507
       3    4528    4511    4467
       3    4562    4464    4508
       3    4556    4553    4509
       3    4509    4463    4471
       3    4586    4585    4541
       3    4510    4472    4465
       3    4574    4560    4511
       3    4560    4518    4511
       3    4512    4484    4485
       3    4520    4470    4477
       3    4561    4513    4520
       3    4545    4473    4474
       3    4559    4514    4545
       3    4565    4515    4554
       3    4515    4478    4461
       3    4516    4502    4456
       3    4516    4456    4484
       3    4525    4479    4482
       3    4601    4555    4569
       3    4568    4518    4560
       3    4518    4476    4466
       3    4543    4547    4519
       3    4519    4475    4472
       3    4523    4477    4469
       3    4561    4557    4513
       3    4571    4521    4564
       3    4521    4469    4437
       3    4572    4522    4568
       3    4522    4480    4476
       3    4566    4561    4520
       3    4523    4520    4477
       3    4598    4524    4565
       3    4524    4481    4478
       3    4527    4482    4483
       3    4569    4555    4517
       3    4575    4526    4572
       3    4526    4483    4480
       3    4573    4569    4525
       3    4527    4525    4482
       3    4612    4600    4562
       3    4628    4604    4574
       3    4529    4449    4448
       3    4549    4495    4540
       3    4576    4530    3710
       3    4581    4536    4530
       3    4579    4532    4531
       3    4649    4578    4611
       3    4532    4489    4439
       3    4532    4458    4531
       3    4533    4485    4488
       3    4570    4533    4567
       3    4534    4442    4491
       3    4567    4534    3720
       3    4535    3710    4441
       3    4579    4489    4532
       3    4582    4536    3756
       3    4536    4445    4530
       3    4714    3719    4228
       3    4774    4713    3718
       3    4583    4538    3730
       3    4652    4538    4583
       3    4539    4444    4538
       3    4616    4580    4539
       3    4585    4549    4540
       3    4544    4497    4502
       3    4540    4495    4498
       3    4577    4542    4496
       3    4541    4498    4499
       3    4543    4499    4454
       3    4542    4500    4496
       3    4547    4543    4454
       3    4543    4558    4586
       3    4546    4516    4512
       3    4587    4550    4546
       3    4570    4512    4533
       3    4596    4570    4567
       3    4547    4454    4486
       3    4547    4475    4519
       3    4589    4551    4548
       3    4555    4504    4517
       3    4592    4549    4585
       3    4563    4529    4549
       3    4550    4544    4502
       3    4550    4502    4516
       3    4589    4558    4551
       3    4551    4510    4505
       3    4634    4633    4605
       3    4605    4552    4553
       3    4553    4507    4509
       3    4605    4553    3721
       3    4633    4594    4605
       3    4554    4515    4506
       3    4569    4517    4525
       3    4591    4589    4548
       3    4556    3721    4553
       3    4556    4509    4514
       3    4557    4508    4513
       3    4595    4557    4561
       3    4558    4519    4510
       3    4500    4584    4453
       3    3721    4556    4559
       3    4604    4560    4574
       3    4602    4568    4560
       3    4566    4520    4523
       3    4599    4561    4566
       3    4562    4528    4503
       3    4562    4508    4557
       3    4563    4501    4529
       3    4636    4592    4585
       3    4571    4566    4523
       3    4564    4521    4481
       3    4631    4565    4597
       3    4565    4524    4515
       3    4571    4523    4521
       3    4599    4595    4561
       3    4567    4533    4534
       3    4596    4567    3720
       3    4607    4572    4568
       3    4568    4522    4518
       3    4573    4525    4527
       3    4630    4626    4591
       3    4648    4570    4596
       3    4570    4546    4512
       3    4606    4564    4598
       3    4603    4599    4566
       3    4575    4573    4527
       3    4572    4526    4522
       3    4575    4527    4526
       3    4608    4601    4569
       3    4600    4528    4562
       3    4604    4602    4560
       3    4609    4575    4572
       3    4610    4575    4609
       3    4576    3710    4535
       3    4630    4591    4601
       3    4577    4496    4497
       3    4578    4531    4501
       3    4611    4563    4592
       3    4579    4576    4535
       3    4579    4531    4578
       3    4650    4640    4614
       3    4580    3720    4491
       3    4615    4530    4576
       3    4710    4706    4680
       3    4654    4618    3756
       3    4653    4582    4618
       3    4655    3731    4583
       3    4707    4652    4583
       3    4453    4584    4545
       3    4636    4585    4622
       3    4585    4540    4541
       3    4624    4621    4593
       3    4590    4544    4550
       3    4586    4541    4543
       3    4622    4585    4586
       3    4621    4620    3721
       3    4593    4542    4577
       3    4622    4558    4627
       3    4621    3721    4559
       3    4605    4594    4552
       3    4648    4546    4570
       3    4543    4519    4558
       3    4588    4577    4544
       3    4664    4624    4657
       3    4621    4559    4545
       3    4621    4545    4584
       3    4591    4548    4555
       3    4590    4588    4544
       3    4590    4550    4587
       3    4601    4591    4555
       3    4626    4589    4591
       3    4592    4563    4549
       3    4658    4636    4622
       3    4593    4621    4542
       3    4593    4577    4588
       3    4597    4554    4594
       3    4594    4554    4552
       3    4558    4589    4627
       3    4669    4632    4667
       3    4628    4600    4612
       3    4614    3720    4580
       3    4614    4596    3720
       3    4631    4598    4565
       3    4597    4565    4554
       3    4606    4603    4571
       3    4598    4564    4524
       3    4603    4566    4571
       3    4635    4632    4599
       3    4600    4574    4528
       3    4612    4562    4557
       3    4608    4569    4573
       3    4639    4630    4601
       3    4673    4641    4637
       3    4641    4602    4637
       3    4606    4571    4564
       3    4643    4635    4603
       3    4628    4574    4600
       3    4670    4628    4662
       3    4634    3721    4620
       3    4659    4657    4623
       3    4642    4606    4598
       3    4643    4606    4642
       3    4646    4609    4607
       3    4607    4568    4602
       3    4610    4573    4575
       3    4704    4681    4702
       3    4609    4572    4607
       3    4647    4610    4609
       3    4647    4645    4610
       3    4610    4608    4573
       3    4666    4636    4658
       3    4611    4578    4563
       3    4612    4557    4595
       3    4644    4612    4595
       3    4693    4615    4613
       3    4613    4576    4579
       3    4650    4580    4616
       3    4625    4623    4590
       3    4615    4581    4530
       3    4615    4576    4613
       3    4652    4616    4539
       3    4722    4694    4719
       3    4617    3768    4443
       3    4617    4492    4582
       3    4735    4684    3755
       3    4653    4617    4582
       3    4768    3730    4713
       3    4686    4655    4619
       3    4658    4622    4627
       3    4623    4588    4590
       3    4625    4590    4587
       3    4622    4586    4558
       3    4624    4620    4621
       3    4674    4648    4640
       3    4633    4629    4594
       3    4624    4593    4588
       3    4726    4717    4688
       3    4665    4633    4634
       3    4692    4678    4638
       3    4658    4627    4626
       3    4627    4589    4626
       3    4644    4595    4632
       3    4690    4670    4662
       3    4663    4631    4597
       3    4629    4597    4594
       3    4639    4601    4608
       3    4693    4613    4649
       3    4663    4597    4629
       3    4671    4631    4663
       3    4632    4595    4599
       3    4695    4690    4669
       3    4634    4605    3721
       3    4665    4634    4664
       3    4691    4664    4657
       3    4672    4667    4635
       3    4635    4599    4603
       3    4638    4592    4636
       3    4677    4641    4673
       3    4637    4602    4604
       3    4678    4649    4611
       3    4638    4611    4592
       3    4645    4639    4608
       3    4676    4668    4639
       3    4648    4625    4587
       3    4650    4614    4580
       3    4677    4646    4641
       3    4641    4607    4602
       3    4675    4643    4642
       3    4642    4598    4631
       3    4675    4672    4643
       3    4643    4603    4606
       3    4669    4644    4632
       3    4644    4628    4612
       3    4645    4608    4610
       3    4727    4705    4718
       3    4646    4607    4641
       3    4647    4646    3744
       3    4647    4609    4646
       3    4681    4647    3744
       3    4648    4587    4546
       3    4648    4596    4640
       3    4649    4613    4578
       3    4678    4611    4638
       3    4707    4679    4616
       3    4721    4719    4717
       3    4668    4660    4630
       3    4651    4581    4615
       3    4652    4539    4538
       3    4707    4583    3731
       3    4711    4685    4653
       3    4653    3768    4617
       3    4683    4654    3756
       3    4709    3755    4654
       3    4750    4745    3731
       3    4655    4583    4619
       3    4817    4775    4656
       3    4656    3741    4619
       3    4657    4624    4623
       3    4659    4623    4625
       3    4660    4626    4630
       3    4660    4658    4626
       3    4691    4688    4665
       3    4674    4659    4625
       3    4699    4692    4666
       3    4668    4630    4639
       3    4694    4663    4687
       3    4661    4629    4633
       3    4732    4690    4720
       3    4662    4628    4644
       3    4687    4629    4661
       3    4708    4682    4679
       3    4664    4634    4620
       3    4664    4620    4624
       3    4691    4665    4664
       3    4665    4661    4633
       3    4666    4638    4636
       3    4666    4658    4660
       3    4667    4632    4635
       3    4723    4695    4696
       3    4676    4639    4645
       3    4727    4718    4698
       3    4695    4669    4667
       3    4669    4662    4644
       3    4670    4637    4604
       3    4670    4604    4628
       3    4700    4675    4671
       3    4671    4642    4631
       3    4696    4672    3732
       3    4672    4635    4643
       3    4697    4637    4670
       3    4701    4677    4673
       3    4674    4625    4648
       3    4689    4640    4682
       3    4675    4642    4671
       3    4729    4675    4700
       3    4681    4645    4647
       3    4704    4676    4681
       3    4703    4677    4701
       3    4677    3744    4646
       3    4718    4693    4678
       3    4692    4638    4666
       3    4679    4650    4616
       3    4731    4708    4679
       3    4736    4730    4710
       3    4680    4581    4651
       3    4681    4676    4645
       3    4733    4710    4730
       3    4682    4640    4650
       3    4682    4650    4679
       3    4710    3756    4706
       3    4740    4728    4701
       3    4684    4618    4654
       3    4735    4711    4684
       3    4814    4773    3767
       3    4773    4712    4685
       3    4819    3741    4816
       3    4760    4686    3742
       3    4687    4663    4629
       3    4717    4661    4688
       3    4688    4661    4665
       3    4726    4689    4721
       3    4689    4659    4674
       3    4721    4689    4682
       3    4725    4701    4673
       3    4690    4662    4669
       3    4691    4657    4659
       3    4691    4659    4688
       3    4699    4666    4660
       3    4718    4699    4698
       3    4693    4651    4615
       3    4693    4649    4678
       3    4737    4700    4722
       3    4694    4671    4663
       3    4696    4695    4667
       3    4723    4720    4695
       3    4696    4667    4672
       3    4723    4696    3732
       3    4697    4673    4637
       3    4697    4670    4690
       3    4718    4705    4651
       3    4698    4668    4676
       3    4699    4660    4668
       3    4699    4668    4698
       3    4737    4729    4700
       3    4700    4671    4694
       3    4725    4673    4697
       3    4752    4728    4740
       3    4702    4681    3744
       3    4724    3744    4703
       3    4728    4724    4703
       3    4703    3744    4677
       3    4736    4705    4727
       3    4704    4698    4676
       3    4705    4680    4651
       3    4718    4651    4693
       3    4706    3756    4536
       3    4706    4581    4680
       3    4731    4707    3731
       3    4707    4616    4652
       3    4719    4687    4717
       3    4731    4679    4707
       3    4759    4709    4746
       3    4709    4654    4683
       3    4736    4680    4705
       3    4710    4683    3756
       3    4711    3767    4685
       3    4711    4653    4684
       3    4776    4716    3781
       3    4712    3768    4685
       3    4768    4713    3729
       3    4713    4493    4537
       3    4714    4228     373
       3    4810    4714     373
       3    4715    3769    4494
       3    4795    4715    3782
       3    4716    4494    4443
       3    4716    3768    4712
       3    4726    4721    4717
       3    4717    4687    4661
       3    4718    4678    4692
       3    4718    4692    4699
       3    4739    4722    4719
       3    4719    4694    4687
       3    4741    4732    4738
       3    4720    4690    4695
       3    4721    4682    4708
       3    4739    4721    4708
       3    4744    4739    4708
       3    4722    4700    4694
       3    4748    3732    4737
       3    4743    4723    4742
       3    4734    4733    4724
       3    4724    4702    3744
       3    4732    4725    4697
       3    4741    4725    4732
       3    4726    4688    4659
       3    4726    4659    4689
       3    4727    4698    4704
       3    4730    4727    4704
       3    4728    4703    4701
       3    4746    4734    4728
       3    4729    3732    4672
       3    4729    4672    4675
       3    4730    4704    4702
       3    4733    4730    4702
       3    4745    4731    3731
       3    4749    4748    4744
       3    4732    4697    4690
       3    4738    4732    4720
       3    4733    4702    4724
       3    4733    4683    4710
       3    4734    4709    4683
       3    4734    4724    4728
       3    4812    4770    4735
       3    4735    3767    4711
       3    4736    4710    4680
       3    4736    4727    4730
       3    4737    3732    4729
       3    4744    4722    4739
       3    4741    4740    4725
       3    4743    4720    4723
       3    4739    4719    4721
       3    4744    4708    4731
       3    4752    4746    4728
       3    4740    4701    4725
       3    4747    4741    4738
       3    4741    3743    4740
       3    4753    4748    4749
       3    4742    4723    3732
       3    4747    4738    4743
       3    4743    4738    4720
       3    4749    4731    4745
       3    4744    4737    4722
       3    4750    3731    4655
       3    4756    4745    4750
       3    4754    4746    4752
       3    4746    4709    4734
       3    4758    4747    4751
       3    4747    3743    4741
       3    4748    4742    3732
       3    4748    4737    4744
       3    4749    4744    4731
       3    4756    4753    4745
       3    4760    4655    4686
       3    4764    4760    4761
       3    4753    4751    4742
       3    4764    4761    4755
       3    4752    4740    3743
       3    4754    4752    3743
       3    4753    4742    4748
       3    4753    4749    4745
       3    4757    3743    4755
       3    4762    4754    4757
       3    4761    4757    4755
       3    4755    3743    4747
       3    4756    4751    4753
       3    4760    4756    4750
       3    4763    4762    4757
       3    4757    4754    3743
       3    4758    4755    4747
       3    4758    4751    4756
       3    4759    3755    4709
       3    4759    4746    4754
       3    4760    4750    4655
       3    4761    4760    3742
       3    4764    4755    4758
       3    4766    4763    3742
       3    4763    4757    4761
       3    4765    4762    4763
       3    4763    4761    3742
       3    4766    4765    4763
       3    4764    4758    4756
       3    4764    4756    4760
       3    4769    4765    3754
       3    4765    3755    4762
       3    4771    3742    4686
       3    4766    3754    4765
       3    4772    4767    3753
       3    4767    3754    4766
       3    4817    4768    3729
       3    4768    4656    3730
       3    4812    4769    3754
       3    4769    4735    3755
       3    4890    4770    3766
       3    4770    3767    4735
       3    4771    4766    3742
       3    4771    4686    3741
       3    4818    4772    3753
       3    4891    4812    4772
       3    4773    4685    3767
       3    4847    4773    3780
       3    4815    4774    3718
       3    4896    4774    4815
       3    4816    4775    3740
       3    4775    3741    4656
       3    4813    4776    3781
       3    4776    3782    4494
       3    4778    4777    4092
       3    4888    4777     442
       3    4820    4778    4091
       3    4778     441    4777
       3    4821    4779    4089
       3    4779     438    4090
       3    4822    4780    4086
       3    4887    4780     434
       3    4782    4781    4084
       3    4781     431    4085
       3    4782    4083     429
       3    4782     430    4781
       3    4783     406     407
       3    4880    4783    3913
       3    4784     413     414
       3    4881    4784    3978
       3    4785     416     417
       3    4882    4785    4004
       3    4786     420     421
       3    4883    4786    4043
       3    4787     423     424
       3    4885    4787    4069
       3    4867    4788    3733
       3    4788    3722     386
       3    4830    4789     394
       3    4886    4789    3796
       3    4790     399     400
       3    4877    4790    3848
       3    4833    4791     404
       3    4879    4791    3887
       3    4792     397    3822
       3    4875    4792    3822
       3    4873    4793    3757
       3    4793    3745     389
       3    4838    4794      42
       3    4874    4794    3808
       3    4813    4804    3782
       3    4795      39      38
       3    4876    4796    3847
       3    4796    3860      47
       3    4843    4797      49
       3    4878    4797    3873
       3    4870    4798    3977
       3    4798    3990      61
       3    4871    4799    4003
       3    4799    4016      64
       3    4872    4800    4042
       3    4800    4055      68
       3    4884    4801    4068
       3    4801    4081    4841
       3    4869    4802    3938
       3    4802    3951      57
       3    4868    4803    3912
       3    4803    3925      54
       3    4804    3795      40
       3    4804      39    4795
       3    4846    4805     377
       3    4805    3715    3716
       3    4858    4806    3716
       3    4806    3717     375
       3    4807    3713    3714
       3    4807    3714     379
       3    4808    3712    3713
       3    4808    3713    4807
       3    4809     382     383
       3    4809    3711    3712
       3    4815    4810     374
       3    4810    3718    4714
       3    4811    4083    4082
       3    4811    4082     427
       3    4812    3754    4772
       3    4812    3766    4770
       3    4894    4813    3781
       3    4813    3795    4804
       3    4814    3780    4773
       3    4814    3767    4770
       3    4815     374     375
       3    4896    4815    3717
       3    5016    4958    4816
       3    4819    3753    4767
       3    4892    3729    3728
       3    4817    3740    4775
       3    4958    3753    4816
       3    4957    4891    3765
       3    4819    4767    4771
       3    4819    4771    3741
       3    4820    4091    4090
       3    4820    4090     438
       3    4821    4089    4088
       3    4821    4088     436
       3    4822    4086    4085
       3    4822    4085     432
       3    4823     412     413
       3    4823    3965    3952
       3    4824     415     416
       3    4824    3991    3978
       3    4825     419     420
       3    4918    4825    4030
       3    4826     408    3926
       3    4909    4826    3926
       3    4827     422     423
       3    4827    4056    4043
       3    4828     388    3745
       3    4828    3745    3733
       3    4829     391    3770
       3    4904    4829    3770
       3    4830     395    3809
       3    4830    3809    3796
       3    4831     398    3835
       3    4906    4831    3835
       3    4832     402     403
       3    4916    4832    3874
       3    4833     405    3900
       3    4833    3900    3887
       3    4834     401    3861
       3    4907    4834    3861
       3    4915    4835    3783
       3    4835    3770     392
       3    4836    3722    3711
       3    4836    3711     385
       3    4837      45    3834
       3    4931    4837    3834
       3    4838    3795    3808
       3    4838    3808    4794
       3    4935    4839    3964
       3    4839    3977    4798
       3    4840    3990    4003
       3    4799    4840    4003
       3    4841    4081    4094
       3    4841    4094      72
       3    4842      51      50
       3    4949    4842    3886
       3    4843      48    3860
       3    4843    3860    3873
       3    4933    4844    3821
       3    4844    3834      44
       3    4934    4845    3899
       3    4845    3912    4803
       3    4846    3714    3715
       3    4846    3715    4805
       3    4889    4847    3780
       3    5106    4847    4889
       3    4848    3727    3716
       3    4848    3715    3726
       3    4922    4849    4073
       3    4849    4087    4074
       3    4902    4850    4078
       3    4850    4092    4079
       3    4851    4079    4092
       3    4929    4851    4093
       3    4938    4852    3725
       3    4852    3713    3724
       3    4853    3724    3713
       3    4853    3712    3723
       3    4854    3723    3712
       3    4854    3711    3722
       3    4855    4069    4082
       3    4855    4083    4070
       3    4856    4070    4083
       3    4856    4084    4071
       3    4857    4071    4084
       3    4857    4085    4922
       3    4896    4858    3728
       3    4858    3716    3727
       3    4859    4076    4089
       3    4859    4090    4077
       3    4936    4860    4029
       3    4860    4042    4800
       3    4861     418    4017
       3    4911    4861    4017
       3    4925    4862    3951
       3    4862    3964      58
       3    4863     425    4082
       3    4863    4082    4069
       3    4927    4864    4016
       3    4864    4029      65
       3    4865    4055    4068
       3    4801    4865    4068
       3    4866    3925    3938
       3    4866    3938    4802
       3    4913    4867    3734
       3    4867    3723    4854
       3    4868    3925    4803
       3    4939    4868    3911
       3    4869    3951    4802
       3    4940    4869    3937
       3    4870    3990    4798
       3    4941    4870    3976
       3    4871    4016    4799
       3    4942    4871    4002
       3    4872    4055    4800
       3    4943    4872    4041
       3    4873    3745    4793
       3    4944    4873    3758
       3    4874    3821    4794
       3    4895    4874    3807
       3    4875    3809    4792
       3    4945    4875    3823
       3    4876    3860    4796
       3    4946    4876    3846
       3    4877    3835    4790
       3    4947    4877    3849
       3    4878    3886    4797
       3    4948    4878    3872
       3    4879    3874    4791
       3    4950    4879    3888
       3    4880    3900    4783
       3    4951    4880    3914
       3    4881    3965    4784
       3    4952    4881    3979
       3    4882    3991    4785
       3    4953    4882    4005
       3    4883    4030    4786
       3    4954    4883    4044
       3    4884    4081    4801
       3    4900    4884    4067
       3    4885    4056    4787
       3    4919    4885    4070
       3    4886    3783    4789
       3    4955    4886    3797
       3    4887    4087    4780
       3    4887     435    4088
       3    4888    4094    4093
       3    4888    4093    4777
       3    5017    4889    4956
       3    5106    4889    3793
       3    4957    4890    3766
       3    4956    4890    3779
       3    4891    3766    4812
       3    4891    4772    4818
       3    5129    3728    3739
       3    5129    5072    3740
       3    4893    3752    3764
       3    4893    3764    4818
       3    4894    3794    4813
       3    4894    3781    4847
       3    4967    4895    3806
       3    4895    3820    4874
       3    4896    3717    4858
       3    4896    3728    4774
       3    4897    3738    3727
       3    4966    4897    3726
       3    5003    4898    4060
       3    4898    4074    4061
       3    4984    4899    4065
       3    4899    4079    4066
       3    4900    4066    4079
       3    4900    4080    4884
       3    4923    4901    4075
       3    4901    4089    4076
       3    4902    4077    4090
       3    4902    4091    4850
       3    4903    3745    4873
       3    4903    3746    3734
       3    4904    3771    3758
       3    4904    3757    4829
       3    4905    3810    3797
       3    4905    3796    3809
       3    4906    3836    3823
       3    4906    3822    4831
       3    4907    3862    3849
       3    4907    3848    4834
       3    4908    3901    3888
       3    4908    3887    3900
       3    4909    3927    3914
       3    4909    3913    4826
       3    4910    3992    3979
       3    4910    3978    3991
       3    4911    4018    4005
       3    4911    4004    4861
       3    4912    4057    4044
       3    4912    4043    4056
       3    4913    3735    3724
       3    4913    3723    4867
       3    4914    3736    3725
       3    4914    3724    3735
       3    4915    3770    4835
       3    4997    4915    3784
       3    4916    3861    4832
       3    4998    4916    3875
       3    4917    3952    3965
       3    5000    4917    3966
       3    4918    4017    4825
       3    5001    4918    4031
       3    4919    4057    4885
       3    4920    4919    4071
       3    4920    4058    4919
       3    4920    4072    4059
       3    4921    3739    3728
       3    4921    3727    3738
       3    4857    4922    4072
       3    4922    4086    4849
       3    4923    4074    4087
       3    4923    4088    4901
       3    4924    3938    3925
       3    4970    4924    3924
       3    4925    3964    4862
       3    4971    4925    3950
       3    4926    4003    3990
       3    4972    4926    3989
       3    4927    4029    4864
       3    4973    4927    4015
       3    4928    4068    4055
       3    4974    4928    4054
       3    4929    4094    4081
       3    4929    4080    4851
       3    4930    3859    3872
       3    4930    3873    3860
       3    4931    3833    3846
       3    4931    3847    4837
       3    4965    4932    3794
       3    4932    3808    3795
       3    4933    3834    4844
       3    4977    4933    3820
       3    4934    3898    3911
       3    4934    3912    4845
       3    4935    3963    3976
       3    4935    3977    4839
       3    4936    4028    4041
       3    4936    4042    4860
       3    4937    4063    4076
       3    4937    4077    4064
       3    4938    3726    3715
       3    4938    3714    4852
       3    4939    3924    4868
       3    5008    4939    3910
       3    4940    3950    4869
       3    5009    4940    3936
       3    4941    3989    4870
       3    5010    4941    3975
       3    4942    4015    4871
       3    5011    4942    4001
       3    4943    4054    4872
       3    5012    4943    4040
       3    5007    4944    3759
       3    4944    3747    3746
       3    4945    3810    4875
       3    4962    4945    3824
       3    4946    3859    4876
       3    4959    4946    3845
       3    4947    3836    4877
       3    4964    4947    3850
       3    4948    3885    4878
       3    5006    4948    3871
       3    4949    3899    4842
       3    4968    4949    3885
       3    4950    3875    4879
       3    4963    4950    3889
       3    4951    3901    4880
       3    4961    4951    3915
       3    4952    3966    4881
       3    5013    4952    3980
       3    4953    3992    4882
       3    5014    4953    4006
       3    4954    4031    4883
       3    5015    4954    4045
       3    4955    3784    4886
       3    4960    4955    3798
       3    5017    4956    3779
       3    4956    3780    4814
       3    4957    3765    3778
       3    4957    3779    4890
       3    5016    4816    3740
       3    4958    3752    4893
       3    5040    4959    3844
       3    4959    3858    4946
       3    5041    4960    3799
       3    4960    3785    4955
       3    5042    4961    3916
       3    4961    3902    4951
       3    5043    4962    3825
       3    4962    3811    4945
       3    5044    4963    3890
       3    4963    3876    4950
       3    5045    4964    3851
       3    4964    3837    4947
       3    4965    3793    3806
       3    4965    3807    4932
       3    4966    3737    4897
       3    4966    3726    3725
       3    5018    4967    3806
       3    4967    3819    4895
       3    4968    3898    4949
       3    5046    4968    3884
       3    5026    4969    3858
       3    4969    3872    3859
       3    4970    3937    4924
       3    5047    4970    3923
       3    4971    3963    4925
       3    5048    4971    3949
       3    4972    4002    4926
       3    5049    4972    3988
       3    4973    4028    4927
       3    5050    4973    4014
       3    4974    4067    4928
       3    4982    4974    4053
       3    5029    4975    3832
       3    4975    3846    3833
       3    5035    4976    3750
       3    5039    4976    3737
       3    4977    3833    4933
       3    5036    4977    3819
       3    4978    3897    3910
       3    4978    3911    3898
       3    4979    3962    3975
       3    4979    3976    3963
       3    4980    4027    4040
       3    4980    4041    4028
       3    5064    4981    4047
       3    4981    4061    4048
       3    5057    4982    4052
       3    4982    4066    4974
       3    5004    4983    4062
       3    4983    4076    4063
       3    4984    4064    4077
       3    4984    4078    4899
       3    5027    4985    3772
       3    4985    3758    3771
       3    4986    3734    3746
       3    4996    4986    3747
       3    5031    4987    3811
       3    4987    3797    3810
       3    5033    4988    3837
       3    4988    3823    3836
       3    5034    4989    3863
       3    4989    3849    3862
       3    5032    4990    3902
       3    4990    3888    3901
       3    5030    4991    3928
       3    4991    3914    3927
       3    4992    3940    3927
       3    4992    3926    3939
       3    4993    3993    3980
       3    4993    3979    3992
       3    4994    4019    4006
       3    4994    4005    4018
       3    5002    4995    4058
       3    4995    4044    4057
       3    5028    4996    3748
       3    4996    3735    4986
       3    4997    3771    4915
       3    5038    4997    3785
       3    4998    3862    4916
       3    5037    4998    3876
       3    4999    3939    3952
       3    4999    3953    3940
       3    5000    3953    4917
       3    5062    5000    3967
       3    5001    4018    4918
       3    5063    5001    4032
       3    5002    4045    4995
       3    5002    4059    4046
       3    5003    4059    4072
       3    5003    4073    4898
       3    5004    4061    4074
       3    5004    4075    4983
       3    5005    4050    4063
       3    5005    4064    4051
       3    5006    3884    4948
       3    5025    5006    3870
       3    5007    3747    4944
       3    5024    5007    3760
       3    5008    3923    4939
       3    5023    5008    3909
       3    5009    3949    4940
       3    5021    5009    3935
       3    5010    3988    4941
       3    5020    5010    3974
       3    5011    4014    4942
       3    5067    5011    4000
       3    5012    4053    4943
       3    5068    5012    4039
       3    5013    3967    4952
       3    5022    5013    3981
       3    5014    3993    4953
       3    5069    5014    4007
       3    5015    4032    4954
       3    5070    5015    4046
       3    5129    3740    4892
       3    5016    3752    4958
       3    5084    5017    3779
       3    5131    5017    3792
       3    5105    5019    5018
       3    5105    5018    3805
       3    5036    5019    3818
       3    5019    4967    5018
       3    5100    5020    3973
       3    5020    3987    5010
       3    5102    5021    3934
       3    5021    3948    5009
       3    5101    5022    3982
       3    5022    3968    5013
       3    5103    5023    3908
       3    5023    3922    5008
       3    5099    5024    3761
       3    5024    3748    5007
       3    5104    5025    3869
       3    5025    3883    5006
       3    5026    3871    4969
       3    5026    3858    3857
       3    5027    3773    3760
       3    5027    3759    4985
       3    5039    5028    3749
       3    5028    3736    4996
       3    5029    3831    3844
       3    5029    3845    4975
       3    5030    3929    3916
       3    5030    3915    4991
       3    5031    3812    3799
       3    5031    3798    4987
       3    5032    3903    3890
       3    5032    3889    4990
       3    5033    3838    3825
       3    5033    3824    4988
       3    5034    3864    3851
       3    5034    3850    4989
       3    5187    5173    5035
       3    5035    3738    4976
       3    5036    3818    3831
       3    5036    3832    4977
       3    5037    3877    3864
       3    5037    3863    4998
       3    5038    3786    3773
       3    5038    3772    4997
       3    5039    3749    4976
       3    5039    3737    5028
       3    5040    3857    4959
       3    5143    3844    3843
       3    5074    5041    3799
       3    5041    3786    4960
       3    5082    5073    5042
       3    5042    3903    4961
       3    5076    5043    3825
       3    5043    3812    4962
       3    5080    5075    5044
       3    5044    3877    4963
       3    5077    5045    3851
       3    5045    3838    4964
       3    5046    3897    4968
       3    5093    5046    3883
       3    5047    3936    4970
       3    5094    5047    3922
       3    5048    3962    4971
       3    5095    5048    3948
       3    5049    4001    4972
       3    5096    5049    3987
       3    5050    4027    4973
       3    5107    5050    4013
       3    5092    5051    3762
       3    5099    5051    3749
       3    5091    5052    3896
       3    5052    3910    3897
       3    5089    5053    3961
       3    5053    3975    3962
       3    5054    4026    4039
       3    5054    4040    4027
       3    5070    5055    4034
       3    5055    4048    4035
       3    5065    5056    4049
       3    5056    4063    4050
       3    5057    4051    4064
       3    5057    4065    4982
       3    5088    5058    3941
       3    5058    3927    3940
       3    5090    5059    3994
       3    5059    3980    3993
       3    5060    4020    4007
       3    5060    4006    4019
       3    5061    3940    3953
       3    5098    5061    3954
       3    5062    3954    5000
       3    5097    5062    3968
       3    5063    4019    5001
       3    5115    5063    4033
       3    5064    4046    4059
       3    5064    4060    4981
       3    5065    4048    4061
       3    5065    4062    5056
       3    5066    4037    4050
       3    5068    5066    4051
       3    5067    4013    5011
       3    5087    5067    3999
       3    5068    4052    5012
       3    5068    4038    5066
       3    5069    3994    5014
       3    5086    5069    4008
       3    5070    4033    5015
       3    5070    4047    5055
       3    5071     409     410
       3    5071    3939    3926
       3    5173    5083    5072
       3    5173    5072    3739
       3    5140    5073    5082
       3    5148    5073    3904
       3    5118    5074    3800
       3    5118    5081    5074
       3    5139    5075    5080
       3    5151    5075    3878
       3    5119    5076    3826
       3    5119    5079    5076
       3    5120    5077    3852
       3    5120    5078    5077
       3    5146    5078    3839
       3    5078    5045    5077
       3    5145    5079    3813
       3    5079    5043    5076
       3    5080    5044    3890
       3    5139    5080    3891
       3    5150    5081    3787
       3    5081    5041    5074
       3    5082    5042    3916
       3    5140    5082    3917
       3    5130    5083    3751
       3    5083    5016    5072
       3    5084    3778    3791
       3    5084    3792    5017
       3    5085    3806    3793
       3    5172    5085    5131
       3    5137    5086    4009
       3    5086    3995    5069
       3    5138    5087    3998
       3    5087    4012    5067
       3    5088    3942    3929
       3    5088    3928    5058
       3    5089    3960    3973
       3    5089    3974    5053
       3    5090    3995    3982
       3    5090    3981    5059
       3    5091    3895    3908
       3    5091    3909    5052
       3    5204    5187    5092
       3    5092    3750    5051
       3    5093    3882    3895
       3    5093    3896    5046
       3    5094    3921    3934
       3    5094    3935    5047
       3    5095    3947    3960
       3    5095    3961    5048
       3    5096    3986    3999
       3    5096    4000    5049
       3    5097    3969    3956
       3    5097    3955    5062
       3    5098    3955    3942
       3    5098    3941    5061
       3    5099    3761    5051
       3    5099    3749    5024
       3    5183    5100    3973
       3    5100    3986    5020
       3    5128    5121    5101
       3    5101    3969    5022
       3    5180    5122    3934
       3    5102    3947    5021
       3    5182    5123    3908
       3    5103    3921    5023
       3    5134    5124    3869
       3    5104    3882    5025
       3    5105    3804    3817
       3    5105    3818    5019
       3    5106    3793    4965
       3    5106    3794    4894
       3    5107    4026    5050
       3    5136    5107    4012
       3    5135    5108    3775
       3    5108    3761    3774
       3    5134    5109    3856
       3    5109    3870    3857
       3    5115    5110    4021
       3    5110    4035    4022
       3    5111    4025    4038
       3    5111    4039    4026
       3    5116    5112    4036
       3    5112    4050    4037
       3    5133    5113    4021
       3    5113    4007    4020
       3    5114    3774    3761
       3    5114    3760    3773
       3    5115    4020    5063
       3    5115    4034    5110
       3    5116    4035    4048
       3    5116    4049    5112
       3    5132    5117    4024
       3    5117    4038    4025
       3    5118    3801    3788
       3    5118    3787    5081
       3    5119    3827    3814
       3    5119    3813    5079
       3    5120    3853    3840
       3    5120    3839    5078
       3    5174    5121    5128
       3    5175    5121    3970
       3    5156    5122    3933
       3    5156    5127    5122
       3    5157    5123    3907
       3    5157    5125    5123
       3    5158    5124    3868
       3    5158    5126    5124
       3    5180    5125    3920
       3    5125    5103    5123
       3    5179    5126    3881
       3    5126    5104    5124
       3    5181    5127    3946
       3    5127    5102    5122
       3    5128    5101    3982
       3    5174    5128    3983
       3    5129    4892    3728
       3    5129    3739    5072
       3    5204    5130    3751
       3    5130    3764    3752
       3    5131    3793    4889
       3    5172    5131    3792
       3    5132    4023    4036
       3    5132    4037    5117
       3    5133    4022    4009
       3    5133    4008    5113
       3    5134    3855    3868
       3    5134    3869    5109
       3    5217    3776    3763
       3    5135    3762    5108
       3    5136    4011    4024
       3    5136    4025    5107
       3    5186    5137    4009
       3    5137    3996    5086
       3    5185    5138    3998
       3    5138    4011    5087
       3    5139    3892    3879
       3    5139    3878    5075
       3    5140    3918    3905
       3    5140    3904    5073
       3    5166    5141    3788
       3    5150    5141    3774
       3    5142    3831    3818
       3    5167    5142    3817
       3    5171    5143    3843
       3    5143    3856    5109
       3    5144    3982    3995
       3    5170    5144    3996
       3    5163    5145    3813
       3    5145    3799    3812
       3    5164    5146    3839
       3    5146    3825    3838
       3    5165    5147    3865
       3    5147    3851    3864
       3    5162    5148    3904
       3    5148    3890    3903
       3    5161    5149    3930
       3    5149    3916    3929
       3    5150    3787    5141
       3    5150    3774    5114
       3    5151    3864    3877
       3    5168    5151    3878
       3    5152    3942    3955
       3    5169    5152    3956
       3    5153    4022    4035
       3    5153    4036    4023
       3    5160    5154    3985
       3    5154    3999    3986
       3    5155    3844    3831
       3    5159    5155    3830
       3    5156    3932    3945
       3    5156    3946    5127
       3    5157    3906    3919
       3    5157    3920    5125
       3    5158    3867    3880
       3    5158    3881    5126
       3    5159    3843    5155
       3    5159    3830    3829
       3    5160    3984    3997
       3    5160    3998    5154
       3    5161    3931    3918
       3    5161    3917    5149
       3    5162    3905    3892
       3    5162    3891    5148
       3    5163    3814    3801
       3    5163    3800    5145
       3    5164    3840    3827
       3    5164    3826    5146
       3    5165    3866    3853
       3    5165    3852    5147
       3    5166    3789    3776
       3    5166    3775    5141
       3    5167    3816    3829
       3    5167    3830    5142
       3    5168    3879    3866
       3    5168    3865    5151
       3    5169    3957    3944
       3    5169    3943    5152
       3    5170    3997    3984
       3    5170    3983    5144
       3    5171    3842    3855
       3    5171    3856    5143
       3    5172    3791    3804
       3    5172    3805    5085
       3    5173    3751    5083
       3    5173    3739    5035
       3    5174    3984    3971
       3    5174    3970    5121
       3    5175    3956    3969
       3    5194    5175    3970
       3    5178    5176    4010
       3    5176    4024    4011
       3    5189    5177    3943
       3    5177    3929    3942
       3    5178    4009    4022
       3    5178    4023    5176
       3    5179    3895    3882
       3    5191    5179    3881
       3    5180    3934    3921
       3    5192    5180    3920
       3    5181    3960    3947
       3    5193    5181    3946
       3    5190    5182    3894
       3    5182    3908    3895
       3    5195    5183    3972
       3    5183    3985    5154
       3    5184    3973    3960
       3    5188    5184    3959
       3    5186    5185    3997
       3    5185    4010    4011
       3    5186    4010    5185
       3    5186    3997    3996
       3    5187    3751    5173
       3    5187    3750    5092
       3    5208    5188    3958
       3    5188    3972    5184
       3    5189    3944    3931
       3    5189    3930    5177
       3    5190    3893    3906
       3    5190    3907    5182
       3    5191    3880    3893
       3    5191    3894    5179
       3    5192    3919    3932
       3    5192    3933    5180
       3    5193    3945    3958
       3    5193    3959    5181
       3    5208    5194    3971
       3    5194    3957    5175
       3    5195    3971    3984
       3    5195    3985    5183
       3    5206    5203    3829
       3    5196    3842    5159
       3    5207    5197    3854
       3    5197    3868    3855
       3    5198    3814    3827
       3    5206    5198    3828
       3    5199    3840    3853
       3    5205    5199    3854
       3    5200    3879    3892
       3    5200    3893    3880
       3    5201    3905    3918
       3    5201    3919    3906
       3    5202    3788    3801
       3    5202    3802    3789
       3    5203    3828    3841
       3    5216    5203    3841
       3    5204    3763    5130
       3    5204    3751    5187
       3    5205    3855    3842
       3    5205    3841    5199
       3    5206    3829    3816
       3    5206    3815    5198
       3    5207    3853    3866
       3    5207    3867    5197
       3    5208    3958    5194
       3    5208    3971    5188
       3    5209    3841    3828
       3    5209    3827    3840
       3    5210    3906    3893
       3    5210    3892    3905
       3    5211    3932    3919
       3    5211    3918    3931
       3    5212    3866    3879
       3    5212    3880    3867
       3    5213    3944    3957
       3    5213    3958    3945
       3    5214    3945    3932
       3    5214    3931    3944
       3    5215    3815    3802
       3    5202    5215    3802
       3    5216    3841    5205
       3    5216    3842    5196
       3    5217    3763    5204
       3    5217    3762    5135
       3    3776    3789    5218
       3    3790    3777    5218
       3       8     483     261
       3     261     483    5529
       3    5529     483     484
       3    6384     485     486
       3    6483     486     487
       3    5532     487     488
       3    6385     489     490
       3    6484     490     491
       3    5536     492     493
       3    6387     493     494
       3    6485     494     495
       3    5539     496     497
       3    6388     497     498
       3    5540     498     499
       3    5541     500     501
       3     502    5541     501
       3    6442     502     503
       3    6389     503     504
       3    6389    5528     503
       3    6507    5514    5515
       3    6601    6553    5500
       3    6647    5486    5487
       3    6686    6685    5472
       3    6671    5458    5459
       3    6729    5444    6724
       3    6736    6747    5430
       3    6696    6694    6676
       3    6673    5402    5403
       3    6607    5388    5389
       3    6578    5374    5375
       3    6529    6528    5360
       3    6452    6399     281
       3    6452     280    5360
       3     280     279    5360
       3    6444    5360     279
       3    6474    5374    5373
       3    6579    5388    5387
       3    6608    5402    5401
       3    6678    5416    5415
       3    6705    5430    5429
       3    6702    5444    5443
       3    6728    5458    5457
       3    6682    5472    5471
       3    6657    5486    5485
       3    6648    5500    5499
       3    6520    5514    5513
       3    6466    6457    5528
       3    6466    5528    6389
       3    6466    5515    5514
       3     282    5334     283
       3    6399     282     281
       3    6467    5347    5348
       3    6533    5348    5349
       3    6565    5336    6533
       3    5337    5350    5351
       3    5338    5351    5352
       3    6778    5339    5352
       3    6787    6772    5353
       3    6785    6780    6777
       3    6784    6780    5355
       3    6629    5356    5357
       3    6590    5357    5358
       3    6508    5358    5359
       3    6508    6441    5346
       3     523    5346     522
       3    6430     523     524
       3    6430     524    6391
       3    6430    6391    5333
       3    6509    5319    5320
       3    6544    5305    5306
       3    6788    6630    5279
       3    6792    6773    5278
       3    6669    6496    5263
       3    6373    6363    5249
       3    6383    5223    6354
       3    6259    6240    5239
       3    5679    5619    5617
       3    5564     369     368
       3    5562     363    5561
       3    5563     360     359
       3    5764    5575    5647
       3    5675    5584    5663
       3    5608     564     565
       3    5622    5555    5554
       3    5680    5678    5618
       3    6067    5269    6027
       3    6400     288    5282
       3    6463    5295    5282
       3    6443     285    6401
       3    6453    6401     284
       3    6453    5334    5321
       3    6522    5334    5335
       3    6467    5334    6399
       3    6444     278    6406
       3    6444    6406    5373
       3    6523    5387    5386
       3    6579    6547    5401
       3    6638    5415    5414
       3    6681    5429    6678
       3    6690    5443    5442
       3    6735    5457    5456
       3    6716    5471    5470
       3    6643    5485    6682
       3    6652    5499    5498
       3    6648    6602    5513
       3    6458    5527    5526
       3    6386     499     500
       3    6457    5540    5541
       3    6445     277     276
       3    6445    5386    6406
       3    6523    6475    5400
       3    6580    5414    5413
       3    6642    5428    6638
       3    6655    5442    5441
       3    6717    5456    5455
       3    6735    6714    5470
       3    6687    5484    5483
       3    6586    5498    5497
       3    6605    5512    5511
       3    6534    5526    5525
       3    6388    5540    5539
       3    6458    5539    5540
       3     276     275    5399
       3    6402    5399     275
       3    6524    5413    5412
       3    6584    5427    6580
       3    6611    5441    5440
       3    6679    5455    5454
       3    6717    6688    5469
       3    6683    5483    5482
       3    6651    5497    5496
       3    6505    5511    6586
       3    6535    5525    5524
       3     496    5539    5538
       3    6534    5539    5526
       3    6451    6402     274
       3    6451    5412    6402
       3    6530    5426    6524
       3    6550    5440    5439
       3    6639    5454    5453
       3    6679    6656    5468
       3    6688    6653    5482
       3    6646    5496    5495
       3    6604    5510    5509
       3    6455    5524    6505
       3    6485     495    5538
       3    6535    5537    5538
       3     273     272    5425
       3    6446    5425     272
       3    6478    5439    5438
       3    6581    5453    5452
       3    6639    6612    5467
       3    6680    5481    5480
       3    6606    5495    5494
       3    6589    5509    5508
       3    6536    5523    5522
       3    6387    5537    5536
       3    6455    5536    5537
       3    6405    6446     271
       3    6405    5438    6446
       3    6525    5452    5451
       3    6581    6551    5466
       3    6640    5480    5479
       3    6680    6645    5494
       3    6532    5508    6606
       3    6537    5522    5521
       3     492    5536    5535
       3    6536    5536    5523
       3    6447     270     269
       3    6447    5451    6405
       3    6525    6479    5465
       3    6582    5479    5478
       3    6644    5493    6640
       3    6588    5507    5506
       3    6462    5521    6532
       3    6484     491    5535
       3    6537    5534    5535
       3     269     268    5464
       3    6404     268     267
       3    6526    5478    5477
       3    6585    5492    6582
       3    6587    5506    5505
       3    6503    5520    5519
       3    6385    5534    5533
       3    6462    5533    5534
       3    6448     267     266
       3    6448    5477    6404
       3    6531    5491    6526
       3    6504    5505    5504
       3    6538    5519    5518
       3    6428     488     489
       3    6503    5532    5533
       3     266     265    5490
       3    6450     265     264
       3    6480    5504    5503
       3    6504    6456    5518
       3    6483    5532    5531
       3    6538    5531    5532
       3    6403     264     263
       3    6403    5503    6450
       3    6527    5517    5516
       3    6384    5531    5530
       3    6456    5530    5531
       3    6449     263     262
       3    6449     262    5529
       3    6429     484     485
       3    6527    5530    5517
       3     500      15     501
       3    6431     504     505
       3    6431    5515    6389
       3    6507    6482    5501
       3    6591    5487    5488
       3    6650    5473    6647
       3    6654    5459    5460
       3    6712    5445    5446
       3    6740    5431    5432
       3    6731    5417    5418
       3    6737    5403    6694
       3    6624    5389    5390
       3    6634    5375    5376
       3    6583    5361    6578
       3    6528    5348    5347
       3     505     506    5502
       3    6398     506     507
       3    6510    5488    5489
       3    6600    5474    6591
       3    6610    5460    5461
       3    6672    5446    5447
       3    6727    6677    6695
       3    6755    5418    5419
       3    5404    5405    5391
       3    5390    5391    5377
       3    6719    5376    5377
       3    6628    5362    5363
       3    6583    5349    5348
       3    6432     507     508
       3    6432    5489    6398
       3    6519    5475    6510
       3    6549    5461    5462
       3    6649    5447    5448
       3    6623    5433    5434
       3    6704    5419    6695
       3    6755    6801    5405
       3    5391    5392    5378
       3    5377    5378    5364
       3    6718    5363    6719
       3    6628    5350    5349
       3     508     509    5476
       3    6433    5476     509
       3    6477    5462    5463
       3    6592    5448    5449
       3    6649    6609    5434
       3    6684    5420    5421
       3    6730    5406    5407
       3    6800    5392    5393
       3    6796    5378    5379
       3    6794    5364    5365
       3    6718    5350    5363
       3    6433     510    6397
       3    6433    6397    5463
       3    6511    5449    5450
       3    6592    6548    5435
       3    6626    5421    5422
       3    6715    5407    5408
       3    6709    5393    5394
       3    6800    6797    5379
       3    6794    6793    6782
       3    6794    5351    5364
       3    6434     511     512
       3    6434    5450    6397
       3    6511    6476    5436
       3    6593    5422    5423
       3    6632    5408    5409
       3    6664    5395    6637
       3    6799    6798    5380
       3    6795    6789    6790
       3    6794    6782    5352
       3     512     513    5437
       3    6396     513     514
       3    6512    5423    5424
       3    6599    5409    6593
       3    6564    5395    5396
       3    6701    5381    6663
       3    6786    5367    5368
       3    6790    6787    5353
       3    6435     514     515
       3    6435    5424    6396
       3    6518    5410    6512
       3    6546    5396    5397
       3    6627    5382    5383
       3    5368    5369    5355
       3    6789    6786    5354
       3     515     516    5411
       3    6436    5411     516
       3    6473    5397    5398
       3    6594    5383    5384
       3    6566    5369    5370
       3    5355    5369    5356
       3    6436     517    6395
       3    6436    6395    5398
       3    6513    5384    5385
       3    6594    6539    5370
       3    6566    5356    5369
       3    6437     518     519
       3    6437    5385    6395
       3    6513    6468    5371
       3    6539    5358    5357
       3     519     520    5372
       3    6390    5372     520
       3    6468    5359    5358
       3    6441    6390     521
       3    6391     525    5320
       3    6438    5320     526
       3    6509    6471    5306
       3    6595    5292    5293
       3    6791    6633    6754
       3    6658    6614    5264
       3    6492    6420    5250
       3    6488    6422    6379
       3    6372    5238    6306
       3    6413    5683    6382
       3    5621     371    5619
       3    6438     527    6392
       3    6438    6392    5307
       3    6514    5293    5294
       3    6598    5279    6595
       3    6754    6563    6743
       3    6734    6636    6706
       3    6665    6560    5225
       3    6500    6461    5237
       3    6486    6413    5549
       3    6413     373    5683
       3    6464    6392     528
       3    6464     528     529
       3    6517    5280    6514
       3    6552    5266    5267
       3    6597    5252    5253
       3    6603    5226    5227
       3    6506    5236    5235
       3    6461    6407    5548
       3    6486     375     374
       3    6464    5294    6392
       3    6439    5281     530
       3    6481    5267    5268
       3    6596    5253    5254
       3    6516    5227    5228
       3    6521    5235    5234
       3    6454     377     376
       3    6407     376     375
       3    6439     531    6393
       3    6393     531     532
       3    6515    5254    5255
       3    6596    6541    5228
       3    6516    6460    5234
       3    6487    5546    5545
       3     377    5546     378
       3    6439    6393    5268
       3    6440    5255     533
       3    6515    6470    5229
       3    6540    5233    5232
       3    6408    5545    5544
       3    6487     379     378
       3    6440     534    6394
       3    6440    6394    5230
       3    6470    6459    5232
       3    5544    5543     380
       3    6408     380     379
       3    6394     535    5231
       3    6465     535     536
       3    6410     382    5543
       3     380    5543     381
       3    6465    5231     535
       3    5542     537     383
       3    6410     383     382
       3     537      13     383
       3    6469    5321    5322
       3    6401     285     284
       3    6573    5335    5336
       3    6522    5321    5334
       3    5607    5596     562
       3    6244    6210    6225
       3    6286    6257    6270
       3    6334    6330    5259
       3    6356    6353    6350
       3    6490    5288    6427
       3    6660    5302    6619
       3    6748    5316    6745
       3    6769    5330    6766
       3    6629    5344    5343
       3    6662    5343    5344
       3    6662    5344    5331
       3    6572    5344    5345
       3    6629    6590    5344
       3    6319    6294    6318
       3    6318    6308    6298
       3    6266    6245    6226
       3    6087    6074    6059
       3    6056    5998    6000
       3    5613    5586     550
       3    5613     551    5584
       3    6340    6327    6328
       3    6328    6327    6316
       3    6314    6291    6303
       3    6236    6189    6213
       3    6024    5947    5987
       3    6130    6098    6064
       3    6277    6259    6256
       3    6272    6256    6234
       3    6368    6359    6332
       3    6345    6338    6342
       3    6357    5273    6353
       3    6358    6353    5274
       3    6364    6362    5274
       3    6415    6364    6367
       3    6367    6364    5274
       3    6333    6324    6313
       3    6360    6354    6352
       3    6383    6371    5223
       3    6420    6363    6373
       3    6706    6665    6492
       3    6636    5227    5226
       3    6597    5228    5227
       3    6596    5229    6541
       3    6515    5230    6470
       3    6470    5231    6459
       3    6541    5232    5233
       3    6516    5233    6460
       3    6603    5234    5235
       3    6560    5235    5236
       3    6500    6422    6488
       3    6371    6306    6290
       3    6073    6038    6018
       3    5996    5964    5242
       3    6224    6174    6205
       3    6254    6234    6236
       3    5712    5709    5648
       3    6128    6022    6058
       3    5988    5851    5949
       3    6027    5989    5256
       3    6418    6241    6370
       3    6494    5295    5296
       3    6542    5308    5309
       3    6499    6469    5322
       3    6499    5322    5323
       3    6573    5323    5322
       3    6689    5336    5337
       3    6758    6749    5324
       3    6756    6752    5325
       3    6757    6751    5326
       3    6765    6763    6759
       3    6776    6764    5328
       3    6769    6766    5329
       3    6768    5329    6764
       3    6764    6748    6761
       3    6738    5315    6723
       3    6744    6707    6720
       3    6741    6700    6722
       3    6693    5312    6659
       3    6697    6668    6692
       3    6732    6499    5310
       3    6697    6692    5324
       3    6689    5323    5336
       3    6136    6104    6103
       3    6188    6187    5244
       3    6163    6099    5257
       3    6301    6216    6239
       3    6346    5273    6344
       3    6426    5287    6356
       3    6661    5301    6618
       3    6660    6619    5301
       3    6192    6164    6163
       3    6216    6166    6190
       3    6369    6217    6241
       3    6569    6414    5296
       3    6732    6571    5309
       3    6571    5297    6569
       3    6557    6556    6502
       3    6556    5298    6502
       3    6417    6381    5284
       3    6276    6260    5271
       3    6239    6216    5271
       3    6166    6134    6101
       3    6314    6303    6311
       3    6342    6338    5247
       3    6351    5248    6347
       3    6424    6374    5262
       3    6420    6373    5250
       3    6355    6352    6351
       3    6669    6614    6496
       3    6734    6614    6658
       3    6563    5253    5252
       3    6552    5254    5253
       3    6481    5255    5254
       3    5579     302     301
       3    6068    5989    6027
       3    6270    6257    6237
       3    6378    6366    5262
       3    6495    6491    6425
       3    6570    5263    6491
       3    6710    6669    6570
       3    6491    6424    6425
       3    6699    5265    6658
       3    6754    6633    5266
       3    6598    5267    5266
       3    6517    5268    5267
       3    5988    5986    5948
       3    5616    5553       9
       3    6370    6241    5270
       3    6292    6276    5284
       3    6369    6276    6217
       3    6375    6335    6341
       3    6555    6495    6501
       3    6767    6667    6762
       3    6739    6721    6726
       3    6616    6577    5318
       3    6572    5332    5331
       3    6543    6508    5346
       3    6543    5346    6430
       3    6543    5333    5332
       3    6472    5332    5333
       3    6568    5318    5319
       3    6779    6746    6567
       3    6774    6773    6771
       3    6771    6666    6625
       3    6625    5276    6555
       3    6773    5277    6771
       3    6788    6783    6630
       3    6598    6595    5280
       3    6517    6514    5281
       3    6067    5682     290
       3    6494    5283    6418
       3    6502    6416    6417
       3    6569    6417    6414
       3    6377    6346    6349
       3    6419    5285    6416
       3    6615    5300    6559
       3    6661    6618    5300
       3    6426    6356    6350
       3    6501    6495    5275
       3    6631    6558    6619
       3    6745    6725    6698
       3    6691    6675    5317
       3    6617    5331    6577
       3    6750    5303    6739
       3    6779    6739    5304
       3    6781    6567    5292
       3    6544    5293    5292
       3    6471    5294    5293
       3    6418    6400    5282
       3    6542    5296    5295
       3    6497    6416    5298
       3    6575    6554    5299
       3    6615    6559    5299
       3    6559    6489    5299
       3    6618    6490    6574
       3    6619    6558    5301
       3    6725    6667    5302
       3    6670    5317    6616
       3    6746    6670    5305
       3    6568    5306    5305
       3    6509    5307    6471
       3    6463     288     287
       3    6659    6621    6554
       3    6745    6698    5315
       3    6760    6691    5316
       3    6498    5331    5332
       3    6577    6498    5318
       3    6472    5320    5319
       3    6542    6443    5308
       3    6758    5325    6749
       3    6749    6742    6693
       3    6756    5326    6752
       3    6722    6700    5312
       3    6757    5327    6751
       3    6720    6707    5313
       3    6763    5328    6759
       3    6753    6723    5314
       3    6766    6675    6760
       3    6533    5336    5335
       3    6565    5337    5336
       3    5338    5337    5351
       3    5339    5338    5352
       3    6778    6772    5340
       3    6770    5341    6763
       3    6777    5342    6768
       3    6784    5343    5342
       3    6529    5373    5374
       3    6529    5360    6444
       3    6583    6578    5362
       3    6634    5363    5362
       3    6718    6719    5364
       3    5365    5364    5378
       3    6796    5366    6793
       3    6795    5367    6789
       3    6799    5368    5367
       3    6701    5369    5368
       3    6627    5370    5369
       3    6594    5371    6539
       3    6513    5372    6468
       3    6545    5387    5388
       3    6545    5374    6474
       3    6607    5376    5375
       3    6624    5377    5376
       3    5378    5377    5391
       3    5379    5378    5392
       3    6800    5380    6798
       3    6709    5381    5380
       3    6663    6637    5382
       3    6564    5383    5382
       3    6546    5384    5383
       3    6473    5385    5384
       3    6474    5386    5387
       3    6641    5401    5402
       3    6641    5388    5401
       3    6673    5390    5389
       3    6737    5391    5390
       3    5392    5391    5405
       3    5393    5392    6801
       3    6730    5394    5393
       3    6715    5395    6664
       3    6632    5396    5395
       3    6599    5397    5396
       3    6518    5398    5397
       3    6523    5399    6475
       3    6579    5400    6547
       3    6622    5415    5416
       3    6622    5403    5402
       3    6694    5403    6676
       3    6731    5405    5404
       3    6755    5406    6801
       3    6704    5407    5406
       3    6684    5408    5407
       3    6626    5409    5408
       3    6599    6593    5410
       3    6518    6512    5411
       3    6475    5412    5413
       3    6547    5413    5414
       3    6608    5414    5415
       3    6703    5429    5430
       3    6703    5417    6696
       3    6747    5418    5417
       3    6740    5419    5418
       3    6695    6677    5420
       3    6623    5421    5420
       3    6609    5422    5421
       3    6548    5423    5422
       3    6476    5424    5423
       3    6530    6524    5425
       3    6584    6580    5426
       3    6642    6638    5427
       3    6681    6678    5428
       3    6736    5443    5444
       3    6736    5430    5443
       3    6729    5432    5431
       3    6727    6712    5433
       3    6672    5434    5433
       3    6649    5435    6609
       3    6592    5436    6548
       3    6511    5437    6476
       3    6530    5438    5439
       3    6584    5439    5440
       3    6642    5440    5441
       3    6681    5441    5442
       3    6705    5442    5443
       3    6711    5457    5458
       3    6724    6711    5445
       3    6671    5446    5445
       3    6654    5447    5446
       3    6610    5448    5447
       3    6549    5449    5448
       3    6477    5450    5449
       3    6478    5451    5452
       3    6550    5452    5453
       3    6611    5453    5454
       3    6655    5454    5455
       3    6690    5455    5456
       3    6702    5456    5457
       3    6713    5471    5472
       3    6728    6713    5458
       3    6685    5460    5459
       3    6650    5461    5460
       3    6600    5462    5461
       3    6519    5463    5462
       3    6525    5464    6479
       3    6581    5465    6551
       3    6639    5466    6612
       3    6679    5467    6656
       3    6717    5468    6688
       3    6735    5469    6714
       3    6728    5470    5471
       3    6686    5485    5486
       3    6686    5472    5485
       3    6650    6647    5474
       3    6600    6591    5475
       3    6519    6510    5476
       3    6479    5477    5478
       3    6551    5478    5479
       3    6612    5479    5480
       3    6656    5480    5481
       3    6688    5481    6653
       3    6714    5482    5483
       3    6716    5483    5484
       3    6643    6682    5484
       3    6613    5499    5500
       3    6613    5487    5486
       3    6553    5488    5487
       3    6482    5489    5488
       3    6531    6526    5490
       3    6585    6582    5491
       3    6644    6640    5492
       3    6680    5493    6645
       3    6653    5494    5495
       3    6683    5495    5496
       3    6687    5496    5497
       3    6643    5497    5498
       3    6657    5498    5499
       3    6601    5513    5514
       3    6601    5500    5513
       3    6507    5502    6482
       3    6531    5503    5504
       3    6585    5504    5505
       3    6644    5505    5506
       3    6645    5506    5507
       3    6532    6606    5507
       3    6646    5508    5509
       3    6651    5509    5510
       3    6505    6586    5510
       3    6652    5511    5512
       3    6648    5512    6602
       3    6480    5516    5517
       3    6504    5517    6456
       3    6587    5518    5519
       3    6588    5519    5520
       3    6462    6532    5520
       3    6589    5521    5522
       3    6604    5522    5523
       3    6455    6505    5523
       3    6605    5524    5525
       3    6602    5525    5526
       3    6520    5526    5527
       3    6459    5542    5543
       3    6540    5543    5544
       3    6460    5544    5545
       3    6521    5545    5546
       3    6506    5546    5547
       3    6461    5547    6407
       3    6411    6409    6372
       3    6274    5550    6240
       3    5606     312     311
       3    5553     294       9
       3    5576     296    5553
       3    5576     297     296
       3    5554     299     298
       3    5555     299    5554
       3    5578     300    5555
       3    5578     301     300
       3    5556     303    5552
       3    5580     304    5556
       3    5580     305     304
       3    5557     307     306
       3    5558     307    5557
       3    5582     308    5558
       3    5582     309     308
       3    5737    5599    5606
       3     262     261    5529
       3    6403    6450     264
       3    6448    6404     267
       3    6405     271     270
       3    6451     274     273
       3    6406     278     277
       3    6452     281     280
       3    6453     284     283
       3     287     286    5295
       3    6380    6067     290
       3    5620    5618     292
       3    5618    5616     293
       3    6386     500    5541
       3     495     496    5538
       3     491     492    5535
       3    6428     489    6385
       3    6429     485    6384
       3     536     537    5542
       3     532     533    5255
       3     529     530    5281
       3     525     526    5320
       3    6441     521     522
       3    6395     517     518
       3    6435    6396     514
       3    6397     510     511
       3    6432    6398     507
       3    6442     503    5528
       3     382     381    5543
       3    6454     376    6407
       3    5683     373     372
       3    5619     370    5617
       3    5617      12    5564
       3    5565     366    5560
       3    5560     366     365
       3    5629    5561    5702
       3    5630    5562    5629
       3    5561     363     362
       3    5686    5702    5567
       3    5568     360    5563
       3    5569    5563     359
       3    5570    5569     358
       3    5571    5570     357
       3    5572    5571     356
       3    5573    5572     355
       3    5574    5573     354
       3    5575    5574     353
       3    5647     351     538
       3     351      11     538
       3     575      10     312
       3    5606     575     312
       3    5599    5597     573
       3    5599     573     574
       3    5601     572    5597
       3    5593     570     571
       3    5610     570    5593
       3    5610     569     570
       3    5598    5587     567
       3    5587     566     567
       3    5611     566    5587
       3    5611     565     566
       3    5607     563    5589
       3    5596     561     562
       3    5648     561    5596
       3    5648     560     561
       3    5585     558     559
       3    5595     558    5585
       3    5615     557    5595
       3    5591     555     556
       3    5649     555    5591
       3    5649     554     555
       3    5605     553    5603
       3    5584     551     552
       3    5647    5575     352
       3    5586     549     550
       3    5590     549    5586
       3    5602     548    5590
       3    5594     546     547
       3    5612     546    5594
       3    5612     545     546
       3    5588     543     544
       3    5592     543    5588
       3    5614     542    5592
       3    5646    5617    5564
       3    5564      12     369
       3    5623    5556    5552
       3    5552     303     302
       3    5559     311     310
       3    5559    5606     311
       3    5616       9     293
       3    5553     295     294
       3    5577     297    5576
       3    5553     296     295
       3    5577     298     297
       3    5640    5554    5577
       3    5638    5555    5622
       3    5555     300     299
       3    5581     305    5580
       3    5556     304     303
       3    5581     306     305
       3    5624    5558    5557
       3    5583     309    5582
       3    5558     308     307
       3    5583     310     309
       3    5583    5644    5697
       3    5566     365     364
       3    5567     362     361
       3    5566     364    5562
       3    5562     364     363
       3    5569     359     358
       3    5686    5567    5568
       3    5564     368     367
       3    5565    5564     367
       3    5631    5565    5628
       3    5565     367     366
       3    5628    5565    5560
       3    5630    5566    5562
       3    5566    5560     365
       3    5567    5561     362
       3    5568    5567     361
       3    5568     361     360
       3    5687    5686    5568
       3    5570     358     357
       3    5633    5687    5563
       3    5571     357     356
       3    5634    5633    5569
       3    5572     356     355
       3    5635    5634    5570
       3    5573     355     354
       3    5637    5572    5573
       3    5574     354     353
       3    5574    5637    5573
       3    5575     353     352
       3    5647     352     351
       3    5647     538     539
       3    5670     540     541
       3    5625    5577    5576
       3    5640    5577    5625
       3    5577    5554     298
       3    5626    5579    5578
       3    5579     301    5578
       3    5579    5552     302
       3    5642    5556    5623
       3    5627    5581    5580
       3    5643    5581    5627
       3    5581    5557     306
       3    5644    5558    5624
       3    5660    5601    5652
       3    5744    5737    5697
       3    5583    5559     310
       3    5605     552     553
       3    5725    5723    5655
       3    5609     559     560
       3    5666    5585    5650
       3    5656    5655    5590
       3    5613     550     551
       3    5598     567     568
       3    5608    5589     564
       3    5604     544     545
       3    5671    5588    5662
       3    5589     563     564
       3    5654    5589    5608
       3    5602    5594     547
       3    5590     548     549
       3    5615     556     557
       3    5649    5603     554
       3    5592     542     543
       3    5614     541     542
       3    5601     571     572
       3    5600    5598     568
       3    5602     547     548
       3    5612    5604     545
       3    5674    5595    5666
       3    5595     557     558
       3    5648    5609     560
       3    5607     562     563
       3    5597     572     573
       3    5737    5652    5597
       3    5600     568     569
       3    5672    5598    5600
       3    5606    5599     574
       3    5764     539     540
       3    5610    5600     569
       3    5672    5600    5651
       3    5737    5597    5599
       3    5601    5593     571
       3    5655    5602    5590
       3    5673    5602    5655
       3    5603     553     554
       3    5710    5603    5649
       3    5665    5604    5612
       3    5604    5588     544
       3    5658    5605    5603
       3    5605    5584     552
       3    5606     574     575
       3    5737    5606    5559
       3    5668    5589    5654
       3    5668    5607    5589
       3    5611    5608     565
       3    5669    5608    5611
       3    5650    5585    5609
       3    5609    5585     559
       3    5660    5593    5601
       3    5676    5610    5593
       3    5677    5587    5653
       3    5677    5611    5587
       3    5673    5594    5602
       3    5665    5662    5604
       3    5663    5584    5605
       3    5661    5656    5586
       3    5671    5592    5588
       3    5752    5751    5690
       3    5674    5615    5595
       3    5615    5591     556
       3    5618     293     292
       3    5678    5645    5616
       3    5799    5743    5681
       3    5617     370      12
       3    5620     292     291
       3    5680    5618    5620
       3    5681    5619    5679
       3    5619     371     370
       3    5682    5620     291
       3    5851    5798    5742
       3    5743    5683    5621
       3    5621     372     371
       3    5737    5583    5697
       3    5644    5583    5582
       3    5707    5638    5622
       3    5641    5552    5579
       3    5642    5627    5580
       3    5698    5695    5639
       3    5643    5557    5581
       3    5759    5685    5749
       3    5644    5582    5558
       3    5639    5625    5576
       3    5696    5625    5695
       3    5638    5626    5578
       3    5699    5684    5623
       3    5642    5580    5556
       3    5692    5627    5642
       3    5702    5561    5567
       3    5632    5560    5566
       3    5754    5574    5708
       3    5708    5574    5575
       3    5705    5629    5702
       3    5629    5562    5561
       3    5705    5630    5629
       3    5632    5566    5630
       3    5687    5568    5563
       3    5636    5635    5571
       3    5693    5637    5574
       3    5700    5646    5564
       3    5631    5564    5565
       3    5701    5700    5631
       3    5703    5701    5628
       3    5632    5628    5560
       3    5633    5563    5569
       3    5634    5569    5570
       3    5635    5570    5571
       3    5688    5687    5633
       3    5636    5571    5572
       3    5689    5688    5634
       3    5637    5636    5572
       3    5690    5689    5635
       3    5637    5690    5636
       3    5737    5559    5583
       3    5638    5578    5555
       3    5761    5707    5704
       3    5639    5576    5553
       3    5696    5640    5625
       3    5640    5622    5554
       3    5641    5623    5552
       3    5641    5579    5626
       3    5684    5642    5623
       3    5692    5642    5684
       3    5691    5643    5627
       3    5643    5624    5557
       3    5694    5624    5685
       3    5697    5644    5694
       3    5645    5553    5616
       3    5738    5645    5678
       3    5739    5646    5700
       3    5647     539    5764
       3    5712    5596    5659
       3    5712    5648    5596
       3    5711    5591    5664
       3    5711    5649    5591
       3    5731    5729    5666
       3    5709    5609    5648
       3    5670     541    5614
       3    5670    5614    5657
       3    5672    5653    5598
       3    5651    5600    5610
       3    5759    5694    5685
       3    5652    5601    5597
       3    5669    5654    5608
       3    5653    5587    5598
       3    5783    5726    5774
       3    5668    5659    5607
       3    5656    5590    5586
       3    5667    5665    5612
       3    5661    5586    5613
       3    5779    5725    5770
       3    5657    5614    5592
       3    5874    5823    5873
       3    5663    5605    5658
       3    5793    5712    5768
       3    5659    5596    5607
       3    5714    5660    5785
       3    5676    5593    5660
       3    5675    5613    5584
       3    5728    5725    5656
       3    5717    5715    5671
       3    5662    5588    5604
       3    5735    5663    5658
       3    5736    5663    5735
       3    5711    5710    5649
       3    5664    5591    5615
       3    5667    5612    5594
       3    5721    5665    5718
       3    5729    5674    5666
       3    5666    5595    5585
       3    5673    5667    5594
       3    5719    5667    5673
       3    5732    5654    5727
       3    5733    5668    5732
       3    5677    5669    5611
       3    5727    5669    5726
       3     540    5670    5764
       3    5715    5713    5657
       3    5671    5657    5592
       3    5720    5716    5672
       3    5720    5672    5651
       3    5723    5719    5673
       3    5719    5718    5667
       3    5730    5674    5729
       3    5674    5664    5615
       3    5734    5728    5661
       3    5675    5661    5613
       3    5722    5676    5714
       3    5676    5651    5610
       3    5724    5653    5716
       3    5726    5677    5724
       3    5764    5708    5575
       3    5738    5698    5645
       3    5678    5616    5618
       3    5679    5617    5646
       3    5741    5679    5739
       3    5742    5680    5620
       3    5740    5738    5678
       3    5947    5743    5799
       3    5681    5621    5619
       3    5901    5682    5256
       3    5682     291     290
       3    5683     372    5621
       3    6382    5683    5550
       3    5700    5564    5631
       3    5753    5739    5700
       3    5698    5553    5645
       3    5699    5623    5641
       3    5691    5685    5643
       3    5685    5624    5643
       3    5688    5633    5634
       3    5689    5634    5635
       3    5747    5686    5687
       3    5690    5635    5636
       3    5748    5747    5688
       3    5693    5690    5637
       3    5751    5748    5689
       3    5692    5691    5627
       3    5749    5691    5746
       3    5750    5684    5745
       3    5750    5746    5692
       3    5574    5754    5693
       3    5694    5644    5624
       3    5816    5761    5765
       3    5695    5625    5639
       3    5704    5640    5696
       3    5760    5694    5759
       3    5698    5639    5553
       3    5795    5698    5738
       3    5757    5641    5626
       3    5701    5631    5628
       3    5753    5700    5701
       3    5703    5628    5632
       3    5706    5630    5705
       3    5757    5745    5699
       3    5757    5626    5638
       3    5757    5699    5641
       3    5706    5632    5630
       3    5763    5703    5706
       3    5704    5622    5640
       3    5756    5696    5695
       3    5758    5705    5702
       3    5763    5706    5758
       3    5706    5703    5632
       3    5707    5757    5638
       3    5707    5622    5704
       3    5708    5764    5670
       3    5767    5731    5650
       3    5709    5650    5609
       3    5794    5710    5711
       3    5710    5658    5603
       3    5766    5664    5730
       3    5794    5711    5766
       3    5768    5659    5733
       3    5768    5712    5659
       3    5785    5652    5744
       3    5744    5652    5737
       3    5713    5670    5657
       3    5713    5708    5670
       3    5813    5759    5812
       3    5785    5660    5652
       3    5715    5657    5671
       3    5838    5755    5754
       3    5722    5720    5651
       3    5714    5676    5660
       3    5717    5671    5662
       3    5810    5752    5808
       3    5773    5724    5716
       3    5716    5653    5672
       3    5721    5662    5665
       3    5786    5717    5777
       3    5782    5718    5775
       3    5718    5665    5667
       3    5723    5673    5655
       3    5776    5719    5723
       3    5722    5651    5676
       3    5778    5773    5716
       3    5782    5721    5718
       3    5721    5717    5662
       3    5781    5778    5720
       3    5725    5655    5656
       3    5779    5723    5725
       3    5774    5724    5773
       3    5724    5677    5653
       3    5728    5656    5661
       3    5776    5775    5719
       3    5834    5774    5827
       3    5726    5669    5677
       3    5789    5727    5783
       3    5727    5654    5669
       3    5734    5661    5675
       3    5771    5728    5734
       3    5731    5666    5650
       3    5784    5729    5780
       3    5820    5730    5784
       3    5730    5664    5674
       3    5821    5731    5767
       3    5767    5650    5709
       3    5790    5732    5789
       3    5732    5668    5654
       3    5876    5821    5835
       3    5733    5659    5668
       3    5736    5675    5663
       3    5771    5770    5728
       3    5769    5658    5710
       3    5791    5736    5735
       3    5792    5736    5791
       3    5736    5734    5675
       3    5740    5678    5680
       3    5695    5795    5756
       3    5797    5739    5753
       3    5739    5679    5646
       3    5798    5740    5680
       3    5896    5795    5796
       3    5850    5799    5741
       3    5741    5681    5679
       3    5742    5620    5682
       3    5901    5851    5742
       3    5743    5550    5683
       3    5743    5621    5681
       3    5772    5708    5713
       3    5760    5697    5694
       3    5765    5696    5756
       3    5811    5702    5800
       3    5806    5750    5803
       3    5745    5684    5699
       3    5815    5756    5795
       3    5795    5695    5698
       3    5807    5746    5806
       3    5746    5691    5692
       3    5747    5687    5688
       3    5748    5688    5689
       3    5804    5800    5686
       3    5751    5689    5690
       3    5805    5804    5747
       3    5788    5714    5785
       3    5749    5685    5691
       3    5750    5692    5684
       3    5803    5745    5801
       3    5752    5690    5693
       3    5810    5751    5752
       3    5755    5693    5754
       3    5762    5701    5703
       3    5817    5797    5753
       3    5772    5754    5708
       3    5838    5808    5755
       3    5755    5752    5693
       3    5765    5761    5704
       3    5765    5704    5696
       3    5763    5762    5703
       3    5758    5706    5705
       3    5812    5749    5807
       3    5863    5807    5857
       3    5848    5760    5813
       3    5760    5744    5697
       3    5761    5757    5707
       3    5818    5762    5763
       3    5762    5753    5701
       3    5814    5758    5811
       3    5818    5763    5814
       3    5819    5756    5815
       3    5853    5757    5802
       3    5794    5769    5710
       3    5766    5711    5664
       3    5821    5780    5731
       3    5793    5709    5712
       3    5822    5733    5790
       3    5843    5793    5768
       3    5823    5791    5735
       3    5769    5735    5658
       3    5833    5770    5771
       3    5770    5725    5728
       3    5792    5734    5736
       3    5833    5824    5770
       3    5787    5713    5715
       3    5786    5715    5717
       3    5778    5716    5720
       3    5827    5774    5773
       3    5834    5829    5783
       3    5774    5726    5724
       3    5782    5777    5721
       3    5775    5718    5719
       3    5779    5776    5723
       3    5830    5776    5825
       3    5840    5777    5832
       3    5777    5717    5721
       3    5781    5720    5722
       3    5828    5827    5773
       3    5824    5779    5770
       3    5825    5779    5824
       3    5837    5784    5780
       3    5780    5729    5731
       3    5788    5722    5714
       3    5839    5828    5778
       3    5831    5775    5830
       3    5832    5782    5831
       3    5829    5789    5783
       3    5783    5727    5726
       3    5869    5820    5784
       3    5784    5730    5729
       3    5910    5857    5907
       3    5813    5863    5911
       3    5844    5786    5840
       3    5787    5715    5786
       3    5787    5772    5713
       3    5842    5788    5841
       3    5788    5781    5722
       3    5836    5789    5829
       3    5789    5732    5727
       3    5871    5790    5836
       3    5790    5733    5732
       3    5823    5735    5769
       3    5847    5846    5792
       3    5846    5833    5771
       3    5792    5771    5734
       3    5843    5768    5822
       3    5793    5767    5709
       3    5845    5766    5820
       3    5845    5794    5766
       3    5796    5738    5740
       3    5796    5795    5738
       3    5849    5796    5740
       3    5896    5868    5815
       3    5898    5817    5867
       3    5797    5741    5739
       3    5899    5849    5798
       3    5798    5680    5742
       3    5799    5681    5741
       3    5900    5799    5850
       3    5855    5800    5852
       3    5800    5702    5686
       3    5802    5757    5761
       3    5854    5801    5853
       3    5801    5745    5757
       3    5819    5765    5756
       3    5861    5853    5802
       3    5856    5803    5854
       3    5803    5750    5745
       3    5804    5686    5747
       3    5805    5747    5748
       3    5809    5748    5751
       3    5859    5805    5809
       3    5857    5806    5856
       3    5806    5746    5750
       3    5911    5863    5910
       3    5807    5749    5746
       3    5810    5809    5751
       3    5808    5752    5755
       3    5859    5858    5805
       3    5809    5805    5748
       3    5862    5860    5810
       3    5860    5859    5809
       3    5864    5811    5855
       3    5811    5758    5702
       3    5838    5754    5772
       3    5838    5772    5787
       3    5848    5785    5744
       3    5812    5759    5749
       3    5813    5760    5759
       3    5818    5817    5762
       3    5814    5763    5758
       3    5819    5816    5765
       3    5913    5861    5866
       3    5816    5802    5761
       3    5898    5797    5817
       3    5817    5753    5762
       3    5865    5814    5864
       3    5867    5818    5865
       3    5868    5866    5819
       3    5866    5861    5816
       3    5826    5823    5769
       3    5820    5766    5730
       3    5870    5837    5780
       3    5835    5767    5793
       3    5843    5835    5793
       3    5822    5768    5733
       3    5826    5769    5794
       3    5873    5823    5826
       3    5883    5824    5833
       3    5872    5825    5824
       3    5875    5825    5872
       3    5825    5776    5779
       3    5845    5826    5794
       3    5884    5826    5845
       3    5828    5773    5778
       3    5920    5877    5918
       3    5839    5778    5781
       3    5878    5877    5827
       3    5834    5783    5774
       3    5885    5829    5879
       3    5881    5830    5875
       3    5830    5775    5776
       3    5882    5831    5881
       3    5831    5782    5775
       3    5841    5785    5848
       3    5934    5882    5928
       3    5832    5777    5782
       3    5846    5771    5792
       3    5883    5872    5824
       3    5878    5827    5828
       3    5877    5834    5827
       3    5876    5870    5821
       3    5835    5821    5767
       3    5922    5836    5885
       3    5836    5790    5789
       3    5870    5780    5821
       3    5869    5837    5242
       3    5844    5787    5786
       3    5840    5786    5777
       3    5842    5781    5788
       3    5880    5878    5828
       3    5886    5832    5882
       3    5937    5862    5892
       3    5889    5841    5887
       3    5841    5788    5785
       3    5890    5842    5889
       3    5842    5839    5781
       3    5888    5822    5871
       3    5888    5843    5822
       3    5891    5840    5886
       3    5844    5838    5787
       3    5919    5820    5869
       3    5919    5845    5820
       3    5847    5792    5791
       3    5894    5883    5833
       3    5874    5791    5823
       3    5895    5894    5846
       3    5848    5744    5760
       3    5887    5813    5911
       3    5849    5740    5798
       3    5897    5868    5896
       3    5945    5900    5850
       3    5850    5741    5797
       3    5949    5851    5901
       3    5948    5899    5851
       3    5950    5902    5903
       3    5852    5800    5804
       3    5861    5802    5816
       3    5904    5853    5905
       3    5853    5801    5757
       3    5906    5854    5904
       3    5854    5803    5801
       3    5902    5855    5852
       3    5855    5811    5800
       3    5907    5856    5906
       3    5856    5806    5803
       3    5857    5807    5806
       3    5903    5902    5852
       3    5858    5804    5805
       3    5852    5804    5858
       3    5860    5809    5810
       3    5908    5903    5858
       3    5862    5810    5808
       3    5909    5908    5859
       3    5866    5816    5819
       3    5892    5808    5838
       3    5892    5862    5808
       3    5863    5812    5807
       3    5887    5848    5813
       3    5863    5813    5812
       3    5914    5864    5912
       3    5864    5814    5811
       3    5915    5865    5914
       3    5865    5818    5814
       3    5868    5819    5815
       3    5943    5867    5915
       3    5867    5817    5818
       3    5896    5815    5795
       3    5913    5905    5861
       3    5892    5838    5844
       3    5937    5909    5860
       3    5869    5784    5837
       3    5929    5845    5919
       3    5961    5942    5921
       3    5942    5837    5870
       3    5893    5843    5888
       3    5871    5822    5790
       3    5924    5917    5872
       3    5917    5875    5872
       3    5845    5929    5884
       3    5931    5874    5873
       3    5926    5895    5847
       3    5874    5847    5791
       3    5923    5881    5875
       3    5875    5830    5825
       3    5893    5835    5843
       3    5930    5876    5893
       3    5962    5918    5925
       3    5879    5834    5877
       3    5880    5828    5839
       3    5925    5878    5880
       3    5932    5879    5920
       3    5879    5829    5834
       3    5890    5839    5842
       3    5925    5918    5878
       3    5919    5869    5242
       3    5928    5881    5923
       3    5881    5831    5830
       3    5956    5954    5908
       3    5882    5832    5831
       3    5894    5833    5846
       3    5966    5963    5917
       3    5884    5873    5826
       3    5968    5885    5932
       3    5885    5836    5829
       3    5995    5886    5934
       3    5886    5840    5832
       3    5976    5910    5955
       3    5887    5841    5848
       3    5940    5871    5922
       3    5938    5930    5893
       3    5936    5889    5935
       3    5889    5842    5841
       3    5933    5925    5880
       3    5890    5880    5839
       3    5891    5844    5840
       3    5892    5844    5891
       3    5930    5921    5876
       3    5893    5876    5835
       3    5895    5846    5847
       3    5939    5924    5883
       3    5926    5847    5874
       3    5941    5939    5894
       3    5897    5796    5849
       3    5897    5896    5796
       3    5944    5849    5899
       3    5946    5897    5944
       3    5945    5898    5943
       3    5898    5850    5797
       3    5899    5798    5851
       3    5944    5899    5243
       3    5987    5947    5900
       3    6019    5987    5900
       3    5901    5742    5682
       3    5949    5901    5256
       3    6036    6016    5992
       3    5953    5904    5905
       3    5905    5853    5861
       3    5950    5912    5902
       3    5912    5855    5902
       3    5903    5852    5858
       3    5954    5950    5903
       3    5916    5866    5868
       3    5958    5913    5916
       3    5904    5854    5853
       3    5952    5906    5951
       3    5906    5856    5854
       3    5955    5907    5952
       3    5907    5857    5856
       3    5908    5858    5859
       3    5954    5903    5908
       3    5909    5859    5860
       3    5937    5860    5862
       3    5937    5892    5891
       3    6032    5934    5971
       3    5910    5863    5857
       3    5935    5887    5911
       3    5957    5912    5950
       3    5912    5864    5855
       3    5916    5913    5866
       3    5983    5916    5946
       3    5959    5914    5957
       3    5914    5865    5864
       3    5959    5915    5914
       3    5915    5867    5865
       3    5946    5868    5897
       3    5963    5923    5917
       3    5924    5872    5883
       3    5999    5960    5997
       3    5918    5877    5878
       3    5964    5919    5242
       3    5929    5927    5884
       3    5969    5920    5960
       3    5920    5879    5877
       3    5967    5921    5930
       3    5921    5870    5876
       3    5940    5938    5888
       3    5922    5871    5836
       3    5923    5875    5917
       3    5965    5928    5923
       3    5939    5883    5894
       3    6000    5998    5963
       3    5933    5880    5890
       3    5962    5960    5918
       3    5931    5873    5927
       3    5972    5941    5895
       3    5974    5927    5970
       3    5927    5873    5884
       3    5971    5934    5928
       3    5928    5882    5881
       3    5970    5929    5964
       3    5938    5893    5888
       3    5967    5961    5921
       3    5979    5926    5931
       3    5931    5926    5874
       3    6004    5932    5969
       3    5932    5885    5879
       3    5936    5890    5889
       3    5973    5962    5925
       3    6032    5992    5956
       3    5934    5886    5882
       3    5935    5889    5887
       3    5976    5911    5910
       3    5995    5956    5909
       3    5995    5891    5886
       3    5975    5973    5933
       3    5936    5933    5890
       3    5937    5891    5995
       3    5940    5888    5871
       3    5977    5967    5930
       3    5941    5894    5895
       3    5978    5966    5924
       3    5981    5922    5968
       3    5980    5977    5938
       3    5972    5895    5926
       3    5982    5978    5939
       3    5942    5242    5837
       3    5942    5870    5921
       3    5984    5945    5943
       3    5943    5898    5867
       3    5985    5944    5243
       3    5944    5897    5849
       3    6019    5945    5984
       3    5945    5850    5898
       3    5946    5916    5868
       3    5947    5550    5743
       3    5947    5799    5900
       3    6066    5988    6025
       3    5948    5243    5899
       3    5989    5949    5256
       3    6026    6025    5949
       3    5994    5959    5957
       3    6017    5951    5953
       3    5953    5905    5913
       3    5951    5904    5953
       3    5951    5906    5904
       3    5952    5907    5906
       3    5958    5953    5913
       3    6060    5958    5983
       3    5956    5908    5909
       3    5992    5954    5956
       3    6008    5975    5990
       3    5955    5910    5907
       3    5995    5909    5937
       3    6047    5971    6003
       3    5976    5935    5911
       3    6021    5957    5950
       3    5957    5914    5912
       3    5983    5958    5916
       3    6022    5983    5985
       3    6059    6020    5994
       3    6020    5915    5959
       3    5960    5920    5918
       3    6035    6033    5997
       3    5996    5242    5961
       3    5996    6002    5964
       3    5961    5242    5942
       3    5973    5925    5933
       3    6001    5997    5962
       3    5998    5965    5963
       3    5966    5917    5924
       3    5964    5929    5919
       3    5965    5923    5963
       3    6003    5971    5965
       3    5978    5924    5939
       3    6056    6000    6039
       3    5977    5930    5938
       3    6009    5967    5977
       3    5981    5980    5940
       3    5968    5922    5885
       3    6041    5969    5999
       3    5969    5932    5920
       3    6007    5970    6002
       3    5970    5927    5929
       3    5971    5928    5965
       3    5979    5931    5974
       3    6005    5982    5941
       3    5975    5933    5936
       3    6008    6001    5973
       3    6010    5974    6007
       3    5974    5931    5927
       3    6032    5995    5934
       3    5976    5975    5936
       3    5990    5975    5976
       3    5976    5936    5935
       3    5980    5938    5940
       3    6011    5977    5980
       3    5982    5939    5941
       3    6006    6000    5966
       3    6013    5972    5979
       3    5979    5972    5926
       3    5981    5940    5922
       3    6011    6009    5977
       3    6014    5968    6004
       3    6015    5981    6014
       3    6005    5941    5972
       3    6012    6006    5978
       3    5985    5946    5944
       3    5985    5983    5946
       3    6019    5984    5551
       3    6020    5943    5915
       3    6023    5243    5986
       3    6058    5985    6023
       3    5986    5243    5948
       3    6065    6064    5987
       3    6064    6024    5987
       3    5988    5948    5851
       3    6025    5988    5949
       3    6067    6027    5256
       3    6131    6099    6026
       3    5990    5976    5955
       3    6057    5996    6038
       3    6071    6034    6030
       3    6034    5993    6030
       3    5993    5953    5958
       3    5991    5952    5951
       3    6055    6052    6021
       3    6016    5954    5992
       3    5991    5990    5955
       3    5991    5955    5952
       3    6032    5956    5995
       3    6031    5992    6032
       3    5971    6031    6032
       3    6060    5983    6022
       3    6061    6020    6059
       3    6018    5961    5967
       3    6057    6002    5996
       3    5997    5960    5962
       3    6033    5999    5997
       3    6000    5963    5966
       3    6041    6004    5969
       3    5999    5969    5960
       3    6006    5966    5978
       3    6045    6006    6012
       3    6040    6035    6001
       3    6001    5962    5973
       3    6042    6002    6029
       3    6002    5970    5964
       3    6003    5965    5998
       3    6050    6004    6041
       3    6004    5968    5932
       3    6013    5979    6010
       3    6043    6012    5982
       3    6012    5978    5982
       3    6111    6045    6078
       3    6044    6007    6042
       3    6007    5974    5970
       3    6047    6031    5971
       3    6069    6008    5990
       3    6008    5973    5975
       3    6049    6009    6046
       3    6018    5967    6009
       3    6048    6010    6044
       3    6010    5979    5974
       3    6015    5980    5981
       3    6051    6011    6015
       3    6043    5982    6005
       3    6045    6039    6006
       3    6053    6013    6048
       3    6013    6005    5972
       3    6054    6014    6050
       3    6014    5981    5968
       3    6051    6046    6011
       3    6015    6011    5980
       3    6016    5950    5954
       3    6036    5992    6031
       3    6017    5991    5951
       3    6017    5953    5993
       3    6085    6081    6046
       3    6038    5961    6018
       3    6019    5551    5987
       3    6019    5900    5945
       3    6020    5984    5943
       3    6020    5959    5994
       3    6021    5994    5957
       3    6021    5950    6016
       3    6023    5985    5243
       3    6092    6058    6023
       3    6063    6023    5986
       3    6127    6092    6063
       3    6098    5550    6024
       3    6024    5550    5947
       3    6100    6066    6062
       3    6026    5949    5989
       3    6131    6026    5989
       3    6099    6062    6026
       3    6102    6027    5269
       3    6102    6068    6027
       3    6037    5991    6017
       3    6069    6040    6008
       3    6095    6029    6057
       3    6070    6042    6029
       3    6060    6030    5993
       3    6104    6071    6103
       3    6075    6041    5999
       3    6034    6017    5993
       3    6035    5997    6001
       3    6090    6035    6040
       3    6077    6055    6036
       3    6055    6016    6036
       3    6037    6028    5991
       3    6037    6017    6034
       3    6038    5996    5961
       3    6073    6018    6049
       3    6113    6091    6079
       3    6039    6000    6006
       3    6040    6001    6008
       3    6075    5999    6033
       3    6084    6041    6075
       3    6080    6042    6070
       3    6042    6007    6002
       3    6069    5990    6028
       3    6028    5990    5991
       3    6053    6005    6013
       3    6078    6045    6012
       3    6082    6048    6044
       3    6044    6010    6007
       3    6078    6012    6043
       3    6139    6113    6079
       3    6081    6049    6046
       3    6046    6009    6011
       3    6077    6036    6047
       3    6086    6053    6048
       3    6048    6013    6010
       3    6112    6038    6073
       3    6049    6018    6009
       3    6054    6051    6015
       3    6050    6014    6004
       3    6054    6015    6014
       3    6093    6051    6054
       3    6074    6061    6059
       3    6052    5994    6021
       3    6088    6053    6086
       3    6053    6043    6005
       3    6094    6050    6084
       3    6093    6085    6051
       3    6055    6021    6016
       3    6047    6036    6031
       3    6056    6003    5998
       3    6091    6039    6079
       3    6095    6070    6029
       3    6057    6029    6002
       3    6106    6030    6076
       3    6058    6022    5985
       3    6061    5984    6020
       3    6087    5994    6052
       3    6060    5993    5958
       3    6076    6060    6022
       3    6096    5551    6061
       3    6061    5551    5984
       3    6100    6063    6066
       3    6062    6025    6026
       3    6066    6063    5986
       3    6231    6156    6208
       3    6065    5987    5551
       3    6162    6130    6097
       3    6096    6061    6074
       3    6129    6065    6096
       3    6066    5986    5988
       3    6066    6025    6062
       3    6067    5256    5682
       3    6380     290     289
       3    6102    6101    6068
       3    6131    6068    5257
       3    6069    6028    6037
       3    6072    6047    6003
       3    6089    6003    6056
       3    6076    6030    6060
       3    6172    6154    6137
       3    6116    6070    6095
       3    6108    6080    6070
       3    6071    6069    6037
       3    6071    6037    6034
       3    6091    6089    6056
       3    6152    6072    6089
       3    6109    6049    6081
       3    6153    6112    6109
       3    6083    6052    6055
       3    6126    6096    6074
       3    6107    6033    6090
       3    6136    6107    6090
       3    6128    6058    6092
       3    6154    6071    6106
       3    6083    6055    6077
       3    6077    6047    6072
       3    6088    6043    6053
       3    6111    6079    6045
       3    6139    6079    6111
       3    6079    6039    6045
       3    6115    6080    6108
       3    6080    6044    6042
       3    6117    6081    6085
       3    6138    6081    6117
       3    6082    6044    6080
       3    6118    6086    6082
       3    6110    6077    6072
       3    6105    6087    6052
       3    6094    6093    6054
       3    6084    6050    6041
       3    6122    6117    6085
       3    6085    6046    6051
       3    6086    6048    6082
       3    6120    6088    6086
       3    6087    6059    5994
       3    6105    6052    6083
       3    6120    6119    6088
       3    6088    6078    6043
       3    6089    6072    6003
       3    6091    6056    6039
       3    6104    6090    6040
       3    6090    6033    6035
       3    6177    6125    6147
       3    6147    6125    6113
       3    6092    6023    6063
       3    6144    6128    6092
       3    6094    6054    6050
       3    6124    6093    6094
       3    6121    6084    6114
       3    6124    6122    6093
       3    6112    6057    6038
       3    6116    6108    6070
       3    6161    6129    6126
       3    6096    6065    5551
       3    6213    6162    5240
       3    6097    6064    6065
       3    6240    6098    6165
       3    6098    6024    6064
       3    6215    5257    6134
       3    6132    6062    6099
       3    6133    6100    6062
       3    6156    6100    6133
       3    6101    5257    6068
       3    6190    6166    6101
       3    6370    6102    5269
       3    6102    5270    6101
       3    6106    6071    6030
       3    6141    6107    6136
       3    6104    6040    6069
       3    6104    6069    6071
       3    6123    6087    6105
       3    6135    6083    6110
       3    6128    6076    6022
       3    6154    6106    6137
       3    6114    6075    6107
       3    6107    6075    6033
       3    6143    6108    6116
       3    6140    6115    6108
       3    6180    6153    6138
       3    6109    6073    6049
       3    6110    6083    6077
       3    6125    6089    6091
       3    6119    6111    6078
       3    6184    6160    6161
       3    6112    6095    6057
       3    6112    6073    6109
       3    6159    6123    6135
       3    6170    6147    6113
       3    6193    6154    6172
       3    6114    6084    6075
       3    6145    6118    6115
       3    6115    6082    6080
       3    6142    6095    6112
       3    6143    6140    6108
       3    6150    6117    6122
       3    6171    6117    6150
       3    6118    6082    6115
       3    6149    6120    6118
       3    6119    6078    6088
       3    6146    6139    6111
       3    6120    6086    6118
       3    6151    6120    6149
       3    6157    6121    6148
       3    6121    6094    6084
       3    6155    6150    6122
       3    6122    6085    6093
       3    6123    6074    6087
       3    6135    6105    6083
       3    6124    6094    6121
       3    6157    6124    6121
       3    6177    6152    6125
       3    6125    6091    6113
       3    6160    6097    6129
       3    6126    6074    6123
       3    6158    6063    6100
       3    6181    6157    6148
       3    6137    6076    6128
       3    6144    6092    6127
       3    6129    6097    6065
       3    6129    6096    6126
       3    6189    6130    6162
       3    6130    6064    6097
       3    6131    5989    6068
       3    6131    5257    6099
       3    6164    6132    6163
       3    6133    6132    5244
       3    6133    6062    6132
       3    6156    6133    5244
       3    6287    6134    6191
       3    6134    5257    6101
       3    6178    6177    6147
       3    6135    6123    6105
       3    6136    6090    6104
       3    6154    6103    6071
       3    6193    6141    6168
       3    6137    6106    6076
       3    6167    6143    6116
       3    6138    6109    6081
       3    6146    6111    6119
       3    6161    6160    6129
       3    6174    6145    6140
       3    6174    6140    6173
       3    6148    6114    6141
       3    6141    6114    6107
       3    6142    6116    6095
       3    6153    6142    6112
       3    6167    6116    6142
       3    6196    6167    6194
       3    6144    6137    6128
       3    6246    6200    6221
       3    6149    6145    5241
       3    6145    6115    6140
       3    6151    6119    6120
       3    6195    6146    6183
       3    6170    6113    6139
       3    6178    6135    6177
       3    6157    6155    6124
       3    6148    6121    6114
       3    6149    6118    6145
       3    6151    6149    5241
       3    6182    6150    5219
       3    6182    6171    6150
       3    6183    6151    5241
       3    6151    6146    6119
       3    6152    6110    6072
       3    6152    6089    6125
       3    6153    6109    6138
       3    6180    6138    6171
       3    6168    6103    6154
       3    6172    6137    6144
       3    6155    5219    6150
       3    6155    6122    6124
       3    6203    6181    6200
       3    6187    6156    5244
       3    6201    6200    6172
       3    6169    6155    6157
       3    6158    6127    6063
       3    6158    6100    6156
       3    6198    6185    6178
       3    6159    6126    6123
       3    6161    6126    6159
       3    6186    6162    6160
       3    6185    6159    6178
       3    6175    6170    6139
       3    6162    6097    6160
       3    6189    6165    6130
       3    6215    6192    6163
       3    6163    6132    6099
       3    6252    6248    6212
       3    6164    5244    6132
       3    6240    6165    5239
       3    6165    6098    6130
       3    6190    6101    5270
       3    6216    6191    6166
       3    6222    6196    6194
       3    6167    6142    6153
       3    6168    6141    6136
       3    6168    6136    6103
       3    6179    6144    6127
       3    6169    5219    6155
       3    6185    6184    6161
       3    6175    6139    6146
       3    6202    6194    6180
       3    6171    6138    6117
       3    6201    6144    6179
       3    6193    6176    6141
       3    6205    6174    6173
       3    6173    6140    6143
       3    6251    6224    6242
       3    6174    5241    6145
       3    6183    6146    6151
       3    6235    6228    6220
       3    6181    6148    6176
       3    6176    6148    6141
       3    6177    6135    6110
       3    6177    6110    6152
       3    6178    6159    6135
       3    6178    6147    6170
       3    6231    6127    6158
       3    6208    6156    6187
       3    6202    6180    6171
       3    6180    6167    6153
       3    6181    6169    6157
       3    6200    6181    6176
       3    6212    6187    6188
       3    6210    6202    6171
       3    6206    5241    6204
       3    6245    6220    6206
       3    6209    6207    6184
       3    6185    6161    6159
       3    6198    6178    6170
       3    6198    6170    6175
       3    6186    5240    6162
       3    6186    6160    6184
       3    6188    5244    6164
       3    6203    6169    6181
       3    6211    6188    6164
       3    6232    6212    6188
       3    6213    6189    6162
       3    6214    6165    6189
       3    6217    6190    5270
       3    6216    6190    5271
       3    6287    6215    6134
       3    6191    6134    6166
       3    6237    6192    6215
       3    6238    6211    6192
       3    6193    6168    6154
       3    6200    6193    6172
       3    6223    6196    6222
       3    6194    6167    6180
       3    6195    6175    6146
       3    6235    6209    6228
       3    6196    6173    6143
       3    6196    6143    6167
       3    6199    5219    6197
       3    6197    5219    6169
       3    6228    6175    6195
       3    6209    6185    6198
       3    6255    6219    6248
       3    6199    6182    5219
       3    6200    6176    6193
       3    6246    6208    6230
       3    6201    6172    6144
       3    6221    6201    6179
       3    6210    6171    6182
       3    6218    6194    6202
       3    6248    6227    6230
       3    6203    6197    6169
       3    6233    5240    6207
       3    6204    5241    6174
       3    6243    6223    6222
       3    6247    6205    6223
       3    6226    6206    6204
       3    6206    6183    5241
       3    6207    5240    6186
       3    6207    6186    6184
       3    6231    6208    6179
       3    6246    6230    6227
       3    6209    6184    6185
       3    6228    6198    6175
       3    6225    6182    6199
       3    6225    6210    6182
       3    6211    6164    6192
       3    6253    6232    6211
       3    6227    6219    6197
       3    6232    6188    6211
       3    6229    6213    5240
       3    6236    6213    6229
       3    6236    6234    6214
       3    6214    5239    6165
       3    6215    6163    5257
       3    6287    6237    6215
       3    6260    6239    5271
       3    6301    6191    6216
       3    6217    5271    6190
       3    6241    6217    5270
       3    6250    6243    6222
       3    6218    6202    6210
       3    6219    6199    6197
       3    6227    6197    6203
       3    6220    6195    6183
       3    6220    6183    6206
       3    6221    6200    6201
       3    6221    6179    6208
       3    6222    6194    6218
       3    6262    6261    6243
       3    6223    6205    6173
       3    6223    6173    6196
       3    6242    6224    6205
       3    6224    6204    6174
       3    6255    6199    6219
       3    6263    6225    6255
       3    6251    6204    6224
       3    6266    6249    6245
       3    6246    6203    6200
       3    6230    6208    6187
       3    6228    6209    6198
       3    6228    6195    6220
       3    6233    6229    5240
       3    6275    6272    6234
       3    6230    6187    6212
       3    6248    6230    6212
       3    6231    6179    6127
       3    6231    6158    6156
       3    6253    6211    6238
       3    6267    6255    6252
       3    6264    6258    6233
       3    6249    6207    6235
       3    6289    6272    5222
       3    6234    5239    6214
       3    6245    6235    6220
       3    6235    6207    6209
       3    6236    6214    6189
       3    6254    6236    6229
       3    6287    6270    6237
       3    6257    6238    6237
       3    6253    6238    5245
       3    6238    6192    6237
       3    6326    6315    6325
       3    6315    6288    6301
       3    6274    6259    5238
       3    6240    5550    6098
       3    6418    6370    6400
       3    6369    6241    5283
       3    6261    6242    6247
       3    6309    6242    6261
       3    6250    6222    6218
       3    6261    6247    6243
       3    6265    6250    6218
       3    6244    6218    6210
       3    6245    6206    6226
       3    6266    6264    6249
       3    6246    6227    6203
       3    6246    6221    6208
       3    6247    6242    6205
       3    6247    6223    6243
       3    6248    6219    6227
       3    6252    6212    6232
       3    6249    6233    6207
       3    6249    6235    6245
       3    6265    6218    6244
       3    6293    6250    6265
       3    6285    6280    6258
       3    6251    6226    6204
       3    6267    6263    6255
       3    6268    6232    6253
       3    6269    6268    6253
       3    6268    6267    6252
       3    6273    6229    6258
       3    6291    6275    6283
       3    6255    6225    6199
       3    6255    6248    6252
       3    6289    6277    6256
       3    6256    5239    6234
       3    6286    6271    6257
       3    6257    5245    6238
       3    6280    6273    6258
       3    6258    6229    6233
       3    6259    5239    6256
       3    6409    5238    6372
       3    6349    6260    6292
       3    6260    5272    6239
       3    6282    6261    6262
       3    6295    6261    6282
       3    6262    6243    6250
       3    6282    6262    5220
       3    6278    6265    6263
       3    6263    6244    6225
       3    6264    6233    6249
       3    6279    6264    6266
       3    6265    6244    6263
       3    6293    6262    6250
       3    6266    6226    6251
       3    6279    6266    6251
       3    6268    6252    6232
       3    6281    6267    6268
       3    6269    6253    5245
       3    6281    6268    6269
       3    6284    5245    6271
       3    6281    6278    6267
       3    6288    6270    5258
       3    6300    6299    6271
       3    6299    6284    6271
       3    6271    5245    6257
       3    6275    6234    6254
       3    6324    6289    5222
       3    6283    6273    6280
       3    6273    6254    6229
       3    6382    6274    5549
       3    6274    6240    6259
       3    6283    6275    6254
       3    6275    5222    6272
       3    6276    5271    6217
       3    6381    6292    5284
       3    6376    6277    6289
       3    6277    5238    6259
       3    6296    6293    6278
       3    6278    6263    6267
       3    6309    6295    6279
       3    6302    6285    6297
       3    6283    6280    5221
       3    6285    6258    6264
       3    6298    6269    6284
       3    6296    6278    6281
       3    6294    6282    5220
       3    6307    6297    6295
       3    6283    6254    6273
       3    6303    6283    5221
       3    6317    6299    5246
       3    6284    6269    5245
       3    6285    6264    6279
       3    6297    6279    6295
       3    6288    6286    6270
       3    6316    6300    6305
       3    6287    6191    5258
       3    6287    5258    6270
       3    6301    6288    5258
       3    6315    6305    6288
       3    6376    6290    6277
       3    6289    6256    6272
       3    6422    6306    6371
       3    6290    5238    6277
       3    6303    6291    6283
       3    6291    5222    6275
       3    6349    6292    5285
       3    6292    6260    6276
       3    6293    5220    6262
       3    6293    6265    6278
       3    6307    6295    6282
       3    6296    6294    5220
       3    6309    6279    6251
       3    6307    6282    6294
       3    6296    5220    6293
       3    6308    6269    6298
       3    6302    6280    6285
       3    6297    6285    6279
       3    6310    6284    6299
       3    6318    6296    6308
       3    6300    6271    6286
       3    6320    6311    6312
       3    6305    6300    6286
       3    6300    5246    6299
       3    6301    5258    6191
       3    6325    6301    6239
       3    6307    6302    6297
       3    6302    5221    6280
       3    6311    6303    5221
       3    6321    6304    6314
       3    6323    6313    6304
       3    6304    5222    6291
       3    6305    6286    6288
       3    6328    6305    5259
       3    6372    6306    5237
       3    6306    5238    6290
       3    6320    6310    6317
       3    6312    6302    6307
       3    6308    6296    6281
       3    6308    6281    6269
       3    6309    6251    6242
       3    6309    6261    6295
       3    6320    6319    6318
       3    6310    6298    6284
       3    6312    6311    5221
       3    6322    6314    6311
       3    6312    5221    6302
       3    6320    6318    6310
       3    6313    5222    6304
       3    6332    6313    6323
       3    6322    6321    6314
       3    6314    6304    6291
       3    6325    6315    6301
       3    6315    5259    6305
       3    6340    6328    6330
       3    6316    5246    6300
       3    6317    6310    6299
       3    6336    6329    6317
       3    6318    6294    6296
       3    6318    6298    6310
       3    6319    6312    6307
       3    6319    6307    6294
       3    6329    6320    6317
       3    6320    6312    6319
       3    6337    6331    6327
       3    6323    6321    5247
       3    6329    6322    6311
       3    6331    5246    6327
       3    6323    6304    6321
       3    6332    6323    5247
       3    6376    6324    5223
       3    6324    5222    6313
       3    6325    6239    5272
       3    6326    6325    5272
       3    6339    6334    6326
       3    6326    5259    6315
       3    6331    5247    6321
       3    6327    5246    6316
       3    6328    6316    6305
       3    6330    6328    5259
       3    6329    6311    6320
       3    6336    6317    5246
       3    6334    5259    6326
       3    6340    6337    6327
       3    6331    6321    6322
       3    6336    6331    6322
       3    6338    6332    5247
       3    6359    6354    5223
       3    6333    5223    6324
       3    6333    6313    6332
       3    6339    6326    5272
       3    6341    6334    6339
       3    6343    6335    5260
       3    6335    6330    6334
       3    6336    5246    6331
       3    6336    6322    6329
       3    6342    6337    6340
       3    6337    5247    6331
       3    6347    6338    6345
       3    6368    6338    6347
       3    6348    6339    5272
       3    6344    6341    6339
       3    6343    6330    6335
       3    6343    6342    6340
       3    6357    6341    5273
       3    6341    6335    6334
       3    6342    5247    6337
       3    6345    6342    5260
       3    6343    6340    6330
       3    6343    5260    6342
       3    6348    6346    6344
       3    6344    5273    6341
       3    6423    6361    5261
       3    6412    6347    6345
       3    6349    6346    6348
       3    6350    6346    5286
       3    6412    6351    6347
       3    6368    6347    5248
       3    6348    6344    6339
       3    6349    6348    5272
       3    6349    5272    6260
       3    6377    6349    5285
       3    6356    5274    6353
       3    6350    5273    6346
       3    6365    6355    6351
       3    6412    6365    6351
       3    6360    6352    5249
       3    6352    5248    6351
       3    6358    6357    6353
       3    6353    5273    6350
       3    6359    5223    6333
       3    6354    5248    6352
       3    6374    6355    5262
       3    6355    5249    6352
       3    6426    6350    5286
       3    6367    6356    5287
       3    6361    6357    6358
       3    6375    6357    6361
       3    6362    6358    5274
       3    6362    6361    6358
       3    6359    6333    6332
       3    6359    5248    6354
       3    6363    6360    5249
       3    6383    5224    6371
       3    6423    5261    6412
       3    6423    6375    6361
       3    6366    6364    5275
       3    6362    5261    6361
       3    6420    6379    6363
       3    6363    5224    6360
       3    6367    5274    6356
       3    6425    6366    5275
       3    6378    5261    6362
       3    6365    5262    6355
       3    6378    5262    6365
       3    6366    6362    6364
       3    6427    6367    5287
       3    6427    6415    6367
       3    6368    5248    6359
       3    6368    6332    6338
       3    6414    6369    5283
       3    6369    5284    6276
       3    6370    5270    6102
       3    6400    6370    5269
       3    6371    6290    5223
       3    6422    6371    5224
       3    6576    6372    5237
       3    6576    6411    6372
       3    6374    6373    5249
       3    6421    6373    6374
       3    6374    5249    6355
       3    6424    6421    6374
       3    6375    5260    6335
       3    6375    6341    6357
       3    6376    6289    6324
       3    6376    5223    6290
       3    6419    6377    5285
       3    6377    5286    6346
       3    6378    6365    5261
       3    6378    6362    6366
       3    6560    6488    5225
       3    6379    5224    6363
       3    6400    6380     289
       3    6380    5269    6067
       3    6417    6416    6381
       3    6381    5285    6292
       3    6382    5550    6274
       3    6413    6382    5549
       3    6383    6354    6360
       3    6383    6360    5224
       3    6429    6384    5530
       3    6483    6384     486
       3    6428    6385    5533
       3    6484    6385     490
       3    6386    5541    5540
       3    6386    5540     499
       3    6387    5536     493
       3    6485    6387     494
       3    6388    5539     497
       3    6388     498    5540
       3    6431    6389     504
       3    6466    6389    5515
       3    6390     520     521
       3    6468    6390    5359
       3    6391     524     525
       3    6472    6391    5320
       3    6392     527     528
       3    6471    6392    5294
       3    6393     532    5255
       3    6481    6393    5255
       3    6394     534     535
       3    6470    6394    5231
       3    6437    6395     518
       3    6473    6395    5385
       3    6476    6396    5424
       3    6396    5437     513
       3    6434    6397     511
       3    6477    6397    5450
       3    6482    6398    5489
       3    6398    5502     506
       3    6467    6399    5347
       3    6399    5334     282
       3    6400    5269    6380
       3    6400     289     288
       3    6469    6401    5321
       3    6443    6401    5308
       3    6402     275     274
       3    6475    6402    5412
       3    6403     263    5516
       3    6480    6403    5516
       3    6479    6404    5477
       3    6404    5464     268
       3    6447    6405     270
       3    6478    6405    5451
       3    6445    6406     277
       3    6474    6406    5386
       3    6454    6407    5547
       3    6486    6407     375
       3    6408    5544     380
       3    6487    6408     379
       3    6409    5549    6274
       3    6409    6274    5238
       3    6410    5543    5542
       3    6410    5542     383
       3    6486    6411    5548
       3    6411    5549    6409
       3    6423    6412    6345
       3    6412    5261    6365
       3    6486    5549    6411
       3    6413     374     373
       3    6414    5284    6369
       3    6414    5283    5296
       3    6501    6415    5288
       3    6415    5275    6364
       3    6497    6419    6416
       3    6416    5285    6381
       3    6417    5284    6414
       3    6502    6417    5297
       3    6494    6418    5282
       3    6418    5283    6241
       3    6575    6419    6497
       3    6419    5286    6377
       3    6561    6492    5250
       3    6420    5225    6379
       3    6496    6421    5263
       3    6421    5250    6373
       3    6422    5237    6306
       3    6422    5224    6379
       3    6423    6345    5260
       3    6423    5260    6375
       3    6425    6424    5262
       3    6424    5263    6421
       3    6425    5262    6366
       3    6495    6425    5275
       3    6489    6426    5286
       3    6493    6426    6489
       3    6490    6427    5287
       3    6427    5288    6415
       3    6428    5533    5532
       3    6428    5532     488
       3    6429    5530    5529
       3    6429    5529     484
       3    6543    6430    5333
       3    6430    5346     523
       3    6431     505    5502
       3    6431    5502    5515
       3    6432     508    5476
       3    6510    6432    5476
       3    6433     509     510
       3    6433    5463    5476
       3    6434     512    5437
       3    6434    5437    5450
       3    6435     515    5411
       3    6512    6435    5411
       3    6436     516     517
       3    6518    6436    5398
       3    6437     519    5372
       3    6437    5372    5385
       3    6438     526     527
       3    6438    5307    5320
       3    6439     530     531
       3    6517    6439    5268
       3    6440     533     534
       3    6440    5230    5255
       3    6441    5359    6390
       3    6441     522    5346
       3    6442    5528    5541
       3    6442    5541     502
       3    6443    5295     286
       3    6443     286     285
       3    6444     279     278
       3    6529    6444    5373
       3    6445     276    5399
       3    6445    5399    5386
       3    6446     272     271
       3    6446    5438    5425
       3    6447     269    5464
       3    6447    5464    5451
       3    6448     266    5490
       3    6526    6448    5490
       3    6527    6449    5529
       3    6449    5516     263
       3    6450    5503    5490
       3    6450    5490     265
       3    6451     273    5425
       3    6524    6451    5425
       3    6528    6452    5360
       3    6452    5347    6399
       3    6453    5321    6401
       3    6453     283    5334
       3    6454    5547    5546
       3    6454    5546     377
       3    6455    5523    5536
       3    6455    5537    5524
       3    6456    5517    5530
       3    6456    5531    5518
       3    6457    5527    5540
       3    6457    5541    5528
       3    6458    5526    5539
       3    6458    5540    5527
       3    6459    5231    5542
       3    6540    6459    5543
       3    6460    5233    5544
       3    6460    5545    5234
       3    6461    5236    5547
       3    6576    6461    5548
       3    6462    5520    5533
       3    6462    5534    5521
       3    6463    5282     288
       3    6463     287    5295
       3    6464     529    5281
       3    6514    6464    5281
       3    6465     536    5542
       3    6465    5542    5231
       3    6520    6466    5514
       3    6466    5527    6457
       3    6533    6467    5348
       3    6467    5335    5334
       3    6468    5372    6390
       3    6539    6468    5358
       3    6469    5309    5308
       3    6469    5308    6401
       3    6470    5230    6394
       3    6541    6470    5232
       3    6471    5307    6392
       3    6544    6471    5293
       3    6472    5333    6391
       3    6498    6472    5319
       3    6473    5398    6395
       3    6546    6473    5384
       3    6474    5373    6406
       3    6545    6474    5387
       3    6475    5399    6402
       3    6547    6475    5413
       3    6476    5437    6396
       3    6548    6476    5423
       3    6477    5463    6397
       3    6549    6477    5449
       3    6478    5438    6405
       3    6550    6478    5452
       3    6479    5464    6404
       3    6551    6479    5478
       3    6480    5503    6403
       3    6504    6480    5517
       3    6481    5268    6393
       3    6552    6481    5254
       3    6482    5502    6398
       3    6553    6482    5488
       3    6483    5531    6384
       3    6483     487    5532
       3    6484    5535    5534
       3    6484    5534    6385
       3    6485    5538    5537
       3    6485    5537    6387
       3    6486    5548    6407
       3    6486     374    6413
       3    6487    5545    6408
       3    6487     378    5546
       3    6488    6379    5225
       3    6500    6488    5236
       3    6489    5286    6419
       3    6559    6493    6489
       3    6574    5287    6493
       3    6558    6490    5301
       3    6570    6491    5276
       3    6491    5263    6424
       3    6706    6492    5251
       3    6492    5225    6420
       3    6574    6493    5300
       3    6493    5287    6426
       3    6494    5282    5295
       3    6494    5296    5283
       3    6501    5275    6415
       3    6495    5276    6491
       3    6614    6561    6496
       3    6496    5250    6421
       3    6554    6497    5298
       3    6575    6497    6554
       3    6498    5332    6472
       3    6498    5319    5318
       3    6692    6499    5323
       3    6499    5309    6469
       3    6500    5236    6461
       3    6500    5237    6422
       3    6562    6501    5288
       3    6562    6555    6501
       3    6620    5297    6571
       3    6502    5298    6416
       3    6538    6503    5519
       3    6503    5533    5520
       3    6504    5504    6480
       3    6587    6504    5518
       3    6505    5510    5523
       3    6505    5524    5511
       3    6521    6506    5235
       3    6506    5547    5236
       3    6507    5501    5514
       3    6507    5515    5502
       3    6508    5345    5358
       3    6508    5359    6441
       3    6568    6509    5306
       3    6509    5320    5307
       3    6510    5475    5488
       3    6510    5489    6432
       3    6511    5436    5449
       3    6511    5450    5437
       3    6512    5410    5423
       3    6512    5424    6435
       3    6513    5371    5384
       3    6513    5385    5372
       3    6514    5280    5293
       3    6514    5294    6464
       3    6515    5229    5254
       3    6515    5255    5230
       3    6541    6516    5228
       3    6516    5234    5227
       3    6517    5281    6439
       3    6598    6517    5267
       3    6518    5411    6436
       3    6599    6518    5397
       3    6519    5476    5463
       3    6600    6519    5462
       3    6520    5513    5526
       3    6520    5527    6466
       3    6521    5234    5545
       3    6521    5546    6506
       3    6573    6522    5335
       3    6522    5322    5321
       3    6523    5400    5387
       3    6523    5386    5399
       3    6524    5426    5413
       3    6524    5412    6451
       3    6525    5465    5452
       3    6525    5451    5464
       3    6526    5491    5478
       3    6526    5477    6448
       3    6527    5516    6449
       3    6527    5529    5530
       3    6528    5361    5348
       3    6528    5347    6452
       3    6578    6529    5374
       3    6529    5361    6528
       3    6530    5425    5438
       3    6584    6530    5439
       3    6531    5490    5503
       3    6585    6531    5504
       3    6532    5507    5520
       3    6532    5521    5508
       3    6533    5335    6467
       3    6565    6533    5349
       3    6535    6534    5525
       3    6534    5538    5539
       3    6535    5524    5537
       3    6535    5538    6534
       3    6537    6536    5522
       3    6536    5535    5536
       3    6537    5521    5534
       3    6537    5535    6536
       3    6538    5518    5531
       3    6538    5532    6503
       3    6539    5371    6468
       3    6566    6539    5357
       3    6540    5544    5233
       3    6540    5232    6459
       3    6541    5229    6470
       3    6541    5233    6516
       3    6542    5295    6443
       3    6571    6542    5309
       3    6572    6543    5332
       3    6543    5345    6508
       3    6544    5306    6471
       3    6567    6544    5292
       3    6607    6545    5388
       3    6545    5375    5374
       3    6546    5397    6473
       3    6564    6546    5383
       3    6547    5400    6475
       3    6608    6547    5414
       3    6548    5436    6476
       3    6609    6548    5422
       3    6549    5462    6477
       3    6610    6549    5448
       3    6550    5439    6478
       3    6611    6550    5453
       3    6551    5465    6479
       3    6612    6551    5479
       3    6552    5267    6481
       3    6563    6552    5253
       3    6553    5501    6482
       3    6613    6553    5487
       3    6556    6554    5298
       3    6621    6615    5299
       3    6625    6555    5289
       3    6555    5276    6495
       3    6668    6556    6557
       3    6659    6556    5311
       3    6557    6502    5297
       3    6668    6557    5310
       3    6631    6619    5302
       3    6558    5288    6490
       3    6621    5299    6554
       3    6559    5300    6493
       3    6665    6635    6560
       3    6560    5236    6488
       3    6561    5251    6492
       3    6561    5250    6496
       3    6562    5288    6558
       3    6562    5289    6555
       3    6743    6563    5252
       3    6563    5266    6552
       3    6637    6564    5382
       3    6564    5396    6546
       3    6565    5349    5350
       3    6565    5350    5337
       3    6566    5370    6539
       3    6566    5357    5356
       3    6779    6567    5291
       3    6567    5305    6544
       3    6568    5305    5318
       3    6568    5319    6509
       3    6571    6569    5296
       3    6569    5297    6417
       3    6666    6570    5276
       3    6710    6570    6666
       3    6571    5296    6542
       3    6732    6620    6571
       3    6572    5331    5344
       3    6572    5345    6543
       3    6573    5336    5323
       3    6573    5322    6522
       3    6618    6574    5300
       3    6574    6490    5287
       3    6575    5299    6489
       3    6575    6489    6419
       3    6576    5237    6461
       3    6576    5548    6411
       3    6670    6616    5318
       3    6577    5331    6498
       3    6578    5361    6529
       3    6634    6578    5375
       3    6579    5401    5388
       3    6579    5387    5400
       3    6580    5427    5414
       3    6580    5413    5426
       3    6581    5466    5453
       3    6581    5452    5465
       3    6582    5492    5479
       3    6582    5478    5491
       3    6628    6583    5362
       3    6583    5348    5361
       3    6584    5426    6530
       3    6642    6584    5440
       3    6585    5491    6531
       3    6644    6585    5505
       3    6586    5497    5510
       3    6586    5511    5498
       3    6587    5505    6504
       3    6588    6587    5519
       3    6588    5506    6587
       3    6588    5520    5507
       3    6589    5508    5521
       3    6604    6589    5522
       3    6590    5358    5345
       3    6590    5345    5344
       3    6591    5474    5487
       3    6591    5488    5475
       3    6592    5435    5448
       3    6592    5449    5436
       3    6626    6593    5409
       3    6593    5423    5410
       3    6627    6594    5370
       3    6594    5384    5371
       3    6630    6595    5279
       3    6595    5293    5280
       3    6596    5228    5253
       3    6596    5254    5229
       3    6597    5253    5228
       3    6636    6597    5227
       3    6598    5280    6517
       3    6633    6598    5266
       3    6599    5410    6518
       3    6632    6599    5396
       3    6600    5475    6519
       3    6650    6600    5461
       3    6601    5514    5501
       3    6601    5501    6553
       3    6605    6602    5512
       3    6602    5526    5513
       3    6603    5227    5234
       3    6635    6603    5235
       3    6604    5509    6589
       3    6604    5523    5510
       3    6605    5511    5524
       3    6605    5525    6602
       3    6606    5494    5507
       3    6606    5508    5495
       3    6607    5375    6545
       3    6624    6607    5389
       3    6608    5401    6547
       3    6622    6608    5415
       3    6609    5435    6548
       3    6623    6609    5421
       3    6610    5461    6549
       3    6654    6610    5447
       3    6611    5440    6550
       3    6655    6611    5454
       3    6612    5466    6551
       3    6656    6612    5480
       3    6613    5500    6553
       3    6657    6613    5486
       3    6699    6658    5264
       3    6614    5251    6561
       3    6700    6615    6621
       3    6700    6674    6615
       3    6675    6616    5317
       3    6675    6617    6616
       3    6662    6617    5330
       3    6617    6577    6616
       3    6674    6661    5300
       3    6618    5301    6490
       3    6708    5301    6661
       3    6667    6631    5302
       3    6620    5310    6557
       3    6620    6557    5297
       3    6659    6554    6556
       3    6700    6621    5312
       3    6676    6622    5416
       3    6622    5402    6608
       3    6677    6623    5420
       3    6623    5434    6609
       3    6624    5390    5377
       3    6624    5376    6607
       3    6767    6625    5289
       3    6771    6625    6767
       3    6626    5408    5421
       3    6626    5422    6593
       3    6627    5369    5382
       3    6627    5383    6594
       3    6628    5363    5350
       3    6628    5349    6583
       3    6629    5343    5356
       3    6629    5357    6590
       3    6783    6781    6630
       3    6630    5292    6595
       3    6631    5289    6562
       3    6631    6562    6558
       3    6632    5395    5408
       3    6632    5409    6599
       3    6791    6754    5265
       3    6633    5279    6598
       3    6634    5376    5363
       3    6634    5362    6578
       3    6635    5226    6603
       3    6635    5235    6560
       3    6706    6636    5226
       3    6636    5252    6597
       3    6701    6663    5382
       3    6637    5395    6564
       3    6638    5428    5415
       3    6638    5414    5427
       3    6639    5467    5454
       3    6639    5453    5466
       3    6680    6640    5493
       3    6640    5479    5492
       3    6673    6641    5402
       3    6641    5389    5388
       3    6642    5427    6584
       3    6681    6642    5441
       3    6643    5484    5497
       3    6657    6643    5498
       3    6644    5492    6585
       3    6645    6644    5506
       3    6645    5493    6644
       3    6645    5507    5494
       3    6646    5495    5508
       3    6651    6646    5509
       3    6647    5473    5486
       3    6647    5487    5474
       3    6648    5513    5500
       3    6652    6648    5499
       3    6672    6649    5434
       3    6649    5448    5435
       3    6650    5474    6600
       3    6685    6650    5460
       3    6651    5496    6646
       3    6651    5510    5497
       3    6652    5498    5511
       3    6652    5512    6648
       3    6653    5481    5494
       3    6653    5495    5482
       3    6654    5460    6610
       3    6671    6654    5446
       3    6655    5441    6611
       3    6690    6655    5455
       3    6656    5467    6612
       3    6688    6656    5481
       3    6657    5499    6613
       3    6657    5485    6643
       3    6743    6658    5265
       3    6743    6734    6658
       3    6693    6659    5311
       3    6659    5312    6621
       3    6723    6660    6708
       3    6698    6660    5315
       3    6707    6661    6674
       3    6708    6661    5314
       3    6662    5331    6617
       3    6662    5330    5343
       3    6709    6663    5381
       3    6709    6664    6663
       3    6715    6664    5394
       3    6664    6637    6663
       3    6665    5226    6635
       3    6665    5225    6492
       3    6666    5276    6625
       3    6710    6666    5277
       3    6762    5303    6750
       3    6667    5289    6631
       3    6668    5311    6556
       3    6692    6668    5310
       3    6669    5264    6614
       3    6669    5263    6570
       3    6670    5318    5305
       3    6726    6670    5304
       3    6711    6671    5445
       3    6671    5459    6654
       3    6672    5433    5446
       3    6672    5447    6649
       3    6673    5403    5390
       3    6673    5389    6641
       3    6707    6674    5313
       3    6674    5300    6615
       3    6760    6675    6691
       3    6675    5330    6617
       3    6703    6696    5416
       3    6676    5403    6622
       3    6704    6695    5420
       3    6677    5433    6623
       3    6703    6678    5429
       3    6678    5415    5428
       3    6679    5468    5455
       3    6679    5454    5467
       3    6680    5494    5481
       3    6680    5480    6640
       3    6681    5428    6642
       3    6705    6681    5442
       3    6682    5471    5484
       3    6682    5485    5472
       3    6683    5482    5495
       3    6687    6683    5496
       3    6704    6684    5407
       3    6684    5421    5408
       3    6685    5473    6650
       3    6713    6685    5459
       3    6686    5486    5473
       3    6686    5473    6685
       3    6687    5483    6683
       3    6687    5497    5484
       3    6688    5468    6656
       3    6714    6688    5482
       3    6689    5337    5324
       3    6689    5324    5323
       3    6690    5442    6655
       3    6702    6690    5456
       3    6726    6691    5317
       3    6726    6721    6691
       3    6692    5310    6499
       3    6692    5323    5324
       3    6697    6693    5311
       3    6742    6722    5312
       3    6731    6694    6696
       3    6737    6694    5404
       3    6740    6695    5419
       3    6727    6695    5432
       3    6696    6676    5416
       3    6731    6696    5417
       3    6697    5324    6693
       3    6697    5311    6668
       3    6745    6721    6725
       3    6698    5302    6660
       3    6710    6699    5264
       3    6792    6791    6699
       3    6742    5312    6693
       3    6700    5313    6674
       3    6701    5382    5369
       3    6701    5368    5381
       3    6733    6702    5457
       3    6702    5443    6690
       3    6703    5430    5417
       3    6703    5416    6678
       3    6704    5406    5419
       3    6704    5420    6684
       3    6705    5443    5430
       3    6705    5429    6681
       3    6706    5226    6665
       3    6734    6706    5251
       3    6741    5313    6700
       3    6707    5314    6661
       3    6723    6708    5314
       3    6708    6660    5301
       3    6709    5380    5393
       3    6709    5394    6664
       3    6792    6710    5277
       3    6710    5264    6669
       3    6729    6724    5445
       3    6711    5458    6671
       3    6729    6712    5432
       3    6712    5446    5433
       3    6713    5472    6685
       3    6713    5459    5458
       3    6714    5469    6688
       3    6716    6714    5483
       3    6730    6715    5394
       3    6715    5408    5395
       3    6716    5470    6714
       3    6716    5484    5471
       3    6717    5469    5456
       3    6717    5455    5468
       3    6718    5364    5351
       3    6718    5351    5350
       3    6719    5363    5376
       3    6719    5377    5364
       3    6751    6720    5326
       3    6751    6744    6720
       3    6725    6721    5303
       3    6721    5316    6691
       3    6752    6741    6722
       3    6752    6722    5325
       3    6753    5314    6744
       3    6723    5315    6660
       3    6733    6724    5444
       3    6724    5457    6711
       3    6762    6725    5303
       3    6725    5302    6698
       3    6726    5317    6670
       3    6739    6726    5304
       3    6727    5432    6712
       3    6727    5433    6677
       3    6728    5457    5470
       3    6728    5471    6713
       3    6729    5431    5444
       3    6729    5445    6712
       3    6730    5393    5406
       3    6730    5407    6715
       3    6731    5418    5405
       3    6731    5404    6694
       3    6732    5309    6499
       3    6732    5310    6620
       3    6733    5457    6724
       3    6733    5444    6702
       3    6734    5252    6636
       3    6734    5251    6614
       3    6735    5470    5457
       3    6735    5456    5469
       3    6736    5444    5431
       3    6736    5431    6747
       3    6737    5390    5403
       3    6737    5404    5391
       3    6759    6738    6753
       3    6761    6748    5315
       3    6779    6750    6739
       3    6739    5303    6721
       3    6740    5418    5431
       3    6740    5432    6695
       3    6741    5326    6720
       3    6741    6720    5313
       3    6749    6693    5324
       3    6742    5325    6722
       3    6743    5252    6734
       3    6754    6743    5265
       3    6753    6744    5327
       3    6744    5314    6707
       3    6748    6745    5315
       3    6745    5316    6721
       3    6746    5304    6670
       3    6746    5305    6567
       3    6747    5417    5430
       3    6747    5431    5418
       3    6761    5315    6738
       3    6764    6760    6748
       3    6758    5324    5337
       3    6749    5325    6742
       3    6774    6750    5291
       3    6762    6750    5290
       3    6757    5326    5339
       3    6751    5327    6744
       3    6758    6756    5325
       3    6752    5326    6741
       3    6759    6753    5327
       3    6753    6738    6723
       3    6754    5266    6563
       3    6791    6788    6633
       3    6755    5405    5418
       3    6755    5419    5406
       3    6756    5338    5339
       3    6756    5339    5326
       3    6757    5339    5340
       3    6765    6757    5340
       3    6758    5337    5338
       3    6758    5338    6756
       3    6765    5327    6757
       3    6759    5328    6738
       3    6760    5316    6748
       3    6766    6760    5329
       3    6761    6738    5328
       3    6764    6761    5328
       3    6767    6762    5290
       3    6762    6667    6725
       3    6770    6763    6765
       3    6776    6768    6764
       3    6776    5328    6763
       3    6764    5329    6760
       3    6765    6759    5327
       3    6770    6765    5340
       3    6769    5329    6768
       3    6766    5330    6675
       3    6767    5289    6667
       3    6771    6767    5290
       3    6777    6768    6776
       3    6769    6768    5342
       3    6769    5342    5343
       3    6769    5343    5330
       3    6772    6770    5340
       3    6775    6770    6772
       3    6774    5290    6750
       3    6771    5277    6666
       3    6778    5340    5339
       3    6787    6775    6772
       3    6783    6773    6774
       3    6792    5278    6791
       3    6774    6771    5290
       3    6783    6774    5291
       3    6785    5355    6780
       3    6775    5341    6770
       3    6776    6763    5341
       3    6777    6776    5341
       3    6777    5341    6775
       3    6785    6777    6775
       3    6782    6778    5352
       3    6778    5353    6772
       3    6779    5304    6746
       3    6779    5291    6750
       3    6784    5355    5356
       3    6780    5342    6777
       3    6781    5291    6567
       3    6781    5292    6630
       3    6793    6790    6782
       3    6782    5353    6778
       3    6783    5278    6773
       3    6783    5291    6781
       3    6784    5342    6780
       3    6784    5356    5343
       3    6785    6775    5354
       3    6786    6785    5354
       3    6786    5368    5355
       3    6786    5355    6785
       3    6790    6789    6787
       3    6787    5354    6775
       3    6788    5278    6783
       3    6788    5279    6633
       3    6789    5367    6786
       3    6789    5354    6787
       3    6790    5353    6782
       3    6795    6790    5366
       3    6791    5265    6699
       3    6791    5278    6788
       3    6792    6699    6710
       3    6792    5277    6773
       3    6796    6793    5365
       3    6793    5366    6790
       3    6794    5365    6793
       3    6794    5352    5351
       3    6797    6795    5366
       3    6798    6795    6797
       3    6796    5365    5378
       3    6797    6796    5379
       3    6797    5366    6796
       3    6800    6798    6797
       3    6799    5380    5381
       3    6798    5367    6795
       3    6799    5367    6798
       3    6799    5381    5368
       3    6800    5379    5392
       3    6800    5393    5380
       3    5392    5405    6801
       3    5406    5393    6801

CELL_TYPES 13208
       5
       5
       5
       5
       5
       5
       5
       5
       5
       5
       5
       5
       5
       5
       5
       5
       5
       5
       5
       5
       5
       5
       5
       5
       5
       5
       5
       5
       5
       5
       5
       5
       5
       5
       5
       5
       5
       5
       5
       5
       5
       5
       5
       5
       5
       5
       5
       5
       5
       5
       5
       5
       5
       5
       5
       5
       5
       5
       5
       5
       5
       5
       5
       5
       5
       5
       5
       5
       5
       5
       5
       5
       5
       5
       5
       5
       5
       5
       5
       5
       5
       5
       5
       5
       5
       5
       5
       5
       5
       5
       5
       5
       5
       5
       5
       5
       5
       5
       5
       5
       5
       5
       5
       5
       5
       5
       5
       5
       5
       5
       5
       5
       5
       5
       5
       5
       5
       5
       5
       5
       5
       5
       5
       5
       5
       5
       5
       5
       5
       5
       5
       5
       5
       5
       5
       5
       5
       5
       5
       5
       5
       5
       5
       5
       5
       5
       5
       5
       5
       5
       5
       5
       5
       5
       5
       5
       5
       5
       5
       5
       5
       5
       5
       5
       5
       5
       5
       5
       5
       5
       5
       5
       5
       5
       5
       5
       5
       5
       5
       5
       5
       5
       5
       5
       5
       5
       5
       5
       5
       5
       5
       5
       5
       5
       5
       5
       5
       5
       5
       5
       5
       5
       5
       5
       5
       5
       5
       5
       5
       5
       5
       5
       5
       5
       5
       5
       5
       5
       5
       5
       5
       5
       5
       5
       5
       5
       5
       5
       5
       5
       5
       5
       5
       5
       5
       5
       5
       5
       5
       5
       5
       5
       5
       5
       5
       5
       5
       5
       5
       5
       5
       5
       5
       5
       5
       5
       5
       5
       5
       5
       5
       5
       5
       5
       5
       5
       5
       5
       5
       5
       5
       5
       5
       5
       5
       5
       5
       5
       5
       5
       5
       5
       5
       5
       5
       5
       5
       5
       5
       5
       5
       5
       5
       5
       5
       5
       5
       5
       5
       5
       5
       5
       5
       5
       5
       5
       5
       5
       5
       5
       5
       5
       5
       5
       5
       5
       5
       5
       5
       5
       5
       5
       5
       5
       5
       5
       5
       5
       5
       5
       5
       5
       5
       5
       5
       5
       5
       5
       5
       5
       5
       5
       5
       5
       5
       5
       5
       5
       5
       5
       5
       5
       5
       5
       5
       5
       5
       5
       5
       5
       5
       5
       5
       5
       5
       5
       5
       5
       5
       5
       5
       5
       5
       5
       5
       5
       5
       5
       5
       5
       5
       5
       5
       5
       5
       5
       5
       5
       5
       5
       5
       5
       5
       5
       5
       5
       5
       5
       5
       5
       5
       5
       5
       5
       5
       5
       5
       5
       5
       5
       5
       5
       5
       5
       5
       5
       5
       5
       5
       5
       5
       5
       5
       5
       5
       5
       5
       5
       5
       5
       5
       5
       5
       5
       5
       5
       5
       5
       5
       5
       5
       5
       5
       5
       5
       5
       5
       5
       5
       5
       5
       5
       5
       5
       5
       5
       5
       5
       5
       5
       5
       5
       5
       5
       5
       5
       5
       5
       5
       5
       5
       5
       5
       5
       5
       5
       5
       5
       5
       5
       5
       5
       5
       5
       5
       5
       5
       5
       5
       5
       5
       5
       5
       5
       5
       5
       5
       5
       5
       5
       5
       5
       5
       5
       5
       5
       5
       5
       5
       5
       5
       5
       5
       5
       5
       5
       5
       5
       5
       5
       5
       5
       5
       5
       5
       5
       5
       5
       5
       5
       5
       5
       5
       5
       5
       5
       5
       5
       5
       5
       5
       5
       5
       5
       5
       5
       5
       5
       5
       5
       5
       5
       5
       5
       5
       5
       5
       5
       5
       5
       5
       5
       5
       5
       5
       5
       5
       5
       5
       5
       5
       5
       5
       5
       5
       5
       5
       5
       5
       5
       5
       5
       5
       5
       5
       5
       5
       5
       5
       5
       5
       5
       5
       5
       5
       5
       5
       5
       5
       5
       5
       5
       5
       5
       5
       5
       5
       5
       5
       5
       5
       5
       5
       5
       5
       5
       5
       5
       5
       5
       5
       5
       5
       5
       5
       5
       5
       5
       5
       5
       5
       5
       5
       5
       5
       5
       5
       5
       5
       5
       5
       5
       5
       5
       5
       5
       5
       5
       5
       5
       5
       5
       5
       5
       5
       5
       5
       5
       5
       5
       5
       5
       5
       5
       5
       5
       5
       5
       5
       5
       5
       5
       5
       5
       5
       5
       5
       5
       5
       5
       5
       5
       5
       5
       5
       5
       5
       5
       5
       5
       5
       5
       5
       5
       5
       5
       5
       5
       5
       5
       5
       5
       5
       5
       5
       5
       5
       5
       5
       5
       5
       5
       5
       5
       5
       5
       5
       5
       5
       5
       5
       5
       5
       5
       5
       5
       5
       5
       5
       5
       5
       5
       5
       5
       5
       5
       5
       5
       5
       5
       5
       5
       5
       5
       5
       5
       5
       5
       5
       5
       5
       5
       5
       5
       5
       5
       5
       5
       5
       5
       5
       5
       5
       5
       5
       5
       5
       5
       5
       5
       5
       5
       5
       5
       5
       5
       5
       5
       5
       5
       5
       5
       5
       5
       5
       5
       5
       5
       5
       5
       5
       5
       5
       5
       5
       5
       5
       5
       5
       5
       5
       5
       5
       5
       5
       5
       5
       5
       5
       5
       5
       5
       5
       5
       5
       5
       5
       5
       5
       5
       5
       5
       5
       5
       5
       5
       5
       5
       5
       5
       5
       5
       5
       5
       5
       5
       5
       5
       5
       5
       5
       5
       5
       5
       5
       5
       5
       5
       5
       5
       5
       5
       5
       5
       5
       5
       5
       5
       5
       5
       5
       5
       5
       5
       5
       5
       5
       5
       5
       5
       5
       5
       5
       5
       5
       5
       5
       5
       5
       5
       5
       5
       5
       5
       5
       5
       5
       5
       5
       5
       5
       5
       5
       5
       5
       5
       5
       5
       5
       5
       5
       5
       5
       5
       5
       5
       5
       5
       5
       5
       5
       5
       5
       5
       5
       5
       5
       5
       5
       5
       5
       5
       5
       5
       5
       5
       5
       5
       5
       5
       5
       5
       5
       5
       5
       5
       5
       5
       5
       5
       5
       5
       5
       5
       5
       5
       5
       5
       5
       5
       5
       5
       5
       5
       5
       5
       5
       5
       5
       5
       5
       5
       5
       5
       5
       5
       5
       5
       5
       5
       5
       5
       5
       5
       5
       5
       5
       5
       5
       5
       5
       5
       5
       5
       5
       5
       5
       5
       5
       5
       5
       5
       5
       5
       5
       5
       5
       5
       5
       5
       5
       5
       5
       5
       5
       5
       5
       5
       5
       5
       5
       5
       5
       5
       5
       5
       5
       5
       5
       5
       5
       5
       5
       5
       5
       5
       5
       5
       5
       5
       5
       5
       5
       5
       5
       5
       5
       5
       5
       5
       5
       5
       5
       5
       5
       5
       5
       5
       5
       5
       5
       5
       5
       5
       5
       5
       5
       5
       5
       5
       5
       5
       5
       5
       5
       5
       5
       5
       5
       5
       5
       5
       5
       5
       5
       5
       5
       5
       5
       5
       5
       5
       5
       5
       5
       5
       5
       5
       5
       5
       5
       5
       5
       5
       5
       5
       5
       5
       5
       5
       5
       5
       5
       5
       5
       5
       5
       5
       5
       5
       5
       5
       5
       5
       5
       5
       5
       5
       5
       5
       5
       5
       5
       5
       5
       5
       5
       5
       5
       5
       5
       5
       5
       5
       5
       5
       5
       5
       5
       5
       5
       5
       5
       5
       5
       5
       5
       5
       5
       5
       5
       5
       5
       5
       5
       5
       5
       5
       5
       5
       5
       5
       5
       5
       5
       5
       5
       5
       5
       5
       5
       5
       5
       5
       5
       5
       5
       5
       5
       5
       5
       5
       5
       5
       5
       5
       5
       5
       5
       5
       5
       5
       5
       5
       5
       5
       5
       5
       5
       5
       5
       5
       5
       5
       5
       5
       5
       5
       5
       5
       5
       5
       5
       5
       5
       5
       5
       5
       5
       5
       5
       5
       5
       5
       5
       5
       5
       5
       5
       5
       5
       5
       5
       5
       5
       5
       5
       5
       5
       5
       5
       5
       5
       5
       5
       5
       5
       5
       5
       5
       5
       5
       5
       5
       5
       5
       5
       5
       5
       5
       5
       5
       5
       5
       5
       5
       5
       5
       5
       5
       5
       5
       5
       5
       5
       5
       5
       5
       5
       5
       5
       5
       5
       5
       5
       5
       5
       5
       5
       5
       5
       5
       5
       5
       5
       5
       5
       5
       5
       5
       5
       5
       5
       5
       5
       5
       5
       5
       5
       5
       5
       5
       5
       5
       5
       5
       5
       5
       5
       5
       5
       5
       5
       5
       5
       5
       5
       5
       5
       5
       5
       5
       5
       5
       5
       5
       5
       5
       5
       5
       5
       5
       5
       5
       5
       5
       5
       5
       5
       5
       5
       5
       5
       5
       5
       5
       5
       5
       5
       5
       5
       5
       5
       5
       5
       5
       5
       5
       5
       5
       5
       5
       5
       5
       5
       5
       5
       5
       5
       5
       5
       5
       5
       5
       5
       5
       5
       5
       5
       5
       5
       5
       5
       5
       5
       5
       5
       5
       5
       5
       5
       5
       5
       5
       5
       5
       5
       5
       5
       5
       5
       5
       5
       5
       5
       5
       5
       5
       5
       5
       5
       5
       5
       5
       5
       5
       5
       5
       5
       5
       5
       5
       5
       5
       5
       5
       5
       5
       5
       5
       5
       5
       5
       5
       5
       5
       5
       5
       5
       5
       5
       5
       5
       5
       5
       5
       5
       5
       5
       5
       5
       5
       5
       5
       5
       5
       5
       5
       5
       5
       5
       5
       5
       5
       5
       5
       5
       5
       5
       5
       5
       5
       5
       5
       5
       5
       5
       5
       5
       5
       5
       5
       5
       5
       5
       5
       5
       5
       5
       5
       5
       5
       5
       5
       5
       5
       5
       5
       5
       5
       5
       5
       5
       5
       5
       5
       5
       5
       5
       5
       5
       5
       5
       5
       5
       5
       5
       5
       5
       5
       5
       5
       5
       5
       5
       5
       5
       5
       5
       5
       5
       5
       5
       5
       5
       5
       5
       5
       5
       5
       5
       5
       5
       5
       5
       5
       5
       5
       5
       5
       5
       5
       5
       5
       5
       5
       5
       5
       5
       5
       5
       5
       5
       5
       5
       5
       5
       5
       5
       5
       5
       5
       5
       5
       5
       5
       5
       5
       5
       5
       5
       5
       5
       5
       5
       5
       5
       5
       5
       5
       5
       5
       5
       5
       5
       5
       5
       5
       5
       5
       5
       5
       5
       5
       5
       5
       5
       5
       5
       5
       5
       5
       5
       5
       5
       5
       5
       5
       5
       5
       5
       5
       5
       5
       5
       5
       5
       5
       5
       5
       5
       5
       5
       5
       5
       5
       5
       5
       5
       5
       5
       5
       5
       5
       5
       5
       5
       5
       5
       5
       5
       5
       5
       5
       5
       5
       5
       5
       5
       5
       5
       5
       5
       5
       5
       5
       5
       5
       5
       5
       5
       5
       5
       5
       5
       5
       5
       5
       5
       5
       5
       5
       5
       5
       5
       5
       5
       5
       5
       5
       5
       5
       5
       5
       5
       5
       5
       5
       5
       5
       5
       5
       5
       5
       5
       5
       5
       5
       5
       5
       5
       5
       5
       5
       5
       5
       5
       5
       5
       5
       5
       5
       5
       5
       5
       5
       5
       5
       5
       5
       5
       5
       5
       5
       5
       5
       5
       5
       5
       5
       5
       5
       5
       5
       5
       5
       5
       5
       5
       5
       5
       5
       5
       5
       5
       5
       5
       5
       5
       5
       5
       5
       5
       5
       5
       5
       5
       5
       5
       5
       5
       5
       5
       5
       5
       5
       5
       5
       5
       5
       5
       5
       5
       5
       5
       5
       5
       5
       5
       5
       5
       5
       5
       5
       5
       5
       5
       5
       5
       5
       5
       5
       5
       5
       5
       5
       5
       5
       5
       5
       5
       5
       5
       5
       5
       5
       5
       5
       5
       5
       5
       5
       5
       5
       5
       5
       5
       5
       5
       5
       5
       5
       5
       5
       5
       5
       5
       5
       5
       5
       5
       5
       5
       5
       5
       5
       5
       5
       5
       5
       5
       5
       5
       5
       5
       5
       5
       5
       5
       5
       5
       5
       5
       5
       5
       5
       5
       5
       5
       5
       5
       5
       5
       5
       5
       5
       5
       5
       5
       5
       5
       5
       5
       5
       5
       5
       5
       5
       5
       5
       5
       5
       5
       5
       5
       5
       5
       5
       5
       5
       5
       5
       5
       5
       5
       5
       5
       5
       5
       5
       5
       5
       5
       5
       5
       5
       5
       5
       5
       5
       5
       5
       5
       5
       5
       5
       5
       5
       5
       5
       5
       5
       5
       5
       5
       5
       5
       5
       5
       5
       5
       5
       5
       5
       5
       5
       5
       5
       5
       5
       5
       5
       5
       5
       5
       5
       5
       5
       5
       5
       5
       5
       5
       5
       5
       5
       5
       5
       5
       5
       5
       5
       5
       5
       5
       5
       5
       5
       5
       5
       5
       5
       5
       5
       5
       5
       5
       5
       5
       5
       5
       5
       5
       5
       5
       5
       5
       5
       5
       5
       5
       5
       5
       5
       5
       5
       5
       5
       5
       5
       5
       5
       5
       5
       5
       5
       5
       5
       5
       5
       5
       5
       5
       5
       5
       5
       5
       5
       5
       5
       5
       5
       5
       5
       5
       5
       5
       5
       5
       5
       5
       5
       5
       5
       5
       5
       5
       5
       5
       5
       5
       5
       5
       5
       5
       5
       5
       5
       5
       5
       5
       5
       5
       5
       5
       5
       5
       5
       5
       5
       5
       5
       5
       5
       5
       5
       5
       5
       5
       5
       5
       5
       5
       5
       5
       5
       5
       5
       5
       5
       5
       5
       5
       5
       5
       5
       5
       5
       5
       5
       5
       5
       5
       5
       5
       5
       5
       5
       5
       5
       5
       5
       5
       5
       5
       5
       5
       5
       5
       5
       5
       5
       5
       5
       5
       5
       5
       5
       5
       5
       5
       5
       5
       5
       5
       5
       5
       5
       5
       5
       5
       5
       5
       5
       5
       5
       5
       5
       5
       5
       5
       5
       5
       5
       5
       5
       5
       5
       5
       5
       5
       5
       5
       5
       5
       5
       5
       5
       5
       5
       5
       5
       5
       5
       5
       5
       5
       5
       5
       5
       5
       5
       5
       5
       5
       5
       5
       5
       5
       5
       5
       5
       5
       5
       5
       5
       5
       5
       5
       5
       5
       5
       5
       5
       5
       5
       5
       5
       5
       5
       5
       5
       5
       5
       5
       5
       5
       5
       5
       5
       5
       5
       5
       5
       5
       5
       5
       5
       5
       5
       5
       5
       5
       5
       5
       5
       5
       5
       5
       5
       5
       5
       5
       5
       5
       5
       5
       5
       5
       5
       5
       5
       5
       5
       5
       5
       5
       5
       5
       5
       5
       5
       5
       5
       5
       5
       5
       5
       5
       5
       5
       5
       5
       5
       5
       5
       5
       5
       5
       5
       5
       5
       5
       5
       5
       5
       5
       5
       5
       5
       5
       5
       5
       5
       5
       5
       5
       5
       5
       5
       5
       5
       5
       5
       5
       5
       5
       5
       5
       5
       5
       5
       5
       5
       5
       5
       5
       5
       5
       5
       5
       5
       5
       5
       5
       5
       5
       5
       5
       5
       5
       5
       5
       5
       5
       5
       5
       5
       5
       5
       5
       5
       5
       5
       5
       5
       5
       5
       5
       5
       5
       5
       5
       5
       5
       5
       5
       5
       5
       5
       5
       5
       5
       5
       5
       5
       5
       5
       5
       5
       5
       5
       5
       5
       5
       5
       5
       5
       5
       5
       5
       5
       5
       5
       5
       5
       5
       5
       5
       5
       5
       5
       5
       5
       5
       5
       5
       5
       5
       5
       5
       5
       5
       5
       5
       5
       5
       5
       5
       5
       5
       5
       5
       5
       5
       5
       5
       5
       5
       5
       5
       5
       5
       5
       5
       5
       5
       5
       5
       5
       5
       5
       5
       5
       5
       5
       5
       5
       5
       5
       5
       5
       5
       5
       5
       5
       5
       5
       5
       5
       5
       5
       5
       5
       5
       5
       5
       5
       5
       5
       5
       5
       5
       5
       5
       5
       5
       5
       5
       5
       5
       5
       5
       5
       5
       5
       5
       5
       5
       5
       5
       5
       5
       5
       5
       5
       5
       5
       5
       5
       5
       5
       5
       5
       5
       5
       5
       5
       5
       5
       5
       5
       5
       5
       5
       5
       5
       5
       5
       5
       5
       5
       5
       5
       5
       5
       5
       5
       5
       5
       5
       5
       5
       5
       5
       5
       5
       5
       5
       5
       5
       5
       5
       5
       5
       5
       5
       5
       5
       5
       5
       5
       5
       5
       5
       5
       5
       5
       5
       5
       5
       5
       5
       5
       5
       5
       5
       5
       5
       5
       5
       5
       5
       5
       5
       5
       5
       5
       5
       5
       5
       5
       5
       5
       5
       5
       5
       5
       5
       5
       5
       5
       5
       5
       5
       5
       5
       5
       5
       5
       5
       5
       5
       5
       5
       5
       5
       5
       5
       5
       5
       5
       5
       5
       5
       5
       5
       5
       5
       5
       5
       5
       5
       5
       5
       5
       5
       5
       5
       5
       5
       5
       5
       5
       5
       5
       5
       5
       5
       5
       5
       5
       5
       5
       5
       5
       5
       5
       5
       5
       5
       5
       5
       5
       5
       5
       5
       5
       5
       5
       5
       5
       5
       5
       5
       5
       5
       5
       5
       5
       5
       5
       5
       5
       5
       5
       5
       5
       5
       5
       5
       5
       5
       5
       5
       5
       5
       5
       5
       5
       5
       5
       5
       5
       5
       5
       5
       5
       5
       5
       5
       5
       5
       5
       5
       5
       5
       5
       5
       5
       5
       5
       5
       5
       5
       5
       5
       5
       5
       5
       5
       5
       5
       5
       5
       5
       5
       5
       5
       5
       5
       5
       5
       5
       5
       5
       5
       5
       5
       5
       5
       5
       5
       5
       5
       5
       5
       5
       5
       5
       5
       5
       5
       5
       5
       5
       5
       5
       5
       5
       5
       5
       5
       5
       5
       5
       5
       5
       5
       5
       5
       5
       5
       5
       5
       5
       5
       5
       5
       5
       5
       5
       5
       5
       5
       5
       5
       5
       5
       5
       5
       5
       5
       5
       5
       5
       5
       5
       5
       5
       5
       5
       5
       5
       5
       5
       5
       5
       5
       5
       5
       5
       5
       5
       5
       5
       5
       5
       5
       5
       5
       5
       5
       5
       5
       5
       5
       5
       5
       5
       5
       5
       5
       5
       5
       5
       5
       5
       5
       5
       5
       5
       5
       5
       5
       5
       5
       5
       5
       5
       5
       5
       5
       5
       5
       5
       5
       5
       5
       5
       5
       5
       5
       5
       5
       5
       5
       5
       5
       5
       5
       5
       5
       5
       5
       5
       5
       5
       5
       5
       5
       5
       5
       5
       5
       5
       5
       5
       5
       5
       5
       5
       5
       5
       5
       5
       5
       5
       5
       5
       5
       5
       5
       5
       5
       5
       5
       5
       5
       5
       5
       5
       5
       5
       5
       5
       5
       5
       5
       5
       5
       5
       5
       5
       5
       5
       5
       5
       5
       5
       5
       5
       5
       5
       5
       5
       5
       5
       5
       5
       5
       5
       5
       5
       5
       5
       5
       5
       5
       5
       5
       5
       5
       5
       5
       5
       5
       5
       5
       5
       5
       5
       5
       5
       5
       5
       5
       5
       5
       5
       5
       5
       5
       5
       5
       5
       5
       5
       5
       5
       5
       5
       5
       5
       5
       5
       5
       5
       5
       5
       5
       5
       5
       5
       5
       5
       5
       5
       5
       5
       5
       5
       5
       5
       5
       5
       5
       5
       5
       5
       5
       5
       5
       5
       5
       5
       5
       5
       5
       5
       5
       5
       5
       5
       5
       5
       5
       5
       5
       5
       5
       5
       5
       5
       5
       5
       5
       5
       5
       5
       5
       5
       5
       5
       5
       5
       5
       5
       5
       5
       5
       5
       5
       5
       5
       5
       5
       5
       5
       5
       5
       5
       5
       5
       5
       5
       5
       5
       5
       5
       5
       5
       5
       5
       5
       5
       5
       5
       5
       5
       5
       5
       5
       5
       5
       5
       5
       5
       5
       5
       5
       5
       5
       5
       5
       5
       5
       5
       5
       5
       5
       5
       5
       5
       5
       5
       5
       5
       5
       5
       5
       5
       5
       5
       5
       5
       5
       5
       5
       5
       5
       5
       5
       5
       5
       5
       5
       5
       5
       5
       5
       5
       5
       5
       5
       5
       5
       5
       5
       5
       5
       5
       5
       5
       5
       5
       5
       5
       5
       5
       5
       5
       5
       5
       5
       5
       5
       5
       5
       5
       5
       5
       5
       5
       5
       5
       5
       5
       5
       5
       5
       5
       5
       5
       5
       5
       5
       5
       5
       5
       5
       5
       5
       5
       5
       5
       5
       5
       5
       5
       5
       5
       5
       5
       5
       5
       5
       5
       5
       5
       5
       5
       5
       5
       5
       5
       5
       5
       5
       5
       5
       5
       5
       5
       5
       5
       5
       5
       5
       5
       5
       5
       5
       5
       5
       5
       5
       5
       5
       5
       5
       5
       5
       5
       5
       5
       5
       5
       5
       5
       5
       5
       5
       5
       5
       5
       5
       5
       5
       5
       5
       5
       5
       5
       5
       5
       5
       5
       5
       5
       5
       5
       5
       5
       5
       5
       5
       5
       5
       5
       5
       5
       5
       5
       5
       5
       5
       5
       5
       5
       5
       5
       5
       5
       5
       5
       5
       5
       5
       5
       5
       5
       5
       5
       5
       5
       5
       5
       5
       5
       5
       5
       5
       5
       5
       5
       5
       5
       5
       5
       5
       5
       5
       5
       5
       5
       5
       5
       5
       5
       5
       5
       5
       5
       5
       5
       5
       5
       5
       5
       5
       5
       5
       5
       5
       5
       5
       5
       5
       5
       5
       5
       5
       5
       5
       5
       5
       5
       5
       5
       5
       5
       5
       5
       5
       5
       5
       5
       5
       5
       5
       5
       5
       5
       5
       5
       5
       5
       5
       5
       5
       5
       5
       5
       5
       5
       5
       5
       5
       5
       5
       5
       5
       5
       5
       5
       5
       5
       5
       5
       5
       5
       5
       5
       5
       5
       5
       5
       5
       5
       5
       5
       5
       5
       5
       5
       5
       5
       5
       5
       5
       5
       5
       5
       5
       5
       5
       5
       5
       5
       5
       5
       5
       5
       5
       5
       5
       5
       5
       5
       5
       5
       5
       5
       5
       5
       5
       5
       5
       5
       5
       5
       5
       5
       5
       5
       5
       5
       5
       5
       5
       5
       5
       5
       5
       5
       5
       5
       5
       5
       5
       5
       5
       5
       5
       5
       5
       5
       5
       5
       5
       5
       5
       5
       5
       5
       5
       5
       5
       5
       5
       5
       5
       5
       5
       5
       5
       5
       5
       5
       5
       5
       5
       5
       5
       5
       5
       5
       5
       5
       5
       5
       5
       5
       5
       5
       5
       5
       5
       5
       5
       5
       5
       5
       5
       5
       5
       5
       5
       5
       5
       5
       5
       5
       5
       5
       5
       5
       5
       5
       5
       5
       5
       5
       5
       5
       5
       5
       5
       5
       5
       5
       5
       5
       5
       5
       5
       5
       5
       5
       5
       5
       5
       5
       5
       5
       5
       5
       5
       5
       5
       5
       5
       5
       5
       5
       5
       5
       5
       5
       5
       5
       5
       5
       5
       5
       5
       5
       5
       5
       5
       5
       5
       5
       5
       5
       5
       5
       5
       5
       5
       5
       5
       5
       5
       5
       5
       5
       5
       5
       5
       5
       5
       5
       5
       5
       5
       5
       5
       5
       5
       5
       5
       5
       5
       5
       5
       5
       5
       5
       5
       5
       5
       5
       5
       5
       5
       5
       5
       5
       5
       5
       5
       5
       5
       5
       5
       5
       5
       5
       5
       5
       5
       5
       5
       5
       5
       5
       5
       5
       5
       5
       5
       5
       5
       5
       5
       5
       5
       5
       5
       5
       5
       5
       5
       5
       5
       5
       5
       5
       5
       5
       5
       5
       5
       5
       5
       5
       5
       5
       5
       5
       5
       5
       5
       5
       5
       5
       5
       5
       5
       5
       5
       5
       5
       5
       5
       5
       5
       5
       5
       5
       5
       5
       5
       5
       5
       5
       5
       5
       5
       5
       5
       5
       5
       5
       5
       5
       5
       5
       5
       5
       5
       5
       5
       5
       5
       5
       5
       5
       5
       5
       5
       5
       5
       5
       5
       5
       5
       5
       5
       5
       5
       5
       5
       5
       5
       5
       5
       5
       5
       5
       5
       5
       5
       5
       5
       5
       5
       5
       5
       5
       5
       5
       5
       5
       5
       5
       5
       5
       5
       5
       5
       5
       5
       5
       5
       5
       5
       5
       5
       5
       5
       5
       5
       5
       5
       5
       5
       5
       5
       5
       5
       5
       5
       5
       5
       5
       5
       5
       5
       5
       5
       5
       5
       5
       5
       5
       5
       5
       5
       5
       5
       5
       5
       5
       5
       5
       5
       5
       5
       5
       5
       5
       5
       5
       5
       5
       5
       5
       5
       5
       5
       5
       5
       5
       5
       5
       5
       5
       5
       5
       5
       5
       5
       5
       5
       5
       5
       5
       5
       5
       5
       5
       5
       5
       5
       5
       5
       5
       5
       5
       5
       5
       5
       5
       5
       5
       5
       5
       5
       5
       5
       5
       5
       5
       5
       5
       5
       5
       5
       5
       5
       5
       5
       5
       5
       5
       5
       5
       5
       5
       5
       5
       5
       5
       5
       5
       5
       5
       5
       5
       5
       5
       5
       5
       5
       5
       5
       5
       5
       5
       5
       5
       5
       5
       5
       5
       5
       5
       5
       5
       5
       5
       5
       5
       5
       5
       5
       5
       5
       5
       5
       5
       5
       5
       5
       5
       5
       5
       5
       5
       5
       5
       5
       5
       5
       5
       5
       5
       5
       5
       5
       5
       5
       5
       5
       5
       5
       5
       5
       5
       5
       5
       5
       5
       5
       5
       5
       5
       5
       5
       5
       5
       5
       5
       5
       5
       5
       5
       5
       5
       5
       5
       5
       5
       5
       5
       5
       5
       5
       5
       5
       5
       5
       5
       5
       5
       5
       5
       5
       5
       5
       5
       5
       5
       5
       5
       5
       5
       5
       5
       5
       5
       5
       5
       5
       5
       5
       5
       5
       5
       5
       5
       5
       5
       5
       5
       5
       5
       5
       5
       5
       5
       5
       5
       5
       5
       5
       5
       5
       5
       5
       5
       5
       5
       5
       5
       5
       5
       5
       5
       5
       5
       5
       5
       5
       5
       5
       5
       5
       5
       5
       5
       5
       5
       5
       5
       5
       5
       5
       5
       5
       5
       5
       5
       5
       5
       5
       5
       5
       5
       5
       5
       5
       5
       5
       5
       5
       5
       5
       5
       5
       5
       5
       5
       5
       5
       5
       5
       5
       5
       5
       5
       5
       5
       5
       5
       5
       5
       5
       5
       5
       5
       5
       5
       5
       5
       5
       5
       5
       5
       5
       5
       5
       5
       5
       5
       5
       5
       5
       5
       5
       5
       5
       5
       5
       5
       5
       5
       5
       5
       5
       5
       5
       5
       5
       5
       5
       5
       5
       5
       5
       5
       5
       5
       5
       5
       5
       5
       5
       5
       5
       5
       5
       5
       5
       5
       5
       5
       5
       5
       5
       5
       5
       5
       5
       5
       5
       5
       5
       5
       5
       5
       5
       5
       5
       5
       5
       5
       5
       5
       5
       5
       5
       5
       5
       5
       5
       5
       5
       5
       5
       5
       5
       5
       5
       5
       5
       5
       5
       5
       5
       5
       5
       5
       5
       5
       5
       5
       5
       5
       5
       5
       5
       5
       5
       5
       5
       5
       5
       5
       5
       5
       5
       5
       5
       5
       5
       5
       5
       5
       5
       5
       5
       5
       5
       5
       5
       5
       5
       5
       5
       5
       5
       5
       5
       5
       5
       5
       5
       5
       5
       5
       5
       5
       5
       5
       5
       5
       5
       5
       5
       5
       5
       5
       5
       5
       5
       5
       5
       5
       5
       5
       5
       5
       5
       5
       5
       5
       5
       5
       5
       5
       5
       5
       5
       5
       5
       5
       5
       5
       5
       5
       5
       5
       5
       5
       5
       5
       5
       5
       5
       5
       5
       5
       5
       5
       5
       5
       5
       5
       5
       5
       5
       5
       5
       5
       5
       5
       5
       5
       5
       5
       5
       5
       5
       5
       5
       5
       5
       5
       5
       5
       5
       5
       5
       5
       5
       5
       5
       5
       5
       5
       5
       5
       5
       5
       5
       5
       5
       5
       5
       5
       5
       5
       5
       5
       5
       5
       5
       5
       5
       5
       5
       5
       5
       5
       5
       5
       5
       5
       5
       5
       5
       5
       5
       5
       5
       5
       5
       5
       5
       5
       5
       5
       5
       5
       5
       5
       5
       5
       5
       5
       5
       5
       5
       5
       5
       5
       5
       5
       5
       5
       5
       5
       5
       5
       5
       5
       5
       5
       5
       5
       5
       5
       5
       5
       5
       5
       5
       5
       5
       5
       5
       5
       5
       5
       5
       5
       5
       5
       5
       5
       5
       5
       5
       5
       5
       5
       5
       5
       5
       5
       5
       5
       5
       5
       5
       5
       5
       5
       5
       5
       5
       5
       5
       5
       5
       5
       5
       5
       5
       5
       5
       5
       5
       5
       5
       5
       5
       5
       5
       5
       5
       5
       5
       5
       5
       5
       5
       5
       5
       5
       5
       5
       5
       5
       5
       5
       5
       5
       5
       5
       5
       5
       5
       5
       5
       5
       5
       5
       5
       5
       5
       5
       5
       5
       5
       5
       5
       5
       5
       5
       5
       5
       5
       5
       5
       5
       5
       5
       5
       5
       5
       5
       5
       5
       5
       5
       5
       5
       5
       5
       5
       5
       5
       5
       5
       5
       5
       5
       5
       5
       5
       5
       5
       5
       5
       5
       5
       5
       5
       5
       5
       5
       5
       5
       5
       5
       5
       5
       5
       5
       5
       5
       5
       5
       5
       5
       5
       5
       5
       5
       5
       5
       5
       5
       5
       5
       5
       5
       5
       5
       5
       5
       5
       5
       5
       5
       5
       5
       5
       5
       5
       5
       5
       5
       5
       5
       5
       5
       5
       5
       5
       5
       5
       5
       5
       5
       5
       5
       5
       5
       5
       5
       5
       5
       5
       5
       5
       5
       5
       5
       5
       5
       5
       5
       5
       5
       5
       5
       5
       5
       5
       5
       5
       5
       5
       5
       5
       5
       5
       5
       5
       5
       5
       5
       5
       5
       5
       5
       5
       5
       5
       5
       5
       5
       5
       5
       5
       5
       5
       5
       5
       5
       5
       5
       5
       5
       5
       5
       5
       5
       5
       5
       5
       5
       5
       5
       5
       5
       5
       5
       5
       5
       5
       5
       5
       5
       5
       5
       5
       5
       5
       5
       5
       5
       5
       5
       5
       5
       5
       5
       5
       5
       5
       5
       5
       5
       5
       5
       5
       5
       5
       5
       5
       5
       5
       5
       5
       5
       5
       5
       5
       5
       5
       5
       5
       5
       5
       5
       5
       5
       5
       5
       5
       5
       5
       5
       5
       5
       5
       5
       5
       5
       5
       5
       5
       5
       5
       5
       5
       5
       5
       5
       5
       5
       5
       5
       5
       5
       5
       5
       5
       5
       5
       5
       5
       5
       5
       5
       5
       5
       5
       5
       5
       5
       5
       5
       5
       5
       5
       5
       5
       5
       5
       5
       5
       5
       5
       5
       5
       5
       5
       5
       5
       5
       5
       5
       5
       5
       5
       5
       5
       5
       5
       5
       5
       5
       5
       5
       5
       5
       5
       5
       5
       5
       5
       5
       5
       5
       5
       5
       5
       5
       5
       5
       5
       5
       5
       5
       5
       5
       5
       5
       5
       5
       5
       5
       5
       5
       5
       5
       5
       5
       5
       5
       5
       5
       5
       5
       5
       5
       5
       5
       5
       5
       5
       5
       5
       5
       5
       5
       5
       5
       5
       5
       5
       5
       5
       5
       5
       5
       5
       5
       5
       5
       5
       5
       5
       5
       5
       5
       5
       5
       5
       5
       5
       5
       5
       5
       5
       5
       5
       5
       5
       5
       5
       5
       5
       5
       5
       5
       5
       5
       5
       5
       5
       5
       5
       5
       5
       5
       5
       5
       5
       5
       5
       5
       5
       5
       5
       5
       5
       5
       5
       5
       5
       5
       5
       5
       5
       5
       5
       5
       5
       5
       5
       5
       5
       5
       5
       5
       5
       5
       5
       5
       5
       5
       5
       5
       5
       5
       5
       5
       5
       5
       5
       5
       5
       5
       5
       5
       5
       5
       5
       5
       5
       5
       5
       5
       5
       5
       5
       5
       5
       5
       5
       5
       5
       5
       5
       5
       5
       5
       5
       5
       5
       5
       5
       5
       5
       5
       5
       5
       5
       5
       5
       5
       5
       5
       5
       5
       5
       5
       5
       5
       5
       5
       5
       5
       5
       5
       5
       5
       5
       5
       5
       5
       5
       5
       5
       5
       5
       5
       5
       5
       5
       5
       5
       5
       5
       5
       5
       5
       5
       5
       5
       5
       5
       5
       5
       5
       5
       5
       5
       5
       5
       5
       5
       5
       5
       5
       5
       5
       5
       5
       5
       5
       5
       5
       5
       5
       5
       5
       5
       5
       5
       5
       5
       5
       5
       5
       5
       5
       5
       5
       5
       5
       5
       5
       5
       5
       5
       5
       5
       5
       5
       5
       5
       5
       5
       5
       5
       5
       5
       5
       5
       5
       5
       5
       5
       5
       5
       5
       5
       5
       5
       5
       5
       5
       5
       5
       5
       5
       5
       5
       5
       5
       5
       5
       5
       5
       5
       5
       5
       5
       5
       5
       5
       5
       5
       5
       5
       5
       5
       5
       5
       5
       5
       5
       5
       5
       5
       5
       5
       5
       5
       5
       5
       5
       5
       5
       5
       5
       5
       5
       5
       5
       5
       5
       5
       5
       5
       5
       5
       5
       5
       5
       5
       5
       5
       5
       5
       5
       5
       5
       5
       5
       5
       5
       5
       5
       5
       5
       5
       5
       5
       5
       5
       5
       5
       5
       5
       5
       5
       5
       5
       5
       5
       5
       5
       5
       5
       5
       5
       5
       5
       5
       5
       5
       5
       5
       5
       5
       5
       5
       5
       5
       5
       5
       5
       5
       5
       5
       5
       5
       5
       5
       5
       5
       5
       5
       5
       5
       5
       5
       5
       5
       5
       5
       5
       5
       5
       5
       5
       5
       5
       5
       5
       5
       5
       5
       5
       5
       5
       5
       5
       5
       5
       5
       5
       5
       5
       5
       5
       5
       5
       5
       5
       5
       5
       5
       5
       5
       5
       5
       5
       5
       5
       5
       5
       5
       5
       5
       5
       5
       5
       5
       5
       5
       5
       5
       5
       5
       5
       5
       5
       5
       5
       5
       5
       5
       5
       5
       5
       5
       5
       5
       5
       5
       5
       5
       5
       5
       5
       5
       5
       5
       5
       5
       5
       5
       5
       5
       5
       5
       5
       5
       5
       5
       5
       5
       5
       5
       5
       5
       5
       5
       5
       5
       5
       5
       5
       5
       5
       5
       5
       5
       5
       5
       5
       5
       5
       5
       5
       5
       5
       5
       5
       5
       5
       5
       5
       5
       5
       5
       5
       5
       5
       5
       5
       5
       5
       5
       5
       5
       5
       5
       5
       5
       5
       5
       5
       5
       5
       5
       5
       5
       5
       5
       5
       5
       5
       5
       5
       5
       5
       5
       5
       5
       5
       5
       5
       5
       5
       5
       5
       5
       5
       5
       5
       5
       5
       5
       5
       5
       5
       5
       5
       5
       5
       5
       5
       5
       5
       5
       5
       5
       5
       5
       5
       5
       5
       5
       5
       5
       5
       5
       5
       5
       5
       5
       5
       5
       5
       5
       5
       5
       5
       5
       5
       5
       5
       5
       5
       5
       5
       5
       5
       5
       5
       5
       5
       5
       5
       5
       5
       5
       5
       5
       5
       5
       5
       5
       5
       5
       5
       5
       5
       5
       5
       5
       5
       5
       5
       5
       5
       5
       5
       5
       5
       5
       5
       5
       5
       5
       5
       5
       5
       5
       5
       5
       5
       5
       5
       5
       5
       5
       5
       5
       5
       5
       5
       5
       5
       5
       5
       5
       5
       5
       5
       5
       5
       5
       5
       5
       5
       5
       5
       5
       5
       5
       5
       5
       5
       5
       5
       5
       5
       5
       5
       5
       5
       5
       5
       5
       5
       5
       5
       5
       5
       5
       5
       5
       5
       5
       5
       5
       5
       5
       5
       5
       5
       5
       5
       5
       5
       5
       5
       5
       5
       5
       5
       5
       5
       5
       5
       5
       5
       5
       5
       5
       5
       5
       5
       5
       5
       5
       5
       5
       5
       5
       5
       5
       5
       5
       5
       5
       5
       5
       5
       5
       5
       5
       5
       5
       5
       5
       5
       5
       5
       5
       5
       5
       5
       5
       5
       5
       5
       5
       5
       5
       5
       5
       5
       5
       5
       5
       5
       5
       5
       5
       5
       5
       5
       5
       5
       5
       5
       5
       5
       5
       5
       5
       5
       5
       5
       5
       5
       5
       5
       5
       5
       5
       5
       5
       5
       5
       5
       5
       5
       5
       5
       5
       5
       5
       5
       5
       5
       5
       5
       5
       5
       5
       5
       5
       5
       5
       5
       5
       5
       5
       5
       5
       5
       5
       5
       5
       5
       5
       5
       5
       5
       5
       5
       5
       5
       5
       5
       5
       5
       5
       5
       5
       5
       5
       5
       5
       5
       5
       5
       5
       5
       5
       5
       5
       5
       5
       5
       5
       5
       5
       5
       5
       5
       5
       5
       5
       5
       5
       5
       5
       5
       5
       5
       5
       5
       5
       5
       5
       5
       5
       5
       5
       5
       5
       5
       5
       5
       5
       5
       5
       5
       5
       5
       5
       5
       5
       5
       5
       5
       5
       5
       5
       5
       5
       5
       5
       5
       5
       5
       5
       5
       5
       5
       5
       5
       5
       5
       5
       5
       5
       5
       5
       5
       5
       5
       5
       5
       5
       5
       5
       5
       5
       5
       5
       5
       5
       5
       5
       5
       5
       5
       5
       5
       5
       5
       5
       5
       5
       5
       5
       5
       5
       5
       5
       5
       5
       5
       5
       5
       5
       5
       5
       5
       5
       5
       5
       5
       5
       5
       5
       5
       5
       5
       5
       5
       5
       5
       5
       5
       5
       5
       5
       5
       5
       5
       5
       5
       5
       5
       5
       5
       5
       5
       5
       5
       5
       5
       5
       5
       5
       5
       5
       5
       5
       5
       5
       5
       5
       5
       5
       5
       5
       5
       5
       5
       5
       5
       5
       5
       5
       5
       5
       5
       5
       5
       5
       5
       5
       5
       5
       5
       5
       5
       5
       5
       5
       5
       5
       5
       5
       5
       5
       5
       5
       5
       5
       5
       5
       5
       5
       5
       5
       5
       5
       5
       5
       5
       5
       5
       5
       5
       5
       5
       5
       5
       5
       5
       5
       5
       5
       5
       5
       5
       5
       5
       5
       5
       5
       5
       5
       5
       5
       5
       5
       5
       5
       5
       5
       5
       5
       5
       5
       5
       5
       5
       5
       5
       5
       5
       5
       5
       5
       5
       5
       5
       5
       5
       5
       5
       5
       5
       5
       5
       5
       5
       5
       5
       5
       5
       5
       5
       5
       5
       5
       5
       5
       5
       5
       5
       5
       5
       5
       5
       5
       5
       5
       5
       5
       5
       5
       5
       5
       5
       5
       5
       5
       5
       5
       5
       5
       5
       5
       5
       5
       5
       5
       5
       5
       5
       5
       5
       5
       5
       5
       5
       5
       5
       5
       5
       5
       5
       5
       5
       5
       5
       5
       5
       5
       5
       5
       5
       5
       5
       5
       5
       5
       5
       5
       5
       5
       5
       5
       5
       5
       5
       5
       5
       5
       5
       5
       5
       5
       5
       5
       5
       5
       5
       5
       5
       5
       5
       5
       5
       5
       5
       5
       5
       5
       5
       5
       5
       5
       5
       5
       5
       5
       5
       5
       5
       5
       5
       5
       5
       5
       5
       5
       5
       5
       5
       5
       5
       5
       5
       5
       5
       5
       5
       5
       5
       5
       5
       5
       5
       5
       5
       5
       5
       5
       5
       5
       5
       5
       5
       5
       5
       5
       5
       5
       5
       5
       5
       5
       5
       5
       5
       5
       5
       5
       5
       5
       5
       5
       5
       5
       5
       5
       5
       5
       5
       5
       5
       5
       5
       5
       5
       5
       5
       5
       5
       5
       5
       5
       5
       5
       5
       5
       5
       5
       5
       5
       5
       5
       5
       5
       5
       5
       5
       5
       5
       5
       5
       5
       5
       5
       5
       5
       5
       5
       5
       5
       5
       5
       5
       5
       5
       5
       5
       5
       5
       5
       5
       5
       5
       5
       5
       5
       5
       5
       5
       5
       5
       5
       5
       5
       5
       5
       5
       5
       5
       5
       5
       5
       5
       5
       5
       5
       5
       5
       5
       5
       5
       5
       5
       5
       5
       5
       5
       5
       5
       5
       5
       5
       5
       5
       5
       5
       5
       5
       5
       5
       5
       5
       5
       5
       5
       5
       5
       5
       5
       5
       5
       5
       5
       5
       5
       5
       5
       5
       5
       5
       5
       5
       5
       5
       5
       5
       5
       5
       5
       5
       5
       5
       5
       5
       5
       5
       5
       5
       5
       5
       5
       5
       5
       5
       5
       5
       5
       5
       5
       5
       5
       5
       5
       5
       5
       5
       5
       5
       5
       5
       5
       5
       5
       5
       5
       5
       5
       5
       5
       5
       5
       5
       5
       5
       5
       5
       5
       5
       5
       5
       5
       5
       5
       5
       5
       5
       5
       5
       5
       5
       5
       5
       5
       5
       5
       5
       5
       5
       5
       5
       5
       5
       5
       5
       5
       5
       5
       5
       5
       5
       5
       5
       5
       5
       5
       5
       5
       5
       5
       5
       5
       5
       5
       5
       5
       5
       5
       5
       5
       5
       5
       5
       5
       5
       5
       5
       5
       5
       5
       5
       5
       5
       5
       5
       5
       5
       5
       5
       5
       5
       5
       5
       5
       5
       5
       5
       5
       5
       5
       5
       5
       5
       5
       5
       5
       5
       5
       5
       5
       5
       5
       5
       5
       5
       5
       5
       5
       5
       5
       5
       5
       5
       5
       5
       5
       5
       5
       5
       5
       5
       5
       5
       5
       5
       5
       5
       5
       5
       5
       5
       5
       5
       5
       5
       5
       5
       5
       5
       5
       5
       5
       5
       5
       5
       5
       5
       5
       5
       5
       5
       5
       5
       5
       5
       5
       5
       5
       5
       5
       5
       5
       5
       5
       5
       5
       5
       5
       5
       5
       5
       5
       5
       5
       5
       5
       5
       5
       5
       5
       5
       5
       5
       5
       5
       5
       5
       5
       5
       5
       5
       5
       5
       5
       5
       5
       5
       5
       5
       5
       5
       5
       5
       5
       5
       5
       5
       5
       5
       5
       5
       5
       5
       5
       5
       5
       5
       5
       5
       5
       5
       5
       5
       5
       5
       5
       5
       5
       5
       5
       5
       5
       5
       5
       5
       5
       5
       5
       5
       5
       5
       5
       5
       5
       5
       5
       5
       5
       5
       5
       5
       5
       5
       5
       5
       5
       5
       5
       5
       5
       5
       5
       5
       5
       5
       5
       5
       5
       5
       5
       5
       5
       5
       5
       5
       5
       5
       5
       5
       5
       5
       5
       5
       5
       5
       5
       5
       5
       5
       5
       5
       5
       5
       5
       5
       5
       5
       5
       5
       5
       5
       5
       5
       5
       5
       5
       5
       5
       5
       5
       5
       5
       5
       5
       5
       5
       5
       5
       5
       5
       5
       5
       5
       5
       5
       5
       5
       5
       5
       5
       5
       5
       5
       5
       5
       5
       5
       5
       5
       5
       5
       5
       5
       5
       5
       5
       5
       5
       5
       5
       5
       5
       5
       5
       5
       5
       5
       5
       5
       5
       5
       5
       5
       5
       5
       5
       5
       5
       5
       5
       5
       5
       5
       5
       5
       5
       5
       5
       5
       5
       5
       5
       5
       5
       5
       5
       5
       5
       5
       5
       5
       5
       5
       5
       5
       5
       5
       5
       5
       5
       5
       5
       5
       5
       5
       5
       5
       5
       5
       5
       5
       5
       5
       5
       5
       5
       5
       5
       5
       5
       5
       5
       5
       5
       5
       5
       5
       5
       5
       5
       5
       5
       5
       5
       5
       5
       5
       5
       5
       5
       5
       5
       5
       5
       5
       5
       5
       5
       5
       5
       5
       5
       5
       5
       5
       5
       5
       5
       5
       5
       5
       5
       5
       5
       5
       5
       5
       5
       5
       5
       5
       5
       5
       5
       5
       5
       5
       5
       5
       5
       5
       5
       5
       5
       5
       5
       5
       5
       5
       5
       5
       5
       5
       5
       5
       5
       5
       5
       5
       5
       5
       5
       5
       5
       5
       5
       5
       5
       5
       5
       5
       5
       5
       5
       5
       5
       5
       5
       5
       5
       5
       5
       5
       5
       5
       5
       5
       5
       5
       5
       5
       5
       5
       5
       5
       5
       5
       5
       5
       5
       5
       5
       5
       5
       5
       5
       5
       5
       5
       5
       5
       5
       5
       5
       5
       5
       5
       5
       5
       5
       5
       5
       5
       5
       5
       5
       5
       5
       5
       5
       5
       5
       5
       5
       5
       5
       5
       5
       5
       5
       5
       5
       5
       5
       5
       5
       5
       5
       5
       5
       5
       5
       5
       5
       5
       5
       5
       5
       5
       5
       5
       5
       5
       5
       5
       5
       5
       5
       5
       5
       5
       5
       5
       5
       5
       5
       5
       5
       5
       5
       5
       5
       5
       5
       5
       5
       5
       5
       5
       5
       5
       5
       5
       5
       5
       5
       5
       5
       5
       5
       5
       5
       5
       5
       5
       5
       5
       5
       5
       5
       5
       5
       5
       5
       5
       5
       5
       5
       5
       5
       5
       5
       5
       5
       5
       5
       5
       5
       5
       5
       5
       5
       5
       5
       5
       5
       5
       5
       5
       5
       5
       5
       5
       5
       5
       5
       5
       5
       5
       5
       5
       5
       5
       5
       5
       5
       5
       5
       5
       5
       5
       5
       5
       5
       5
       5
       5
       5
       5
       5
       5
       5
       5
       5
       5
       5
       5
       5
       5
       5
       5
       5
       5
       5
       5
       5
       5
       5
       5
       5
       5
       5
       5
       5
       5
       5
       5
       5
       5
       5
       5
       5
       5
       5
       5
       5
       5
       5
       5
       5
       5
       5
       5
       5
       5
       5
       5
       5
       5
       5
       5
       5
       5
       5
       5
       5
       5
       5
       5
       5
       5
       5
       5
       5
       5
       5
       5
       5
       5
       5
       5
       5
       5
       5
       5
       5
       5
       5
       5
       5
       5
       5
       5
       5
       5
       5
       5
       5
       5
       5
       5
       5
       5
       5
       5
       5
       5
       5
       5
       5
       5
       5
       5
       5
       5
       5
       5
       5
       5
       5
       5
       5
       5
       5
       5
       5
       5
       5
       5
       5
       5
       5
       5
       5
       5
       5
       5
       5
       5
       5
       5
       5
       5
       5
       5
       5
       5
       5
       5
       5
       5
       5
       5
       5
       5
       5
       5
       5
       5
       5
       5
       5
       5
       5
       5
       5
       5
       5
       5
       5
       5
       5
       5
       5
       5
       5
       5
       5
       5
       5
       5
       5
       5
       5
       5
       5
       5
       5
       5
       5
       5
       5
       5
       5
       5
       5
       5
       5
       5
       5
       5
       5
       5
       5
       5
       5
       5
       5
       5
       5
       5
       5
       5
       5
       5
       5
       5
       5
       5
       5
       5
       5
       5
       5
       5
       5
       5
       5
       5
       5
       5
       5
       5
       5
       5
       5
       5
       5
       5
       5
       5
       5
       5
       5
       5
       5
       5
       5
       5
       5
       5
       5
       5
       5
       5
       5
       5
       5
       5
       5
       5
       5
       5
       5
       5
       5
       5
       5
       5
       5
       5
       5
       5
       5
       5
       5
       5
       5
       5
       5
       5
       5
       5
       5
       5
       5
       5
       5
       5
       5
       5
       5
       5
       5
       5
       5
       5
       5
       5
       5
       5
       5
       5
       5
       5
       5
       5
       5
       5
       5
       5
       5
       5
       5
       5
       5
       5
       5
       5
       5
       5
       5
       5
       5
       5
       5
       5
       5
       5
       5
       5
       5
       5
       5
       5
       5
       5
       5
       5
       5
       5
       5
       5
       5
       5
       5
       5
       5
       5
       5
       5
       5
       5
       5
       5
       5
       5
       5
       5
       5
       5
       5
       5
       5
       5
       5
       5
       5
       5
       5
       5
       5
       5
       5
       5
       5
       5
       5
       5
       5
       5
       5
       5
       5
       5
       5
       5
       5
       5
       5
       5
       5
       5
       5
       5
       5
       5
       5
       5
       5
       5
       5
       5
       5
       5
       5
       5
       5
       5
       5
       5
       5
       5
       5
       5
       5
       5
       5
       5
       5
       5
       5
       5
       5
       5
       5
       5
       5
       5
       5
       5
       5
       5
       5
       5
       5
       5
       5
       5
       5
       5
       5
       5
       5
       5
       5
       5
       5
       5
       5
       5
       5
       5
       5
       5
       5
       5
       5
       5
       5
       5
       5
       5
       5
       5
       5
       5
       5
       5
       5
       5
       5
       5
       5
       5
       5
       5
       5
       5
       5
       5
       5
       5
       5
       5
       5
       5
       5
       5
       5
       5
       5
       5
       5
       5
       5
       5
       5
       5
       5
       5
       5
       5
       5
       5
       5
       5
       5
       5
       5
       5
       5
       5
       5
       5
       5
       5
       5
       5
       5
       5
       5
       5
       5
       5
       5
       5
       5
       5
       5
       5
       5
       5
       5
       5
       5
       5
       5
       5
       5
       5
       5
       5
       5
       5
       5
       5
       5
       5
       5
       5
       5
       5
       5
       5
       5
       5
       5
       5
       5
       5
       5
       5
       5
       5
       5
       5
       5
       5
       5
       5
       5
       5
       5
       5
       5
       5
       5
       5
       5
       5
       5
       5
       5
       5
       5
       5
       5
       5
       5
       5
       5
       5
       5
       5
       5
       5
       5
       5
       5
       5
       5
       5
       5
       5
       5
       5
       5
       5
       5
       5
       5
       5
       5
       5
       5
       5
       5
       5
       5
       5
       5
       5
       5
       5
       5
       5
       5
       5
       5
       5
       5
       5
       5
       5
       5
       5
       5
       5
       5
       5
       5
       5
       5
       5
       5
       5
       5
       5
       5
       5
       5
       5
       5
       5
       5
       5
       5
       5
       5
       5
       5
       5
       5
       5
       5
       5
       5
       5
       5
       5
       5
       5
       5
       5
       5
       5
       5
       5
       5
       5
       5
       5
       5
       5
       5
       5
       5
       5
       5
       5
       5
       5
       5
       5
       5
       5
       5
       5
       5
       5
       5
       5
       5
       5
       5
       5
       5
       5
       5
       5
       5
       5
       5
       5
       5
       5
       5
       5
       5
       5
       5
       5
       5
       5
       5
       5
       5
       5
       5
       5
       5
       5
       5
       5
       5
       5
       5
       5
       5
       5
       5
       5
       5
       5
       5
       5
       5
       5
       5
       5
       5
       5
       5
       5
       5
       5
       5
       5
       5
       5
       5
       5
       5
       5
       5
       5
       5
       5
       5
       5
       5
       5
       5
       5
       5
       5
       5
       5
       5
       5
       5
       5
       5
       5
       5
       5
       5
       5
       5
       5
       5
       5
       5
       5
       5
       5
       5
       5
       5
       5
       5
       5
       5
       5
       5
       5
       5
       5
       5
       5
       5
       5
       5
       5
       5
       5
       5
       5
       5
       5
       5
       5
       5
       5
       5
       5
       5
       5
       5
       5
       5
       5
       5
       5
       5
       5
       5
       5
       5
       5
       5
       5
       5
       5
       5
       5
       5
       5
       5
       5
       5
       5
       5
       5
       5
       5
       5
       5
       5
       5
       5
       5
       5
       5
       5
       5
       5
       5
       5
       5
       5
       5
       5
       5
       5
       5
       5
       5
       5
       5
       5
       5
       5
       5
       5
       5
       5
       5
       5
       5
       5
       5
       5
       5
       5
       5
       5
       5
       5
       5
       5
       5
       5
       5
       5
       5
       5
       5
       5
       5
       5
       5
       5
       5
       5
       5
       5
       5
       5
       5
       5
       5
       5
       5
       5
       5
       5
       5
       5
       5
       5
       5
       5
       5
       5
       5
       5
       5
       5
       5
       5
       5
       5
       5
       5
       5
       5
       5
       5
       5
       5
       5
       5
       5
       5
       5
       5
       5
       5
       5
       5
       5
       5
       5
       5
       5
       5
       5
       5
       5
       5
       5
       5
       5
       5
       5
       5
       5
       5
       5
       5
       5
       5
       5
       5
       5
       5
       5
       5
       5
       5
       5
       5
       5
       5
       5
       5
       5
       5
       5
       5
       5
       5
       5
       5
       5
       5
       5
       5
       5
       5
       5
       5
       5
       5
       5
       5
       5
       5
       5
       5
       5
       5
       5
       5
       5
       5
       5
       5
       5
       5
       5
       5
       5
       5
       5
       5
       5
       5
       5
       5
       5
       5
       5
       5
       5
       5
       5
       5
       5
       5
       5
       5
       5
       5
       5
       5
       5
       5
       5
       5
       5
       5
       5
       5
       5
       5
       5
       5
       5
       5
       5
       5
       5
       5
       5
       5
       5
       5
       5
       5
       5
       5
       5
       5
       5
       5
       5
       5
       5
       5
       5
       5
       5
       5
       5
       5
       5
       5
       5
       5
       5
       5
       5
       5
       5
       5
       5
       5
       5
       5
       5
       5
       5
       5
       5
       5
       5
       5
       5
       5
       5
       5
       5
       5
       5
       5
       5
       5
       5
       5
       5
       5
       5
       5
       5
       5
       5
       5
       5
       5
       5
       5
       5
       5
       5
       5
       5
       5
       5
       5
       5
       5
       5
       5
       5
       5
       5
       5
       5
       5
       5
       5
       5
       5
       5
       5
       5
       5
       5
       5
       5
       5
       5
       5
       5
       5
       5
       5
       5
       5
       5
       5
       5
       5
       5
       5
       5
       5
       5
       5
       5
       5
       5
       5
       5
       5
       5
       5
       5
       5
       5
       5
       5
       5
       5
       5
       5
       5
       5
       5
       5
       5
       5
       5
       5
       5
       5
       5
       5
       5
       5
       5
       5
       5
       5
       5
       5
       5
       5
       5
       5
       5
       5
       5
       5
       5
       5
       5
       5
       5
       5
       5
       5
       5
       5
       5
       5
       5
       5
       5
       5
       5
       5
       5
       5
       5
       5
       5
       5
       5
       5
       5
       5
       5
       5
       5
       5
       5
       5
       5
       5
       5
       5
       5
       5
       5
       5
       5
       5
       5
       5
       5
       5
       5
       5
       5
       5
       5
       5
       5
       5
       5
       5
       5
       5
       5
       5
       5
       5
       5
       5
       5
       5
       5
       5
       5
       5
       5
       5
       5
       5
       5
       5
       5
       5
       5
       5
       5
       5
       5
       5
       5
       5
       5
       5
       5
       5
       5
       5
       5
       5
       5
       5
       5
       5
       5
       5
       5
       5
       5
       5
       5
       5
       5
       5
       5
       5
       5
       5
       5
       5
       5
       5
       5
       5
       5
       5
       5
       5
       5
       5
       5
       5
       5
       5
       5
       5
       5
       5
       5
       5
       5
       5
       5
       5
       5
       5
       5
       5
       5
       5
       5
       5
       5
       5
       5
       5
       5
       5
       5
       5
       5
       5
       5
       5
       5
       5
       5
       5
       5
       5
       5
       5
       5
       5
       5
       5
       5
       5
       5
       5
       5
       5
       5
       5
       5
       5
       5
       5
       5
       5
       5
       5
       5
       5
       5
       5
       5
       5
       5
       5
       5
       5
       5
       5
       5
       5
       5
       5
       5
       5
       5
       5
       5
       5
       5
       5
       5
       5
       5
       5
       5
       5
       5
       5
       5
       5
       5
       5
       5
       5
       5
       5
       5
       5
       5
       5
       5
       5
       5
       5
       5
       5
       5
       5
       5
       5
       5
       5
       5
       5
       5
       5
       5
       5
       5
       5
       5
       5
       5
       5
       5
       5
       5
       5
       5
       5
       5
       5
       5
       5
       5
       5
       5
       5
       5
       5
       5
       5
       5
       5
       5
       5
       5
       5
       5
       5
       5
       5
       5
       5
       5
       5
       5
       5
       5
       5
       5
       5
       5
       5
       5
       5
       5
       5
       5
       5
       5
       5
       5
       5
       5
       5
       5
       5
       5
       5
       5
       5
       5
       5
       5
       5
       5
       5
       5
       5
       5
       5
       5
       5
       5
       5
       5
       5
       5
       5
       5
       5
       5
       5
       5
       5
       5
       5
       5
       5
       5
       5
       5
       5
       5
       5
       5
       5
       5
       5
       5
       5
       5
       5
       5
       5
       5
       5
       5
       5
       5
       5
       5
       5
       5
       5
       5
       5
       5
       5
       5
       5
       5
       5
       5
       5
       5
       5
       5
       5
       5
       5
       5
       5
       5
       5
       5
       5
       5
       5
       5
       5
       5
       5
       5
       5
       5
       5
       5
       5
       5
       5
       5
       5
       5
       5
       5
       5
       5
       5
       5
       5
       5
       5
       5
       5
       5
       5
       5
       5
       5
       5
       5
       5
       5
       5
       5
       5
       5
       5
       5
       5
       5
       5
       5
       5
       5
       5
       5
       5
       5
       5
       5
       5
       5
       5
       5
       5
       5
       5
       5
       5
       5
       5
       5
       5
       5
       5
       5
       5
       5
       5
       5
       5
       5
       5
       5
       5
       5
       5
       5
       5
       5
       5
       5
       5
       5
       5
       5
       5
       5
       5
       5
       5
       5
       5
       5
       5
       5
       5
       5
       5
       5
       5
       5
       5
       5
       5
       5
       5
       5
       5
       5
       5
       5
       5
       5
       5
       5
       5
       5
       5
       5
       5
       5
       5
       5
       5
       5
       5
       5
       5
       5
       5
       5
       5
       5
       5
       5
       5
       5
       5
       5
       5
       5
       5
       5
       5
       5
       5
       5
       5
       5
       5
       5
       5
       5
       5
       5
       5
       5
       5
       5
       5
       5
       5
       5
       5
       5
       5
       5
       5
       5
       5
       5
       5
       5
       5
       5
       5
       5
       5
       5
       5
       5
       5
       5
       5
       5
       5
       5
       5
       5
       5
       5
       5
       5
       5
       5
       5
       5
       5
       5
       5
       5
       5
       5
       5
       5
       5
       5
       5
       5
       5
       5
       5
       5
       5
       5
       5
       5
       5
       5
       5
       5
       5
       5
       5
       5
       5
       5
       5
       5
       5
       5
       5
       5
       5
       5
       5
       5
       5
       5
       5
       5
       5
       5
       5
       5
       5
       5
       5
       5
       5
       5
       5
       5
       5
       5
       5
       5
       5
       5
       5
       5
       5
       5
       5
       5
       5
       5
       5
       5
       5
       5
       5
       5
       5
       5
       5
       5
       5
       5
       5
       5
       5
       5
       5
       5
       5
       5
       5
       5
       5
       5
       5
       5
       5
       5
       5
       5
       5
       5
       5
       5
       5
       5
       5
       5
       5
       5
       5
       5
       5
       5
       5
       5
       5
       5
       5
       5
       5
       5
       5
       5
       5
       5
       5
       5
       5
       5
       5
       5
       5
       5
       5
       5
       5
       5
       5
       5
       5
       5
       5
       5
       5
       5
       5
       5
       5
       5
       5
       5
       5
       5
       5
       5
       5
       5
       5
       5
       5
       5
       5
       5
       5
       5
       5
       5
       5
       5
       5
       5
       5
       5
       5
       5
       5
       5
       5
       5
       5
       5
       5
       5
       5
       5
       5
       5
       5
       5
       5
       5
       5
       5
       5
       5
       5
       5
       5
       5
       5
       5
       5
       5
       5
       5
       5
       5
       5
       5
       5
       5
       5
       5
       5
       5
       5
       5
       5
       5
       5
       5
       5
       5
       5
       5
       5
       5
       5
       5
       5
       5
       5
       5
       5
       5
       5
       5
       5
       5
       5
       5
       5
       5
       5
       5
       5
       5
       5
       5
       5
       5
       5
       5
       5
       5
       5
       5
       5
       5
       5
       5
       5
       5
       5
       5
       5
       5
       5
       5
       5
       5
       5
       5
       5
       5
       5
       5
       5
       5
       5
       5
       5
       5
       5
       5
       5
       5
       5
       5
       5
       5
       5
       5
       5
       5
       5
       5
       5
       5
       5
       5
       5
       5
       5
       5
       5
       5
       5
       5
       5
       5
       5
       5
       5
       5
       5
       5
       5
       5
       5
       5
       5
       5
       5
       5
       5
       5
       5
       5
       5
       5
       5
       5
       5
       5
       5
       5
       5
       5
       5
       5
       5
       5
       5
       5
       5
       5
       5
       5
       5
       5
       5
       5
       5
       5
       5
       5
       5
       5
       5
       5
       5
       5
       5
       5
       5
       5
       5
       5
       5
       5
       5
       5
       5
       5
       5
       5
       5
       5
       5
       5
       5
       5
       5
       5
       5
       5
       5
       5
       5
       5
       5
       5
       5
       5
       5
       5
       5
       5
       5
       5
       5
       5
       5
       5
       5
       5
       5
       5
       5
       5
       5
       5
       5
       5
       5
       5
       5
       5
       5
       5
       5
       5
       5
       5
       5
       5
       5
       5
       5
       5
       5
       5
       5
       5
       5
       5
       5
       5
       5
       5
       5
       5
       5
       5
       5
       5
       5
       5
       5
       5
       5
       5
       5
       5
       5
       5
       5
       5
       5
       5
       5
       5
       5
       5
       5
       5
       5
       5
       5
       5
       5
       5
       5
       5
       5
       5
       5
       5
       5
       5
       5
       5
       5
       5
       5
       5
       5
       5
       5
       5
       5
       5
       5
       5
       5
       5
       5
       5
       5
       5
       5
       5
       5
       5
       5
       5
       5
       5
       5
       5
       5
       5
       5
       5
       5
       5
       5
       5
       5
       5
       5
       5
       5
       5
       5
       5
       5
       5
       5
       5
       5
       5
       5
       5
       5
       5
       5
       5
       5
       5
       5
       5
       5
       5
       5
       5
       5
       5
       5
       5
       5
       5
       5
       5
       5
       5
       5
       5
       5
       5
       5
       5
       5
       5
       5
       5
       5
       5
       5
       5
       5
       5
       5
       5
       5
       5
       5
       5
       5
       5
       5
       5
       5
       5
       5
       5
       5
       5
       5
       5
       5
       5
       5
       5
       5
       5
       5
       5
       5
       5
       5
       5
       5
       5
       5
       5
       5
       5
       5
       5
       5
       5
       5
       5
       5
       5
       5
       5
       5
       5
       5
       5
       5
       5
       5
       5
       5
       5
       5
       5
       5
       5
       5
       5
       5
       5
       5
       5
       5
       5
       5
       5
       5
       5
       5
       5
       5
       5
       5
       5
       5
       5
       5
       5
       5
       5
       5
       5
       5
       5
       5
       5
       5
       5
       5
       5
       5
       5
       5
       5
       5
       5
       5
       5
       5
       5
       5
       5
       5
       5
       5
       5
       5
       5
       5
       5
       5
       5
       5
       5
       5
       5
       5
       5
       5
       5
       5
       5
       5
       5
       5
       5
       5
       5
       5
       5
       5
       5
       5
       5
       5
       5
       5
       5
       5
       5
       5
       5
       5
       5
       5
       5
       5
       5
       5
       5
       5
       5
       5
       5
       5
       5
       5
       5
       5
       5
       5
       5
       5
       5
       5
       5
       5
       5
       5
       5
       5
       5
       5
       5
       5
       5
       5
       5
       5
       5
       5
       5
       5
       5
       5
       5
       5
       5
       5
       5
       5
       5
       5
       5
       5
       5
       5
       5
       5
       5
       5
       5
       5
       5
       5
       5
       5
       5
       5
       5
       5
       5
       5
       5
       5
       5
       5
       5
       5
       5
       5
       5
       5
       5
       5
       5
       5
       5
       5
       5
       5
       5
       5
       5
       5
       5
       5
       5
       5
       5
       5
       5
       5
       5
       5
       5
       5
       5
       5
       5
       5
       5
       5
       5
       5
       5
       5
       5
       5
       5
       5
       5
       5
       5
       5
       5
       5
       5
       5
       5
       5
       5
       5
       5
       5
       5
       5
       5
       5
       5
       5
       5
       5
       5
       5
       5
       5
       5
       5
       5
       5
       5
       5
       5
       5
       5
       5
       5
       5
       5
       5
       5
       5
       5
       5
       5
       5
       5
       5
       5
       5
       5
       5
       5
       5
       5
       5
       5
       5
       5
       5
       5
       5
       5
       5
       5
       5
       5
       5
       5
       5
       5
       5
       5
       5
       5
       5
       5
       5
       5
       5
       5
       5
       5
       5
       5
       5
       5
       5
       5
       5
       5
       5
       5
       5
       5
       5
       5
       5
       5
       5
       5
       5
       5
       5
       5
       5
       5
       5
       5
       5
       5
       5
       5
       5
       5
       5
       5
       5
       5
       5
       5
       5
       5
       5
       5
       5
       5
       5
       5
       5
       5
       5
       5
       5
       5
       5
       5
       5
       5
       5
       5
       5
       5
       5
       5
       5
       5
       5
       5
       5
       5
       5
       5
       5
       5
       5
       5
       5
       5
       5
       5
       5
       5
       5
       5
       5
       5
       5
       5
       5
       5
       5
       5
       5
       5
       5
       5
       5
       5
       5
       5
       5
       5
       5
       5
       5
       5
       5
       5
       5
       5
       5
       5
       5
       5
       5
       5
       5
       5
       5
       5
       5
       5
       5
       5
       5
       5
       5
       5
       5
       5
       5
       5
       5
       5
       5
       5
       5
       5
       5
       5
       5
       5
       5
       5
       5
       5
       5
       5
       5
       5
       5
       5
       5
       5
       5
       5
       5
       5
       5
       5
       5
       5
       5
       5
       5
       5
       5
       5
       5
       5
       5
       5
       5
       5
       5
       5
       5
       5
       5
       5
       5
       5
       5
       5
       5
       5
       5
       5
       5
       5
       5
       5
       5
       5
       5
       5
       5
       5
       5
       5
       5
       5
       5
       5
       5
       5
       5
       5
       5
       5
       5
       5
       5
       5
       5
       5
       5
       5
       5
       5
       5
       5
       5
       5
       5
       5
       5
       5
       5
       5
       5
       5
       5
       5
       5
       5
       5
       5
       5
       5
       5
       5
       5
       5
       5
       5
       5
       5
       5
       5
       5
       5
       5
       5
       5
       5
       5
       5
       5
       5
       5
       5
       5
       5
       5
       5
       5
       5
       5
       5
       5
       5
       5
       5
       5
       5
       5
       5
       5
       5
       5
       5
       5
       5
       5
       5
       5
       5
       5
       5
       5
       5
       5
       5
       5
       5
       5
       5
       5
       5
       5
       5
       5
       5
       5
       5
       5
       5
       5
       5
       5
       5
       5
       5
       5
       5
       5
       5
       5
       5
       5
       5
       5
       5
       5
       5
       5
       5
       5
       5
       5
       5
       5
       5
       5
       5
       5
       5
       5
       5
       5
       5
       5
       5
       5
       5
       5
       5
       5
       5
       5
       5
       5
       5
       5
       5
       5
       5
       5
       5
       5
       5
       5
       5
       5
       5
       5
       5
       5
       5
       5
       5
       5
       5
       5
       5
       5
       5
       5
       5
       5
       5
       5
       5
       5
       5
       5
       5
       5
       5
       5
       5
       5
       5
       5
       5
       5
       5
       5
       5
       5
       5
       5
       5
       5
       5
       5
       5
       5
       5
       5
       5
       5
       5
       5
       5
       5
       5
       5
       5
       5
       5
       5
       5
       5
       5
       5
       5
       5
       5
       5
       5
       5
       5
       5
       5
       5
       5
       5
       5
       5
       5
       5
       5
       5
       5
       5
       5
       5
       5
       5
       5
       5
       5
       5
       5
       5
       5
       5
       5
       5
       5
       5
       5
       5
       5
       5
       5
       5
       5
       5
       5
       5
       5
       5
       5
       5
       5
       5
       5
       5
       5
       5
       5
       5
       5
       5
       5
       5
       5
       5
       5
       5
       5
       5
       5
       5
       5
       5
       5
       5
       5
       5
       5
       5
       5
       5
       5
       5
       5
       5
       5
       5
       5
       5
       5
       5
       5
       5
       5
       5
       5
       5
       5
       5
       5
       5
       5
       5
       5
       5
       5
       5
       5
       5
       5
       5
       5
       5
       5
       5
       5
       5
       5
       5
       5
       5
       5
       5
       5
       5
       5
       5
       5
       5
       5
       5
       5
       5
       5
       5
       5
       5
       5
       5
       5
       5
       5
       5
       5
       5
       5
       5
       5
       5
       5
       5
       5
       5
       5
       5
       5
       5
       5
       5
       5
       5
       5
       5
       5
       5
       5
       5
       5
       5
       5
       5
       5
       5
       5
       5
       5
       5
       5
       5
       5
       5
       5
       5
       5
       5
       5
       5
       5
       5
       5
       5
       5
       5
       5
       5
       5
       5
       5
       5
       5
       5
       5
       5
       5
       5
       5
       5
       5
       5
       5
       5
       5
       5
       5
       5
       5
       5
       5
       5
       5
       5
       5
       5
       5
       5
       5
       5
       5
       5
       5
       5
       5
       5
       5
       5
       5
       5
       5
       5
       5
       5
       5
       5
       5
       5
       5
       5
       5
       5
       5
       5
       5
       5
       5
       5
       5
       5
       5
       5
       5
       5
       5
       5
       5
       5
       5
       5
       5
       5
       5
       5
       5
       5
       5
       5
       5
       5
       5
       5
       5
       5
       5
       5
       5
       5
       5
       5
       5
       5
       5
       5
       5
       5
       5
       5
       5
       5
       5
       5
       5
       5
       5
       5
       5
       5
       5
       5
       5
       5
       5
       5
       5
       5
       5
       5
       5
       5
       5
       5
       5
       5
       5
       5
       5
       5
       5
       5
       5
       5
       5
       5
       5
       5
       5
       5
       5
       5
       5
       5
       5
       5
       5
       5
       5
       5
       5
       5
       5
       5
       5
       5
       5
       5
       5
       5
       5
       5
       5
       5
       5
       5
       5
       5
       5
       5
       5
       5
       5
       5
       5
       5
       5
       5
       5
       5
       5
       5
       5
       5
       5
       5
       5
       5
       5
       5
       5
       5
       5
       5
       5
       5
       5
       5
       5
       5
       5
       5
       5
       5
       5
       5
       5
       5
       5
       5
       5
       5
       5
       5
       5
       5
       5
       5
       5
       5
       5
       5
       5
       5
       5
       5
       5
       5
       5
       5
       5
       5
       5
       5
       5
       5
       5
       5
       5
       5
       5
       5
       5
       5
       5
       5
       5
       5
       5
       5
       5
       5
       5
       5
       5
       5
       5
       5
       5
       5
       5
       5
       5
       5
       5
       5
       5
       5
       5
       5
       5
       5
       5
       5
       5
       5
       5
       5
       5
       5
       5
       5
       5
       5
       5
       5
       5
       5
       5
       5
       5
       5
       5
       5
       5
       5
       5
       5
       5
       5
       5
       5
       5
       5
       5
       5
       5
       5
       5
       5
       5
       5
       5
       5
       5
       5
       5
       5
       5
       5
       5
       5
       5
       5
       5
       5
       5
       5
       5
       5
       5
       5
       5
       5
       5
       5
       5
       5
       5
       5
       5
       5
       5
       5
       5
       5
       5
       5
       5
       5
       5
       5
       5
       5
       5
       5
       5
       5
       5
       5
       5
       5
       5
       5
       5
       5
       5
       5
       5
       5
       5
       5
       5
       5
       5
       5
       5
       5
       5
       5
       5
       5
       5
       5
       5
       5
       5
       5
       5
       5
       5
       5
       5
       5
       5
       5
       5
       5
       5
       5
       5
       5
       5
       5
       5
       5
       5
       5
       5
       5
       5
       5
       5
       5
       5
       5
       5
       5
       5
       5
       5
       5
       5
       5
       5
       5
       5
       5
       5
       5
       5
       5
       5
       5
       5
       5
       5
       5
       5
       5
       5
       5
       5
       5
       5
       5
       5
       5
       5
       5
       5
       5
       5
       5
       5
       5
       5
       5
       5
       5
       5
       5
       5
       5
       5
       5
       5
       5
       5
       5
       5
       5
       5
       5
       5
       5
       5
       5
       5
       5
       5
       5
       5
       5
       5
       5
       5
       5
       5
       5
       5
       5
       5
       5
       5
       5
       5
       5
       5
       5
       5
       5
       5
       5
       5
       5
       5
       5
       5
       5
       5
       5
       5
       5
       5
       5
       5
       5
       5
       5
       5
       5
       5
       5
       5
       5
       5
       5
       5
       5
       5
       5
       5
       5
       5
       5
       5
       5
       5
       5
       5
       5
       5
       5
       5
       5
       5
       5
       5
       5
       5
       5
       5
       5
       5
       5
       5
       5
       5
       5
       5
       5
       5
       5
       5
       5
       5
       5
       5
       5
       5
       5
       5
       5
       5
       5
       5
       5
       5
       5
       5
       5
       5
       5
       5
       5
       5
       5
       5
       5
       5
       5
       5
       5
       5
       5
       5
       5
       5
       5
       5
       5
       5
       5
       5
       5
       5
       5
       5
       5
       5
       5
       5
       5
       5
       5
       5
       5
       5
       5
       5
       5
       5
       5
       5
       5
       5
       5
       5
       5
       5
       5
       5
       5
       5
       5
       5
       5
       5
       5
       5
       5
       5
       5
       5
       5
       5
       5
       5
       5
       5
       5
       5
       5
       5
       5
       5
       5
       5
       5
       5
       5
       5
       5
       5
       5
       5
       5
       5
       5
       5
       5
       5
       5
       5
       5
       5
       5
       5
       5
       5
       5
       5
       5
       5
       5
       5
       5
       5
       5
       5
       5
       5
       5
       5
       5
       5
       5
       5
       5
       5
       5
       5
       5
       5
       5
       5
       5
       5
       5
       5
       5
       5
       5
       5
       5
       5
       5
       5
       5
       5
       5
       5
       5
       5
       5
       5
       5
       5
       5
       5
       5
       5
       5
       5
       5
       5
       5
       5
       5
       5
       5
       5
       5
       5
       5
       5
       5
       5
       5
       5
       5
       5
       5
       5
       5
       5
       5
       5
       5
       5
       5
       5
       5
       5
       5
       5
       5
       5
       5
       5
       5
       5
       5
       5
       5
       5
       5
       5
       5
       5
       5
       5
       5
       5
       5
       5
       5
       5
       5
       5
       5
       5
       5
       5
       5
       5
       5
       5
       5
       5
       5
       5
       5
       5
       5
       5
       5
       5
       5
       5
       5
       5
       5
       5
       5
       5
       5
       5
       5
       5
       5
       5
       5
       5
       5
       5
       5
       5
       5
       5
       5
       5
       5
       5
       5
       5
       5
       5
       5
       5
       5
       5
       5
       5
       5
       5
       5
       5
       5
       5
       5
       5
       5
       5
       5
       5
       5
       5
       5
       5
       5
       5
       5
       5
       5
       5
       5
       5
       5
       5
       5
       5
       5
       5
       5
       5
       5
       5
       5
       5
       5
       5
       5
       5
       5
       5
       5
       5
       5
       5
       5
       5
       5
       5
       5
       5
       5
       5
       5
       5
       5
       5
       5
       5
       5
       5
       5
       5
       5
       5
       5
       5
       5
       5
       5
       5
       5
       5
       5
       5
       5
       5
       5
       5
       5
       5
       5
       5
       5
       5
       5
       5
       5
       5
       5
       5
       5
       5
       5
       5
       5
       5
       5
       5
       5
       5
       5
       5
       5
       5
       5
       5
       5
       5
       5
       5
       5
       5
       5
       5
       5
       5
       5
       5
       5
       5
       5
       5
       5
       5
       5
       5
       5
       5
       5
       5
       5
       5
       5
       5
       5
       5
       5
       5
       5
       5
       5
       5
       5
       5
       5
       5
       5
       5
       5
       5
       5
       5
       5
       5
       5
       5
       5
       5
       5
       5
       5
       5
       5
       5
       5
       5
       5
       5
       5
       5
       5
       5
       5
       5
       5
       5
       5
       5
       5
       5
       5
       5
       5
       5
       5
       5
       5
       5
       5
       5
       5
       5
       5
       5
       5
       5
       5
       5
       5
       5
       5
       5
       5
       5
       5
       5
       5
       5
       5
       5
       5
       5
       5
       5
       5
       5
       5
       5
       5
       5
       5
       5
       5
       5
       5
       5
       5
       5
       5
       5
       5
       5
       5
       5
       5
       5
       5
       5
       5
       5
       5
       5
       5
       5
       5
       5
       5
       5
       5
       5
       5
       5
       5
       5
       5
       5
       5
       5
       5
       5
       5
       5
       5
       5
       5
       5
       5
       5
       5
       5
       5
       5
       5
       5
       5
       5
       5
       5
       5
       5
       5
       5
       5
       5
       5
       5
       5
       5
       5
       5
       5
       5
       5
       5
       5
       5
       5
       5
       5
       5
       5
       5
       5
       5
       5
       5
       5
       5
       5
       5
       5
       5
       5
       5
       5
       5
       5
       5
       5
       5
       5
       5
       5
       5
       5
       5
       5
       5
       5
       5
       5
       5
       5
       5
       5
       5
       5
       5
       5
       5
       5
       5
       5
       5
       5
       5
       5
       5
       5
       5
       5
       5
       5
       5
       5
       5
       5
       5
       5
       5
       5
       5
       5
       5
       5
       5
       5
       5
       5
       5
       5
       5
       5
       5
       5
       5
       5
       5
       5
       5
       5
       5
       5
       5
       5
       5
       5
       5
       5
       5
       5
       5
       5
       5
       5
       5
       5
       5
       5
       5
       5
       5
       5
       5
       5
       5
       5
       5
       5
       5
       5
       5
       5
       5
       5
       5
       5
       5
       5
       5
       5
       5
       5
       5
       5
       5
       5
       5
       5
       5
       5
       5
       5
       5
       5
       5
       5
       5
       5
       5
       5
       5
       5
       5
       5
       5
       5
       5
       5
       5
       5
       5
       5
       5
       5
       5
       5
       5
       5
       5
       5
       5
       5
       5
       5
       5
       5
       5
       5
       5
       5
       5
       5
       5
       5
       5
       5
       5
       5
       5
       5
       5
       5
       5
       5
       5
       5
       5
       5
       5
       5
       5
       5
       5
       5
       5
       5
       5
       5
       5
       5
       5
       5
       5
       5
       5
       5
       5
       5
       5
       5
       5
       5
       5
       5
       5
       5
       5
       5
       5
       5
       5
       5
       5
       5
       5
       5
       5
       5
       5
       5
       5
       5
       5
       5
       5
       5
       5
       5
       5
       5
       5
       5
       5
       5
       5
       5
       5
       5
       5
       5
       5
       5
       5
       5
       5
       5
       5
       5
       5
       5
       5
       5
       5
       5
       5
       5
       5
       5
       5
       5
       5
       5
       5
       5
       5
       5
       5
       5
       5
       5
       5
       5
       5
       5
       5
       5
       5
       5
       5
       5
       5
       5
       5
       5
       5
       5
       5
       5
       5
       5
       5
       5
       5
       5
       5
       5
       5
       5
       5
       5
       5
       5
       5
       5
       5
       5
       5
       5
       5
       5
       5
       5
       5
       5
       5
       5
       5
       5
       5
       5
       5
       5
       5
       5
       5
       5
       5
       5
       5
       5
       5
       5
       5
       5
       5
       5
       5
       5
       5
       5
       5
       5
       5
       5
       5
       5
       5
       5
       5
       5
       5
       5
       5
       5
       5
       5
       5
       5
       5
       5
       5
       5
       5
       5
       5
       5
       5
       5
       5
       5
       5
       5
       5
       5
       5
       5
       5
       5
       5
       5
       5
       5
       5
       5
       5
       5
       5
       5
       5
       5
       5
       5
       5
       5
       5
       5
       5
       5
       5
       5
       5
       5
       5
       5
       5
       5
       5
       5
       5
       5
       5
       5
       5
       5
       5
       5
       5
       5
       5
       5
       5
       5
       5
       5
       5
       5
       5
       5
       5
       5
       5
       5
       5
       5
       5
       5
       5
       5
       5
       5
       5
       5
       5
       5
       5
       5
       5
       5
       5
       5
       5
       5
       5
       5
       5
       5
       5
       5
       5
       5
       5
       5
       5
       5
       5
       5
       5
       5
       5
       5
       5
       5
       5
       5
       5
       5
       5
       5
       5
       5
       5
       5
       5
       5
       5
       5
       5
       5
       5
       5
       5
       5
       5
       5
       5
       5
       5
       5
       5
       5
       5
       5
       5
       5
       5
       5
       5
       5
       5
       5
       5
       5
       5
       5
       5
       5
       5
       5
       5
       5
       5
       5
       5
       5
       5
       5
       5
       5
       5
       5
       5
       5
       5
       5
       5
       5
       5
       5
       5
       5
       5
       5
       5
       5
       5
       5
       5
       5
       5
       5
       5
       5
       5
       5
       5
       5
       5
       5
       5
       5
       5
       5
       5
       5
       5
       5
       5
       5
       5
       5
       5
       5
       5
       5
       5
       5
       5
       5
       5
       5
       5
       5
       5
       5
       5
       5
       5
       5
       5
       5
       5
       5
       5
       5
       5
       5
       5
       5
       5
       5
       5
       5
       5
       5
       5
       5
       5
       5
       5
       5
       5
       5
       5
       5
       5
       5
       5
       5
       5
       5
       5
       5
       5
       5
       5
       5
       5
       5
       5
       5
       5
       5
       5
       5
       5
       5
       5
       5
       5
       5
       5
       5
       5
       5
       5
       5
       5
       5
       5
       5
       5
       5
       5
       5
       5
       5
       5
       5
       5
       5
       5
       5
       5
       5
       5
       5
       5
       5
       5
       5
       5
       5
       5
       5
       5
       5
       5
       5
       5
       5
       5
       5
       5
       5
       5
       5
       5
       5
       5
       5
       5
       5
       5
       5
       5
       5
       5
       5
       5
       5
       5
       5
       5
       5
       5
       5
       5
       5
       5
       5
       5
       5
       5
       5
       5
       5
       5
       5
       5
       5
       5
       5
       5
       5
       5
       5
       5
       5
       5
       5
       5
       5
       5
       5
       5
       5
       5
       5
       5
       5
       5
       5
       5
       5
       5
       5
       5
       5
       5
       5
       5
       5
       5
       5
       5
       5
       5
       5
       5
       5
       5
       5
       5
       5
       5
       5
       5
       5
       5
       5
       5
       5
       5
       5
       5
       5
       5
       5
       5
       5
       5
       5
       5
       5
       5
       5
       5
       5
       5
       5
       5
       5
       5
       5
       5
       5
       5
       5
       5
       5
       5
       5
       5
       5
       5
       5
       5
       5
       5
       5
       5
       5
       5
       5
       5
       5
       5
       5
       5
       5
       5
       5
       5
       5
       5
       5
       5
       5
       5
       5
       5
       5
       5
       5
       5
       5
       5
       5
       5
       5
       5
       5
       5
       5
       5
       5
       5
       5
       5
       5
       5
       5
       5
       5
       5
       5
       5
       5
       5
       5
       5
       5
       5
       5
       5
       5
       5
       5
       5
       5
       5
       5
       5
       5
       5
       5
       5
       5
       5
       5
       5
       5
       5
       5
       5
       5
       5
       5
       5
       5
       5
       5
       5
       5
       5
       5
       5
       5
       5
       5
       5
       5
       5
       5
       5
       5
       5
       5
       5
       5
       5
       5
       5
       5
       5
       5
       5
       5
       5
       5
       5
       5
       5
       5
       5
       5
       5
       5
       5
       5
       5
       5
       5
       5
       5
       5
       5
       5
       5
       5
       5
       5
       5
       5
       5
       5
       5
       5
       5
       5
       5
       5
       5
       5
       5
       5
       5
       5
       5
       5
       5
       5
       5
       5
       5
       5
       5
       5
       5
       5
       5
       5
       5
       5
       5
       5
       5
       5
       5
       5
       5
       5
       5
       5
       5
       5
       5
       5
       5
       5
       5
       5
       5
       5
       5
       5
       5
       5
       5
       5
       5
       5
       5
       5
       5
       5
       5
       5
       5
       5
       5
       5
       5
       5
       5
       5
       5
       5
       5
       5
       5
       5
       5
       5
       5
       5
       5
       5
       5
       5
       5
       5
       5
       5
       5
       5
       5
       5
       5
       5
       5
       5
       5
       5
       5
       5
       5
       5
       5
       5
       5
       5
       5
       5
       5
       5
       5
       5
       5
       5
       5
       5
       5
       5
       5
       5
       5
       5
       5
       5
       5
       5
       5
       5
       5
       5
       5
       5
       5
       5
       5
       5
       5
       5
       5
       5
       5
       5
       5
       5
       5
       5
       5
       5
       5
       5
       5
       5
       5
       5
       5
       5
       5
       5
       5
       5
       5
       5
       5
       5
       5
       5
       5
       5
       5
       5
       5
       5
       5
       5
       5
       5
       5
       5
       5
       5
       5
       5
       5
       5
       5
       5
       5
       5
       5
       5
       5
       5
       5
       5
       5
       5
       5
       5
       5
       5
       5
       5
       5
       5
       5
       5
       5
       5
       5
       5
       5
       5
       5
       5
       5
       5
       5
       5
       5
       5
       5
       5
       5
       5
       5
       5
       5
       5
       5
       5
       5
       5
       5
       5
       5
       5
       5
       5
       5
       5
       5
       5
       5
       5
       5
       5
       5
       5
       5
       5
       5
       5
       5
       5
       5
       5
       5
       5
       5
       5
       5
       5
       5
       5
       5
       5
       5
       5
       5
       5
       5
       5
       5
       5
       5
       5
       5
       5
       5
       5
       5
       5
       5
       5
       5
       5
       5
       5
       5
       5
       5
       5
       5
       5
       5
       5
       5
       5
       5
       5
       5
       5
       5
       5
       5
       5
       5
       5
       5
       5
       5
       5
       5
       5
       5
       5
       5
       5
       5
       5
       5
       5
       5
       5
       5
       5
       5
       5
       5
       5
       5
       5
       5
       5
       5
       5
       5
       5
       5
       5
       5
       5
       5
       5
       5
       5
       5
       5
       5
       5
       5
       5
       5
       5
       5
       5
       5
       5
       5
       5
       5
       5
       5
       5
       5
       5
       5
       5
       5
       5
       5
       5
       5
       5
       5
       5
       5
       5
       5
       5
       5
       5
       5
       5
       5
       5
       5
       5
       5
       5
       5
       5
       5
       5
       5
       5
       5
       5
       5
       5
       5
       5
       5
       5
       5
       5
       5
       5
       5
       5
       5
       5
       5
       5
       5
       5
       5
       5
       5
       5
       5
       5
       5
       5
       5
       5
       5
       5
       5
       5
       5
       5
       5
       5
       5
       5
       5
       5
       5
       5
       5
       5
       5
       5
       5
       5
       5
       5
       5
       5
       5
       5
       5
       5
       5
       5
       5
       5
       5
       5
       5
       5
       5
       5
       5
       5
       5
       5
       5
       5
       5
       5
       5
       5
       5
       5
       5
       5
       5
       5
       5
       5
       5
       5
       5
       5
       5
       5
       5
       5
       5
       5
       5
       5
       5
       5
       5
       5
       5
       5
       5
       5
       5
       5
       5
       5
       5
       5
       5
       5
       5
       5
       5
       5
       5
       5
       5
       5
       5
       5
       5
       5
       5
       5
       5
       5
       5
       5
       5
       5
       5
       5
       5
       5
       5
       5
       5
       5
       5
       5
       5
       5
       5
       5
       5
       5
       5
       5
       5
       5
       5
       5
       5
       5
       5
       5
       5
       5
       5
       5
       5
       5
       5
       5
       5
       5
       5
       5
       5
       5
       5
       5
       5
       5
       5
       5
       5
       5
       5
       5
       5
       5
       5
       5
       5
       5
       5
       5
       5
       5
       5
       5
       5
       5
       5
       5
       5
       5
       5
       5
       5
       5
       5
       5
       5
       5
       5
       5
       5
       5
       5
       5
       5
       5
       5
       5
       5
       5
       5
       5
       5
       5
       5
       5
       5
       5
       5
       5
       5
       5
       5
       5
       5
       5
       5
       5
       5
       5
       5
       5
       5
       5
       5
       5
       5
       5
       5
       5
       5
       5
       5
       5
       5
       5
       5
       5
       5
       5
       5
       5
       5
       5
       5
       5
       5
       5
       5
       5
       5
       5
       5
       5
       5
       5
       5
       5
       5
       5
       5
       5
       5
       5
       5
       5
       5
       5
       5
       5
       5
       5
       5
       5
       5
       5
       5
       5
       5
       5
       5
       5

POINT_DATA 6802
VECTORS displacement float
   -2.202897e-03    1.413662e-02    0.000000e+00
   -2.203659e-03    1.392813e-02    0.000000e+00
   -2.212404e-03    0.000000e+00    0.000000e+00
   -4.429498e-03    0.000000e+00    0.000000e+00
   -5.017137e-03    1.799212e-02    0.000000e+00
   -3.789898e-03    1.799448e-02    0.000000e+00
   -3.549982e-03    1.799452e-02    0.000000e+00
   -4.348229e-03    3.342776e-02    0.000000e+00
   -2.196155e-03    3.355408e-02    0.000000e+00
   -2.202660e-03    2.206056e-02    0.000000e+00
   -2.203446e-03    2.185187e-02    0.000000e+00
   -8.552342e-04    1.799410e-02    0.000000e+00
   -6.156317e-04    1.799437e-02    0.000000e+00
    6.107376e-04    1.799935e-02    0.000000e+00
    0.000000e+00    0.000000e+00    0.000000e+00
   -4.398357e-05    3.343458e-02    0.000000e+00
   -2.202455e-03    1.412048e-02    0.000000e+00
   -2.202930e-03    1.410879e-02    0.000000e+00
   -2.202953e-03    1.410088e-02    0.000000e+00
   -2.203731e-03    1.409497e-02    0.000000e+00
   -2.202912e-03    1.408956e-02    0.000000e+00
   -2.202954e-03    1.408433e-02    0.000000e+00
   -2.203052e-03    1.407891e-02    0.000000e+00
   -2.203049e-03    1.407302e-02    0.000000e+00
   -2.203138e-03    1.406644e-02    0.000000e+00
   -2.203128e-03    1.405900e-02    0.000000e+00
   -2.203216e-03    1.405061e-02    0.000000e+00
   -2.203298e-03    1.404114e-02    0.000000e+00
   -2.203261e-03    1.403078e-02    0.000000e+00
   -2.203295e-03    1.401946e-02    0.000000e+00
   -2.203378e-03    1.400699e-02    0.000000e+00
   -2.203414e-03    1.399345e-02    0.000000e+00
   -2.203454e-03    1.397873e-02    0.000000e+00
   -2.203522e-03    1.396298e-02    0.000000e+00
   -2.203577e-03    1.394606e-02    0.000000e+00
   -2.203765e-03    1.390647e-02    0.000000e+00
   -2.203853e-03    1.386780e-02    0.000000e+00
   -2.204030e-03    1.374818e-02    0.000000e+00
   -2.204146e-03    1.351388e-02    0.000000e+00
   -2.205261e-03    1.325076e-02    0.000000e+00
   -2.204664e-03    1.295806e-02    0.000000e+00
   -2.206844e-03    1.264620e-02    0.000000e+00
   -2.206045e-03    1.231997e-02    0.000000e+00
   -2.206553e-03    1.198148e-02    0.000000e+00
   -2.206901e-03    1.163345e-02    0.000000e+00
   -2.207070e-03    1.127795e-02    0.000000e+00
   -2.207358e-03    1.091589e-02    0.000000e+00
   -2.207515e-03    1.055049e-02    0.000000e+00
   -2.207899e-03    1.018033e-02    0.000000e+00
   -2.207995e-03    9.806901e-03    0.000000e+00
   -2.208294e-03    9.430099e-03    0.000000e+00
   -2.208532e-03    9.051353e-03    0.000000e+00
   -2.208825e-03    8.669948e-03    0.000000e+00
   -2.209079e-03    8.286407e-03    0.000000e+00
   -2.209247e-03    7.901000e-03    0.000000e+00
   -2.209635e-03    7.513972e-03    0.000000e+00
   -2.209753e-03    7.125633e-03    0.000000e+00
   -2.210051e-03    6.735933e-03    0.000000e+00
   -2.210240e-03    6.345266e-03    0.000000e+00
   -2.210465e-03    5.953374e-03    0.000000e+00
   -2.210693e-03    5.560461e-03    0.000000e+00
   -2.210901e-03    5.166634e-03    0.000000e+00
   -2.211118e-03    4.771982e-03    0.000000e+00
   -2.211241e-03    4.376678e-03    0.000000e+00
   -2.211460e-03    3.980695e-03    0.000000e+00
   -2.211625e-03    3.584229e-03    0.000000e+00
   -2.211777e-03    3.187217e-03    0.000000e+00
   -2.211922e-03    2.789750e-03    0.000000e+00
   -2.212048e-03    2.391896e-03    0.000000e+00
   -2.212161e-03    1.993701e-03    0.000000e+00
   -2.212234e-03    1.595285e-03    0.000000e+00
   -2.212327e-03    1.196638e-03    0.000000e+00
   -2.212362e-03    7.978553e-04    0.000000e+00
   -2.212394e-03    3.989448e-04    0.000000e+00
   -2.327131e-03    0.000000e+00    0.000000e+00
   -2.441909e-03    0.000000e+00    0.000000e+00
   -2.556809e-03    0.000000e+00    0.000000e+00
   -2.671868e-03    0.000000e+00    0.000000e+00
   -2.787119e-03    0.000000e+00    0.000000e+00
   -2.902613e-03    0.000000e+00    0.000000e+00
   -3.018393e-03    0.000000e+00    0.000000e+00
   -3.134468e-03    0.000000e+00    0.000000e+00
   -3.250834e-03    0.000000e+00    0.000000e+00
   -3.367561e-03    0.000000e+00    0.000000e+00
   -3.484674e-03    0.000000e+00    0.000000e+00
   -3.601994e-03    0.000000e+00    0.000000e+00
   -3.719667e-03    0.000000e+00    0.000000e+00
   -3.837558e-03    0.000000e+00    0.000000e+00
   -3.955713e-03    0.000000e+00    0.000000e+00
   -4.074062e-03    0.000000e+00    0.000000e+00
   -4.192534e-03    0.000000e+00    0.000000e+00
   -4.311074e-03    0.000000e+00    0.000000e+00
   -4.429354e-03    3.979027e-04    0.000000e+00
   -4.428839e-03    7.958636e-04    0.000000e+00
   -4.428036e-03    1.193888e-03    0.000000e+00
   -4.426849e-03    1.592096e-03    0.000000e+00
   -4.425312e-03    1.990498e-03    0.000000e+00
   -4.423534e-03    2.389202e-03    0.000000e+00
   -4.421410e-03    2.788245e-03    0.000000e+00
   -4.419004e-03    3.187697e-03    0.000000e+00
   -4.416407e-03    3.587650e-03    0.000000e+00
   -4.413572e-03    3.988133e-03    0.000000e+00
   -4.410568e-03    4.389281e-03    0.000000e+00
   -4.407298e-03    4.791219e-03    0.000000e+00
   -4.404260e-03    5.193952e-03    0.000000e+00
   -4.401006e-03    5.597735e-03    0.000000e+00
   -4.397857e-03    6.002242e-03    0.000000e+00
   -4.395076e-03    6.408032e-03    0.000000e+00
   -4.392576e-03    6.815139e-03    0.000000e+00
   -4.390490e-03    7.223780e-03    0.000000e+00
   -4.389223e-03    7.633883e-03    0.000000e+00
   -4.388851e-03    8.045617e-03    0.000000e+00
   -4.389623e-03    8.459103e-03    0.000000e+00
   -4.391412e-03    8.874766e-03    0.000000e+00
   -4.395348e-03    9.291997e-03    0.000000e+00
   -4.401242e-03    9.711335e-03    0.000000e+00
   -4.409372e-03    1.013288e-02    0.000000e+00
   -4.420642e-03    1.055588e-02    0.000000e+00
   -4.435377e-03    1.098200e-02    0.000000e+00
   -4.452548e-03    1.140795e-02    0.000000e+00
   -4.474355e-03    1.183578e-02    0.000000e+00
   -4.500659e-03    1.226544e-02    0.000000e+00
   -4.530977e-03    1.269513e-02    0.000000e+00
   -4.566048e-03    1.312356e-02    0.000000e+00
   -4.605551e-03    1.355209e-02    0.000000e+00
   -4.649012e-03    1.397802e-02    0.000000e+00
   -4.695961e-03    1.440107e-02    0.000000e+00
   -4.744948e-03    1.482018e-02    0.000000e+00
   -4.794941e-03    1.523463e-02    0.000000e+00
   -4.844843e-03    1.564375e-02    0.000000e+00
   -4.891159e-03    1.604759e-02    0.000000e+00
   -4.933778e-03    1.644486e-02    0.000000e+00
   -4.970029e-03    1.683714e-02    0.000000e+00
   -4.995830e-03    1.722374e-02    0.000000e+00
   -5.012559e-03    1.760886e-02    0.000000e+00
   -4.901759e-03    1.799220e-02    0.000000e+00
   -4.782127e-03    1.799221e-02    0.000000e+00
   -4.663571e-03    1.799235e-02    0.000000e+00
   -4.547012e-03    1.799235e-02    0.000000e+00
   -4.434472e-03    1.799292e-02    0.000000e+00
   -4.325940e-03    1.799189e-02    0.000000e+00
   -4.222621e-03    1.799203e-02    0.000000e+00
   -4.125101e-03    1.799367e-02    0.000000e+00
   -4.036642e-03    1.799333e-02    0.000000e+00
   -3.954813e-03    1.799362e-02    0.000000e+00
   -3.887938e-03    1.799383e-02    0.000000e+00
   -3.830243e-03    1.799442e-02    0.000000e+00
   -3.803356e-03    1.799444e-02    0.000000e+00
   -3.794820e-03    1.799442e-02    0.000000e+00
   -3.785543e-03    1.799450e-02    0.000000e+00
   -3.781664e-03    1.799442e-02    0.000000e+00
   -3.777779e-03    1.799442e-02    0.000000e+00
   -3.773732e-03    1.799428e-02    0.000000e+00
   -3.769605e-03    1.799424e-02    0.000000e+00
   -3.765526e-03    1.799437e-02    0.000000e+00
   -3.761129e-03    1.799476e-02    0.000000e+00
   -3.756464e-03    1.799448e-02    0.000000e+00
   -3.751144e-03    1.799412e-02    0.000000e+00
   -3.745054e-03    1.799407e-02    0.000000e+00
   -3.737980e-03    1.799424e-02    0.000000e+00
   -3.729846e-03    1.799428e-02    0.000000e+00
   -3.720033e-03    1.799447e-02    0.000000e+00
   -3.708343e-03    1.799423e-02    0.000000e+00
   -3.694059e-03    1.799408e-02    0.000000e+00
   -3.677087e-03    1.799427e-02    0.000000e+00
   -3.656051e-03    1.799452e-02    0.000000e+00
   -3.629217e-03    1.799395e-02    0.000000e+00
   -3.594895e-03    1.799441e-02    0.000000e+00
   -3.553039e-03    1.783647e-02    0.000000e+00
   -3.551390e-03    1.768152e-02    0.000000e+00
   -3.546035e-03    1.753064e-02    0.000000e+00
   -3.535017e-03    1.738090e-02    0.000000e+00
   -3.528487e-03    1.722539e-02    0.000000e+00
   -3.517403e-03    1.707272e-02    0.000000e+00
   -3.503425e-03    1.692045e-02    0.000000e+00
   -3.486537e-03    1.677177e-02    0.000000e+00
   -3.467878e-03    1.662502e-02    0.000000e+00
   -3.447962e-03    1.648029e-02    0.000000e+00
   -3.424891e-03    1.633776e-02    0.000000e+00
   -3.400650e-03    1.619777e-02    0.000000e+00
   -3.373623e-03    1.606260e-02    0.000000e+00
   -3.345249e-03    1.592923e-02    0.000000e+00
   -3.315076e-03    1.579929e-02    0.000000e+00
   -3.282873e-03    1.567345e-02    0.000000e+00
   -3.249257e-03    1.555041e-02    0.000000e+00
   -3.213183e-03    1.543263e-02    0.000000e+00
   -3.176573e-03    1.531792e-02    0.000000e+00
   -3.137495e-03    1.520809e-02    0.000000e+00
   -3.097188e-03    1.510261e-02    0.000000e+00
   -3.055401e-03    1.500206e-02    0.000000e+00
   -3.012512e-03    1.490635e-02    0.000000e+00
   -2.968400e-03    1.481538e-02    0.000000e+00
   -2.922937e-03    1.472970e-02    0.000000e+00
   -2.876402e-03    1.464927e-02    0.000000e+00
   -2.828765e-03    1.457422e-02    0.000000e+00
   -2.780006e-03    1.450473e-02    0.000000e+00
   -2.730417e-03    1.444090e-02    0.000000e+00
   -2.679921e-03    1.438284e-02    0.000000e+00
   -2.628755e-03    1.433060e-02    0.000000e+00
   -2.576514e-03    1.428430e-02    0.000000e+00
   -2.523691e-03    1.424408e-02    0.000000e+00
   -2.469707e-03    1.421034e-02    0.000000e+00
   -2.414485e-03    1.418479e-02    0.000000e+00
   -2.363470e-03    1.416116e-02    0.000000e+00
   -2.311758e-03    1.414557e-02    0.000000e+00
   -2.257623e-03    1.413713e-02    0.000000e+00
   -5.012537e-03    1.837243e-02    0.000000e+00
   -4.995968e-03    1.875469e-02    0.000000e+00
   -4.970468e-03    1.913831e-02    0.000000e+00
   -4.935066e-03    1.952760e-02    0.000000e+00
   -4.892868e-03    1.992165e-02    0.000000e+00
   -4.847378e-03    2.032227e-02    0.000000e+00
   -4.798087e-03    2.072783e-02    0.000000e+00
   -4.747958e-03    2.113888e-02    0.000000e+00
   -4.699718e-03    2.155417e-02    0.000000e+00
   -4.652729e-03    2.197325e-02    0.000000e+00
   -4.609425e-03    2.239524e-02    0.000000e+00
   -4.569853e-03    2.281993e-02    0.000000e+00
   -4.534589e-03    2.324439e-02    0.000000e+00
   -4.503529e-03    2.366998e-02    0.000000e+00
   -4.477215e-03    2.409566e-02    0.000000e+00
   -4.454600e-03    2.451902e-02    0.000000e+00
   -4.436099e-03    2.494249e-02    0.000000e+00
   -4.420874e-03    2.536351e-02    0.000000e+00
   -4.409290e-03    2.578308e-02    0.000000e+00
   -4.399555e-03    2.619975e-02    0.000000e+00
   -4.392666e-03    2.661490e-02    0.000000e+00
   -4.387740e-03    2.702802e-02    0.000000e+00
   -4.383758e-03    2.743846e-02    0.000000e+00
   -4.381525e-03    2.784770e-02    0.000000e+00
   -4.380036e-03    2.825464e-02    0.000000e+00
   -4.378940e-03    2.865943e-02    0.000000e+00
   -4.378622e-03    2.906290e-02    0.000000e+00
   -4.378040e-03    2.946455e-02    0.000000e+00
   -4.377544e-03    2.986478e-02    0.000000e+00
   -4.376632e-03    3.026358e-02    0.000000e+00
   -4.375478e-03    3.066115e-02    0.000000e+00
   -4.373587e-03    3.105786e-02    0.000000e+00
   -4.370951e-03    3.145386e-02    0.000000e+00
   -4.367788e-03    3.184911e-02    0.000000e+00
   -4.363719e-03    3.224391e-02    0.000000e+00
   -4.358961e-03    3.263853e-02    0.000000e+00
   -4.353729e-03    3.303315e-02    0.000000e+00
   -4.229807e-03    3.343316e-02    0.000000e+00
   -4.111244e-03    3.343874e-02    0.000000e+00
   -3.992654e-03    3.344491e-02    0.000000e+00
   -3.874317e-03    3.345161e-02    0.000000e+00
   -3.756385e-03    3.345923e-02    0.000000e+00
   -3.639147e-03    3.346729e-02    0.000000e+00
   -3.522650e-03    3.347618e-02    0.000000e+00
   -3.407114e-03    3.348515e-02    0.000000e+00
   -3.292583e-03    3.349457e-02    0.000000e+00
   -3.179011e-03    3.350361e-02    0.000000e+00
   -3.066524e-03    3.351283e-02    0.000000e+00
   -2.955104e-03    3.352127e-02    0.000000e+00
   -2.844706e-03    3.352935e-02    0.000000e+00
   -2.735227e-03    3.353614e-02    0.000000e+00
   -2.626238e-03    3.354256e-02    0.000000e+00
   -2.518055e-03    3.354745e-02    0.000000e+00
   -2.410662e-03    3.355117e-02    0.000000e+00
   -2.303304e-03    3.355342e-02    0.000000e+00
   -2.196374e-03    3.315874e-02    0.000000e+00
   -2.196525e-03    3.276313e-02    0.000000e+00
   -2.196666e-03    3.236749e-02    0.000000e+00
   -2.196863e-03    3.197204e-02    0.000000e+00
   -2.197059e-03    3.157686e-02    0.000000e+00
   -2.197264e-03    3.118235e-02    0.000000e+00
   -2.197453e-03    3.078849e-02    0.000000e+00
   -2.197607e-03    3.039548e-02    0.000000e+00
   -2.197770e-03    3.000334e-02    0.000000e+00
   -2.197943e-03    2.961217e-02    0.000000e+00
   -2.198130e-03    2.922212e-02    0.000000e+00
   -2.198369e-03    2.883343e-02    0.000000e+00
   -2.198556e-03    2.844601e-02    0.000000e+00
   -2.198752e-03    2.806016e-02    0.000000e+00
   -2.198911e-03    2.767600e-02    0.000000e+00
   -2.199105e-03    2.729373e-02    0.000000e+00
   -2.199314e-03    2.691353e-02    0.000000e+00
   -2.199656e-03    2.653565e-02    0.000000e+00
   -2.199662e-03    2.616069e-02    0.000000e+00
   -2.199977e-03    2.578851e-02    0.000000e+00
   -2.199754e-03    2.541997e-02    0.000000e+00
   -2.200417e-03    2.505570e-02    0.000000e+00
   -2.199599e-03    2.469660e-02    0.000000e+00
   -2.200469e-03    2.434294e-02    0.000000e+00
   -2.200481e-03    2.399695e-02    0.000000e+00
   -2.200390e-03    2.366038e-02    0.000000e+00
   -2.200878e-03    2.333433e-02    0.000000e+00
   -2.202160e-03    2.302653e-02    0.000000e+00
   -2.201687e-03    2.273458e-02    0.000000e+00
   -2.202699e-03    2.247161e-02    0.000000e+00
   -2.202495e-03    2.224076e-02    0.000000e+00
   -2.202539e-03    2.212079e-02    0.000000e+00
   -2.202626e-03    2.208214e-02    0.000000e+00
   -2.202725e-03    2.204263e-02    0.000000e+00
   -2.202798e-03    2.202562e-02    0.000000e+00
   -2.202866e-03    2.200965e-02    0.000000e+00
   -2.202899e-03    2.199468e-02    0.000000e+00
   -2.203010e-03    2.198093e-02    0.000000e+00
   -2.203023e-03    2.196843e-02    0.000000e+00
   -2.203063e-03    2.195705e-02    0.000000e+00
   -2.203182e-03    2.194669e-02    0.000000e+00
   -2.203184e-03    2.193724e-02    0.000000e+00
   -2.203308e-03    2.192882e-02    0.000000e+00
   -2.203239e-03    2.192132e-02    0.000000e+00
   -2.203424e-03    2.191466e-02    0.000000e+00
   -2.203351e-03    2.190864e-02    0.000000e+00
   -2.203450e-03    2.190306e-02    0.000000e+00
   -2.203353e-03    2.189768e-02    0.000000e+00
   -2.203495e-03    2.189243e-02    0.000000e+00
   -2.203205e-03    2.188593e-02    0.000000e+00
   -2.203919e-03    2.187959e-02    0.000000e+00
   -2.204157e-03    2.186778e-02    0.000000e+00
   -2.257113e-03    2.185135e-02    0.000000e+00
   -2.311275e-03    2.184170e-02    0.000000e+00
   -2.364174e-03    2.182364e-02    0.000000e+00
   -2.417925e-03    2.180437e-02    0.000000e+00
   -2.471849e-03    2.177644e-02    0.000000e+00
   -2.525356e-03    2.174229e-02    0.000000e+00
   -2.578330e-03    2.170183e-02    0.000000e+00
   -2.630011e-03    2.165524e-02    0.000000e+00
   -2.681019e-03    2.160290e-02    0.000000e+00
   -2.731515e-03    2.154469e-02    0.000000e+00
   -2.781017e-03    2.148076e-02    0.000000e+00
   -2.829663e-03    2.141119e-02    0.000000e+00
   -2.877140e-03    2.133605e-02    0.000000e+00
   -2.923592e-03    2.125559e-02    0.000000e+00
   -2.968767e-03    2.116985e-02    0.000000e+00
   -3.012919e-03    2.107917e-02    0.000000e+00
   -3.055702e-03    2.098329e-02    0.000000e+00
   -3.096933e-03    2.088256e-02    0.000000e+00
   -3.137088e-03    2.077758e-02    0.000000e+00
   -3.175921e-03    2.066801e-02    0.000000e+00
   -3.212371e-03    2.055308e-02    0.000000e+00
   -3.248364e-03    2.043569e-02    0.000000e+00
   -3.282047e-03    2.031266e-02    0.000000e+00
   -3.313930e-03    2.018694e-02    0.000000e+00
   -3.344349e-03    2.005750e-02    0.000000e+00
   -3.372793e-03    1.992432e-02    0.000000e+00
   -3.399088e-03    1.978788e-02    0.000000e+00
   -3.423320e-03    1.964897e-02    0.000000e+00
   -3.446190e-03    1.950803e-02    0.000000e+00
   -3.466936e-03    1.936327e-02    0.000000e+00
   -3.485007e-03    1.921635e-02    0.000000e+00
   -3.501972e-03    1.906886e-02    0.000000e+00
   -3.516852e-03    1.891795e-02    0.000000e+00
   -3.528801e-03    1.876397e-02    0.000000e+00
   -3.534520e-03    1.860688e-02    0.000000e+00
   -3.545643e-03    1.845819e-02    0.000000e+00
   -3.551285e-03    1.830623e-02    0.000000e+00
   -3.552865e-03    1.815135e-02    0.000000e+00
   -8.104913e-04    1.799305e-02    0.000000e+00
   -7.760000e-04    1.799314e-02    0.000000e+00
   -7.495499e-04    1.799351e-02    0.000000e+00
   -7.282175e-04    1.799414e-02    0.000000e+00
   -7.115238e-04    1.799437e-02    0.000000e+00
   -6.972340e-04    1.799417e-02    0.000000e+00
   -6.855750e-04    1.799393e-02    0.000000e+00
   -6.757748e-04    1.799411e-02    0.000000e+00
   -6.674067e-04    1.799415e-02    0.000000e+00
   -6.600200e-04    1.799404e-02    0.000000e+00
   -6.539555e-04    1.799403e-02    0.000000e+00
   -6.485985e-04    1.799407e-02    0.000000e+00
   -6.440621e-04    1.799411e-02    0.000000e+00
   -6.397306e-04    1.799410e-02    0.000000e+00
   -6.357018e-04    1.799405e-02    0.000000e+00
   -6.317432e-04    1.799410e-02    0.000000e+00
   -6.276676e-04    1.799417e-02    0.000000e+00
   -6.240894e-04    1.799404e-02    0.000000e+00
   -6.199480e-04    1.799426e-02    0.000000e+00
   -6.106495e-04    1.799442e-02    0.000000e+00
   -6.021444e-04    1.799452e-02    0.000000e+00
   -5.752057e-04    1.799464e-02    0.000000e+00
   -5.190497e-04    1.799554e-02    0.000000e+00
   -4.512768e-04    1.799542e-02    0.000000e+00
   -3.704161e-04    1.799623e-02    0.000000e+00
   -2.813755e-04    1.799629e-02    0.000000e+00
   -1.842991e-04    1.799719e-02    0.000000e+00
   -8.058188e-05    1.799653e-02    0.000000e+00
    2.818269e-05    1.799782e-02    0.000000e+00
    1.416874e-04    1.799795e-02    0.000000e+00
    2.570918e-04    1.799777e-02    0.000000e+00
    3.756270e-04    1.799863e-02    0.000000e+00
    4.953421e-04    1.799891e-02    0.000000e+00
    6.056566e-04    1.761611e-02    0.000000e+00
    5.884377e-04    1.723099e-02    0.000000e+00
    5.621800e-04    1.684440e-02    0.000000e+00
    5.255689e-04    1.645210e-02    0.000000e+00
    4.821624e-04    1.605502e-02    0.000000e+00
    4.354751e-04    1.565135e-02    0.000000e+00
    3.852241e-04    1.524217e-02    0.000000e+00
    3.345780e-04    1.482760e-02    0.000000e+00
    2.851558e-04    1.440838e-02    0.000000e+00
    2.378401e-04    1.398528e-02    0.000000e+00
    1.939099e-04    1.355939e-02    0.000000e+00
    1.538309e-04    1.313093e-02    0.000000e+00
    1.183802e-04    1.270211e-02    0.000000e+00
    8.726912e-05    1.227259e-02    0.000000e+00
    6.095423e-05    1.184331e-02    0.000000e+00
    3.849243e-05    1.141514e-02    0.000000e+00
    2.021821e-05    1.098823e-02    0.000000e+00
    5.462458e-06    1.056288e-02    0.000000e+00
   -6.254995e-06    1.013945e-02    0.000000e+00
   -1.497148e-05    9.717942e-03    0.000000e+00
   -2.133501e-05    9.298591e-03    0.000000e+00
   -2.536312e-05    8.880804e-03    0.000000e+00
   -2.826521e-05    8.465319e-03    0.000000e+00
   -2.932362e-05    8.051601e-03    0.000000e+00
   -2.934772e-05    7.639627e-03    0.000000e+00
   -2.843217e-05    7.229482e-03    0.000000e+00
   -2.698184e-05    6.820594e-03    0.000000e+00
   -2.495468e-05    6.413278e-03    0.000000e+00
   -2.253533e-05    6.007176e-03    0.000000e+00
   -1.970114e-05    5.602252e-03    0.000000e+00
   -1.696186e-05    5.198356e-03    0.000000e+00
   -1.425826e-05    4.795424e-03    0.000000e+00
   -1.146334e-05    4.393197e-03    0.000000e+00
   -8.844448e-06    3.991777e-03    0.000000e+00
   -6.367122e-06    3.591029e-03    0.000000e+00
   -4.144680e-06    3.190828e-03    0.000000e+00
   -2.135886e-06    2.791108e-03    0.000000e+00
   -4.002994e-07    2.391803e-03    0.000000e+00
    9.532669e-07    1.992780e-03    0.000000e+00
    2.012472e-06    1.594079e-03    0.000000e+00
    2.658275e-06    1.195548e-03    0.000000e+00
    2.758708e-06    7.971392e-04    0.000000e+00
    2.063302e-06    3.986126e-04    0.000000e+00
   -1.171182e-04    0.000000e+00    0.000000e+00
   -2.346932e-04    0.000000e+00    0.000000e+00
   -3.526568e-04    0.000000e+00    0.000000e+00
   -4.705770e-04    0.000000e+00    0.000000e+00
   -5.884451e-04    0.000000e+00    0.000000e+00
   -7.061531e-04    0.000000e+00    0.000000e+00
   -8.236408e-04    0.000000e+00    0.000000e+00
   -9.408442e-04    0.000000e+00    0.000000e+00
   -1.057767e-03    0.000000e+00    0.000000e+00
   -1.174375e-03    0.000000e+00    0.000000e+00
   -1.290641e-03    0.000000e+00    0.000000e+00
   -1.406628e-03    0.000000e+00    0.000000e+00
   -1.522320e-03    0.000000e+00    0.000000e+00
   -1.637824e-03    0.000000e+00    0.000000e+00
   -1.753042e-03    0.000000e+00    0.000000e+00
   -1.868053e-03    0.000000e+00    0.000000e+00
   -1.982927e-03    0.000000e+00    0.000000e+00
   -2.097683e-03    0.000000e+00    0.000000e+00
   -2.148625e-03    1.413749e-02    0.000000e+00
   -2.095614e-03    1.414614e-02    0.000000e+00
   -2.042903e-03    1.416052e-02    0.000000e+00
   -1.989365e-03    1.418244e-02    0.000000e+00
   -1.935471e-03    1.421063e-02    0.000000e+00
   -1.882467e-03    1.424532e-02    0.000000e+00
   -1.829857e-03    1.428538e-02    0.000000e+00
   -1.777722e-03    1.433153e-02    0.000000e+00
   -1.726423e-03    1.438374e-02    0.000000e+00
   -1.675837e-03    1.444185e-02    0.000000e+00
   -1.626350e-03    1.450581e-02    0.000000e+00
   -1.577742e-03    1.457533e-02    0.000000e+00
   -1.530136e-03    1.465037e-02    0.000000e+00
   -1.483683e-03    1.473076e-02    0.000000e+00
   -1.438312e-03    1.481639e-02    0.000000e+00
   -1.394158e-03    1.490724e-02    0.000000e+00
   -1.351261e-03    1.500307e-02    0.000000e+00
   -1.309706e-03    1.510363e-02    0.000000e+00
   -1.269527e-03    1.520893e-02    0.000000e+00
   -1.230936e-03    1.531884e-02    0.000000e+00
   -1.193803e-03    1.543305e-02    0.000000e+00
   -1.158069e-03    1.555122e-02    0.000000e+00
   -1.124211e-03    1.567382e-02    0.000000e+00
   -1.092067e-03    1.579979e-02    0.000000e+00
   -1.061885e-03    1.592962e-02    0.000000e+00
   -1.033380e-03    1.606254e-02    0.000000e+00
   -1.007007e-03    1.619920e-02    0.000000e+00
   -9.824953e-04    1.633813e-02    0.000000e+00
   -9.597434e-04    1.647952e-02    0.000000e+00
   -9.389028e-04    1.662431e-02    0.000000e+00
   -9.206014e-04    1.677117e-02    0.000000e+00
   -9.040063e-04    1.691971e-02    0.000000e+00
   -8.898476e-04    1.707088e-02    0.000000e+00
   -8.771482e-04    1.722279e-02    0.000000e+00
   -8.667992e-04    1.737636e-02    0.000000e+00
   -8.602630e-04    1.753060e-02    0.000000e+00
   -8.553211e-04    1.768364e-02    0.000000e+00
   -8.517670e-04    1.783695e-02    0.000000e+00
   -2.089012e-03    3.355387e-02    0.000000e+00
   -1.981687e-03    3.355187e-02    0.000000e+00
   -1.874250e-03    3.354849e-02    0.000000e+00
   -1.766169e-03    3.354394e-02    0.000000e+00
   -1.657424e-03    3.353805e-02    0.000000e+00
   -1.547754e-03    3.353136e-02    0.000000e+00
   -1.437306e-03    3.352359e-02    0.000000e+00
   -1.325810e-03    3.351542e-02    0.000000e+00
   -1.213269e-03    3.350666e-02    0.000000e+00
   -1.099628e-03    3.349779e-02    0.000000e+00
   -9.849337e-04    3.348898e-02    0.000000e+00
   -8.695320e-04    3.348033e-02    0.000000e+00
   -7.530479e-04    3.347190e-02    0.000000e+00
   -6.357157e-04    3.346412e-02    0.000000e+00
   -5.178940e-04    3.345710e-02    0.000000e+00
   -3.995677e-04    3.345064e-02    0.000000e+00
   -2.810544e-04    3.344488e-02    0.000000e+00
   -1.624346e-04    3.343959e-02    0.000000e+00
   -3.886875e-05    3.303987e-02    0.000000e+00
   -3.399421e-05    3.264528e-02    0.000000e+00
   -2.955645e-05    3.225071e-02    0.000000e+00
   -2.584656e-05    3.185590e-02    0.000000e+00
   -2.300988e-05    3.146073e-02    0.000000e+00
   -2.077644e-05    3.106484e-02    0.000000e+00
   -1.930946e-05    3.066816e-02    0.000000e+00
   -1.844029e-05    3.027044e-02    0.000000e+00
   -1.781888e-05    2.987155e-02    0.000000e+00
   -1.785904e-05    2.947141e-02    0.000000e+00
   -1.765660e-05    2.906977e-02    0.000000e+00
   -1.769046e-05    2.866644e-02    0.000000e+00
   -1.698093e-05    2.826156e-02    0.000000e+00
   -1.587792e-05    2.785481e-02    0.000000e+00
   -1.398917e-05    2.744597e-02    0.000000e+00
   -1.071938e-05    2.703514e-02    0.000000e+00
   -5.928073e-06    2.662225e-02    0.000000e+00
    7.772599e-07    2.620726e-02    0.000000e+00
    9.382944e-06    2.578967e-02    0.000000e+00
    2.115691e-05    2.537066e-02    0.000000e+00
    3.586890e-05    2.494959e-02    0.000000e+00
    5.391100e-05    2.452660e-02    0.000000e+00
    7.599879e-05    2.410235e-02    0.000000e+00
    1.022693e-04    2.367707e-02    0.000000e+00
    1.328257e-04    2.325145e-02    0.000000e+00
    1.677316e-04    2.282677e-02    0.000000e+00
    2.069250e-04    2.240198e-02    0.000000e+00
    2.500627e-04    2.197985e-02    0.000000e+00
    2.964880e-04    2.156053e-02    0.000000e+00
    3.448952e-04    2.114510e-02    0.000000e+00
    3.942031e-04    2.073428e-02    0.000000e+00
    4.433492e-04    2.032879e-02    0.000000e+00
    4.888512e-04    1.992841e-02    0.000000e+00
    5.304860e-04    1.953468e-02    0.000000e+00
    5.658378e-04    1.914565e-02    0.000000e+00
    5.907468e-04    1.876202e-02    0.000000e+00
    6.067787e-04    1.837963e-02    0.000000e+00
   -8.526017e-04    1.815086e-02    0.000000e+00
   -8.539307e-04    1.830626e-02    0.000000e+00
   -8.593962e-04    1.845767e-02    0.000000e+00
   -8.704464e-04    1.860727e-02    0.000000e+00
   -8.765419e-04    1.876265e-02    0.000000e+00
   -8.880377e-04    1.891649e-02    0.000000e+00
   -9.021631e-04    1.906778e-02    0.000000e+00
   -9.187995e-04    1.921735e-02    0.000000e+00
   -9.375117e-04    1.936356e-02    0.000000e+00
   -9.582248e-04    1.950780e-02    0.000000e+00
   -9.806501e-04    1.965023e-02    0.000000e+00
   -1.005341e-03    1.978948e-02    0.000000e+00
   -1.032076e-03    1.992543e-02    0.000000e+00
   -1.060319e-03    2.005895e-02    0.000000e+00
   -1.090847e-03    2.018844e-02    0.000000e+00
   -1.122797e-03    2.031466e-02    0.000000e+00
   -1.156787e-03    2.043715e-02    0.000000e+00
   -1.192459e-03    2.055558e-02    0.000000e+00
   -1.229600e-03    2.066995e-02    0.000000e+00
   -1.268398e-03    2.078001e-02    0.000000e+00
   -1.308649e-03    2.088541e-02    0.000000e+00
   -1.350272e-03    2.098616e-02    0.000000e+00
   -1.393322e-03    2.108194e-02    0.000000e+00
   -1.437606e-03    2.117275e-02    0.000000e+00
   -1.483070e-03    2.125847e-02    0.000000e+00
   -1.529714e-03    2.133890e-02    0.000000e+00
   -1.577431e-03    2.141394e-02    0.000000e+00
   -1.626316e-03    2.148335e-02    0.000000e+00
   -1.675937e-03    2.154716e-02    0.000000e+00
   -1.726431e-03    2.160517e-02    0.000000e+00
   -1.777831e-03    2.165736e-02    0.000000e+00
   -1.830236e-03    2.170339e-02    0.000000e+00
   -1.882814e-03    2.174333e-02    0.000000e+00
   -1.936484e-03    2.177741e-02    0.000000e+00
   -1.989927e-03    2.180528e-02    0.000000e+00
   -2.043768e-03    2.182650e-02    0.000000e+00
   -2.096405e-03    2.184189e-02    0.000000e+00
   -2.149457e-03    2.185116e-02    0.000000e+00
   -2.286602e-03    1.407191e-02    0.000000e+00
   -2.543689e-03    1.492424e-02    0.000000e+00
   -2.801479e-03    1.539574e-02    0.000000e+00
   -3.099007e-03    1.577217e-02    0.000000e+00
   -3.359487e-03    1.599279e-02    0.000000e+00
   -3.572053e-03    1.607079e-02    0.000000e+00
   -3.782686e-03    1.622750e-02    0.000000e+00
   -3.944061e-03    1.618966e-02    0.000000e+00
   -4.131633e-03    1.616702e-02    0.000000e+00
   -4.282216e-03    1.631207e-02    0.000000e+00
   -4.402046e-03    1.629827e-02    0.000000e+00
   -4.581763e-03    1.622784e-02    0.000000e+00
   -4.752644e-03    1.625882e-02    0.000000e+00
   -4.848022e-03    1.690548e-02    0.000000e+00
   -4.659850e-03    1.692909e-02    0.000000e+00
   -4.469449e-03    1.690869e-02    0.000000e+00
   -4.329448e-03    1.685023e-02    0.000000e+00
   -4.186300e-03    1.679848e-02    0.000000e+00
   -4.066511e-03    1.681914e-02    0.000000e+00
   -3.888399e-03    1.681827e-02    0.000000e+00
   -3.704727e-03    1.667676e-02    0.000000e+00
   -3.559242e-03    1.665884e-02    0.000000e+00
   -3.370727e-03    1.652111e-02    0.000000e+00
   -3.131897e-03    1.618946e-02    0.000000e+00
   -2.434019e-03    1.440170e-02    0.000000e+00
   -2.674898e-03    1.478117e-02    0.000000e+00
   -2.944931e-03    1.511851e-02    0.000000e+00
   -3.210414e-03    1.530624e-02    0.000000e+00
   -3.430564e-03    1.544832e-02    0.000000e+00
   -3.641502e-03    1.547556e-02    0.000000e+00
   -3.832309e-03    1.556353e-02    0.000000e+00
   -4.018314e-03    1.557656e-02    0.000000e+00
   -4.228162e-03    1.559816e-02    0.000000e+00
   -4.371480e-03    1.569596e-02    0.000000e+00
   -4.539939e-03    1.582942e-02    0.000000e+00
   -4.723046e-03    1.586432e-02    0.000000e+00
   -2.307586e-03    1.343195e-02    0.000000e+00
   -2.434388e-03    1.349288e-02    0.000000e+00
   -2.579249e-03    1.359651e-02    0.000000e+00
   -2.790571e-03    1.384948e-02    0.000000e+00
   -2.980838e-03    1.406367e-02    0.000000e+00
   -3.251081e-03    1.419656e-02    0.000000e+00
   -3.468549e-03    1.427289e-02    0.000000e+00
   -3.638745e-03    1.430354e-02    0.000000e+00
   -3.884362e-03    1.443561e-02    0.000000e+00
   -4.040454e-03    1.442770e-02    0.000000e+00
   -4.210773e-03    1.435874e-02    0.000000e+00
   -4.350002e-03    1.446213e-02    0.000000e+00
   -4.590904e-03    1.455934e-02    0.000000e+00
   -4.562891e-03    1.512028e-02    0.000000e+00
   -4.440440e-03    1.507778e-02    0.000000e+00
   -4.297703e-03    1.503441e-02    0.000000e+00
   -4.139692e-03    1.495880e-02    0.000000e+00
   -3.920649e-03    1.499871e-02    0.000000e+00
   -3.699578e-03    1.493145e-02    0.000000e+00
   -3.503720e-03    1.485446e-02    0.000000e+00
   -3.295233e-03    1.483383e-02    0.000000e+00
   -3.085069e-03    1.464071e-02    0.000000e+00
   -2.855609e-03    1.441581e-02    0.000000e+00
   -2.615810e-03    1.426131e-02    0.000000e+00
   -2.417929e-03    1.396655e-02    0.000000e+00
   -2.300536e-03    1.375432e-02    0.000000e+00
   -2.316225e-03    1.279692e-02    0.000000e+00
   -2.444266e-03    1.297379e-02    0.000000e+00
   -2.602122e-03    1.317982e-02    0.000000e+00
   -2.785019e-03    1.328842e-02    0.000000e+00
   -2.975379e-03    1.345933e-02    0.000000e+00
   -3.172020e-03    1.359385e-02    0.000000e+00
   -3.363292e-03    1.357312e-02    0.000000e+00
   -3.578845e-03    1.373079e-02    0.000000e+00
   -3.812253e-03    1.385607e-02    0.000000e+00
   -3.950044e-03    1.396003e-02    0.000000e+00
   -4.177568e-03    1.391484e-02    0.000000e+00
   -4.317364e-03    1.392142e-02    0.000000e+00
   -4.427672e-03    1.393148e-02    0.000000e+00
   -2.345704e-03    1.252432e-02    0.000000e+00
   -2.455938e-03    1.248577e-02    0.000000e+00
   -2.614934e-03    1.260043e-02    0.000000e+00
   -2.772677e-03    1.268287e-02    0.000000e+00
   -2.955564e-03    1.280616e-02    0.000000e+00
   -3.152292e-03    1.294420e-02    0.000000e+00
   -3.346287e-03    1.298639e-02    0.000000e+00
   -3.507559e-03    1.308174e-02    0.000000e+00
   -3.736236e-03    1.317802e-02    0.000000e+00
   -3.852687e-03    1.313135e-02    0.000000e+00
   -4.104201e-03    1.320804e-02    0.000000e+00
   -4.252137e-03    1.329556e-02    0.000000e+00
   -4.374136e-03    1.330907e-02    0.000000e+00
   -2.367546e-03    1.200232e-02    0.000000e+00
   -2.449299e-03    1.201714e-02    0.000000e+00
   -2.629503e-03    1.212023e-02    0.000000e+00
   -2.781626e-03    1.209051e-02    0.000000e+00
   -2.936437e-03    1.223076e-02    0.000000e+00
   -3.118367e-03    1.227852e-02    0.000000e+00
   -3.311299e-03    1.247581e-02    0.000000e+00
   -3.491488e-03    1.244534e-02    0.000000e+00
   -3.692977e-03    1.254255e-02    0.000000e+00
   -3.822187e-03    1.268533e-02    0.000000e+00
   -4.067112e-03    1.274591e-02    0.000000e+00
   -4.217431e-03    1.275602e-02    0.000000e+00
   -4.388585e-03    1.289430e-02    0.000000e+00
   -2.300355e-03    1.148194e-02    0.000000e+00
   -2.482135e-03    1.152093e-02    0.000000e+00
   -2.583233e-03    1.157119e-02    0.000000e+00
   -2.757342e-03    1.165089e-02    0.000000e+00
   -2.920669e-03    1.170119e-02    0.000000e+00
   -3.106524e-03    1.176574e-02    0.000000e+00
   -3.274170e-03    1.176933e-02    0.000000e+00
   -3.448913e-03    1.184289e-02    0.000000e+00
   -3.610387e-03    1.199631e-02    0.000000e+00
   -3.805407e-03    1.195873e-02    0.000000e+00
   -4.017266e-03    1.203036e-02    0.000000e+00
   -4.165675e-03    1.207941e-02    0.000000e+00
   -4.319801e-03    1.206556e-02    0.000000e+00
   -2.348025e-03    1.095377e-02    0.000000e+00
   -2.466735e-03    1.099249e-02    0.000000e+00
   -2.577489e-03    1.104143e-02    0.000000e+00
   -2.757040e-03    1.114945e-02    0.000000e+00
   -2.929036e-03    1.116648e-02    0.000000e+00
   -3.093613e-03    1.120013e-02    0.000000e+00
   -3.264453e-03    1.124691e-02    0.000000e+00
   -3.473335e-03    1.137239e-02    0.000000e+00
   -3.591998e-03    1.130696e-02    0.000000e+00
   -3.777173e-03    1.149327e-02    0.000000e+00
   -3.989787e-03    1.143056e-02    0.000000e+00
   -4.135687e-03    1.145739e-02    0.000000e+00
   -4.316705e-03    1.149762e-02    0.000000e+00
   -2.335269e-03    1.030990e-02    0.000000e+00
   -2.488425e-03    1.035075e-02    0.000000e+00
   -2.611313e-03    1.046918e-02    0.000000e+00
   -2.737961e-03    1.047919e-02    0.000000e+00
   -2.931822e-03    1.056088e-02    0.000000e+00
   -3.085396e-03    1.073078e-02    0.000000e+00
   -3.236294e-03    1.070208e-02    0.000000e+00
   -3.444661e-03    1.076981e-02    0.000000e+00
   -3.618050e-03    1.074610e-02    0.000000e+00
   -3.782934e-03    1.091387e-02    0.000000e+00
   -3.941687e-03    1.091651e-02    0.000000e+00
   -4.072451e-03    1.091172e-02    0.000000e+00
   -4.281139e-03    1.090737e-02    0.000000e+00
   -2.355687e-03    9.973252e-03    0.000000e+00
   -2.517513e-03    1.000893e-02    0.000000e+00
   -2.623071e-03    9.981357e-03    0.000000e+00
   -2.742774e-03    1.004595e-02    0.000000e+00
   -2.950192e-03    1.007769e-02    0.000000e+00
   -3.063420e-03    1.011563e-02    0.000000e+00
   -3.257379e-03    1.012897e-02    0.000000e+00
   -3.395881e-03    1.020194e-02    0.000000e+00
   -3.579932e-03    1.018082e-02    0.000000e+00
   -3.770059e-03    1.023348e-02    0.000000e+00
   -3.928205e-03    1.039769e-02    0.000000e+00
   -4.085074e-03    1.029794e-02    0.000000e+00
   -4.269204e-03    1.041345e-02    0.000000e+00
   -2.354759e-03    9.406159e-03    0.000000e+00
   -2.491859e-03    9.328132e-03    0.000000e+00
   -2.624406e-03    9.380165e-03    0.000000e+00
   -2.752205e-03    9.381503e-03    0.000000e+00
   -2.932837e-03    9.459245e-03    0.000000e+00
   -3.060085e-03    9.429851e-03    0.000000e+00
   -3.247344e-03    9.506094e-03    0.000000e+00
   -3.411532e-03    9.660442e-03    0.000000e+00
   -3.573320e-03    9.711245e-03    0.000000e+00
   -3.776122e-03    9.763610e-03    0.000000e+00
   -3.917600e-03    9.747102e-03    0.000000e+00
   -4.063204e-03    9.808825e-03    0.000000e+00
   -4.185957e-03    9.732888e-03    0.000000e+00
   -2.308364e-03    8.845730e-03    0.000000e+00
   -2.494438e-03    8.964812e-03    0.000000e+00
   -2.659256e-03    8.890381e-03    0.000000e+00
   -2.777753e-03    8.915583e-03    0.000000e+00
   -2.922404e-03    8.962999e-03    0.000000e+00
   -3.051780e-03    9.014574e-03    0.000000e+00
   -3.239621e-03    9.017963e-03    0.000000e+00
   -3.443946e-03    9.124992e-03    0.000000e+00
   -3.553924e-03    9.060431e-03    0.000000e+00
   -3.769240e-03    9.046252e-03    0.000000e+00
   -3.902639e-03    9.097692e-03    0.000000e+00
   -4.020555e-03    9.055453e-03    0.000000e+00
   -4.256456e-03    9.046446e-03    0.000000e+00
   -2.406948e-03    8.324216e-03    0.000000e+00
   -2.513051e-03    8.367744e-03    0.000000e+00
   -2.638703e-03    8.384903e-03    0.000000e+00
   -2.781448e-03    8.413295e-03    0.000000e+00
   -2.923603e-03    8.384384e-03    0.000000e+00
   -3.059414e-03    8.358529e-03    0.000000e+00
   -3.256348e-03    8.442879e-03    0.000000e+00
   -3.436736e-03    8.408722e-03    0.000000e+00
   -3.552358e-03    8.515563e-03    0.000000e+00
   -3.768928e-03    8.590570e-03    0.000000e+00
   -3.904521e-03    8.574982e-03    0.000000e+00
   -4.037946e-03    8.665872e-03    0.000000e+00
   -4.180809e-03    8.652661e-03    0.000000e+00
   -2.406012e-03    7.751470e-03    0.000000e+00
   -2.526053e-03    7.793384e-03    0.000000e+00
   -2.649412e-03    7.815347e-03    0.000000e+00
   -2.780747e-03    7.854987e-03    0.000000e+00
   -2.925319e-03    7.764178e-03    0.000000e+00
   -3.083022e-03    7.905786e-03    0.000000e+00
   -3.250282e-03    7.815078e-03    0.000000e+00
   -3.424085e-03    7.890120e-03    0.000000e+00
   -3.556353e-03    7.899010e-03    0.000000e+00
   -3.767481e-03    7.888605e-03    0.000000e+00
   -3.910180e-03    7.930596e-03    0.000000e+00
   -4.045246e-03    7.950014e-03    0.000000e+00
   -4.163250e-03    7.995999e-03    0.000000e+00
   -2.359520e-03    7.353895e-03    0.000000e+00
   -2.517622e-03    7.260266e-03    0.000000e+00
   -2.651474e-03    7.245391e-03    0.000000e+00
   -2.779526e-03    7.261868e-03    0.000000e+00
   -2.914445e-03    7.316880e-03    0.000000e+00
   -3.122216e-03    7.319686e-03    0.000000e+00
   -3.252257e-03    7.318569e-03    0.000000e+00
   -3.425843e-03    7.354842e-03    0.000000e+00
   -3.587220e-03    7.370865e-03    0.000000e+00
   -3.747430e-03    7.393183e-03    0.000000e+00
   -3.875898e-03    7.391972e-03    0.000000e+00
   -4.055568e-03    7.299865e-03    0.000000e+00
   -4.270198e-03    7.420714e-03    0.000000e+00
   -2.364452e-03    6.669439e-03    0.000000e+00
   -2.507383e-03    6.571917e-03    0.000000e+00
   -2.659128e-03    6.566110e-03    0.000000e+00
   -2.793385e-03    6.638955e-03    0.000000e+00
   -2.926325e-03    6.641760e-03    0.000000e+00
   -3.129720e-03    6.726813e-03    0.000000e+00
   -3.260522e-03    6.788019e-03    0.000000e+00
   -3.408955e-03    6.909035e-03    0.000000e+00
   -3.622056e-03    6.783938e-03    0.000000e+00
   -3.756925e-03    6.904432e-03    0.000000e+00
   -3.903164e-03    6.870590e-03    0.000000e+00
   -4.052592e-03    6.917643e-03    0.000000e+00
   -4.181469e-03    6.852094e-03    0.000000e+00
   -2.314692e-03    6.128883e-03    0.000000e+00
   -2.506393e-03    6.229601e-03    0.000000e+00
   -2.666180e-03    6.234171e-03    0.000000e+00
   -2.830712e-03    6.151922e-03    0.000000e+00
   -2.955447e-03    6.166258e-03    0.000000e+00
   -3.113429e-03    6.199719e-03    0.000000e+00
   -3.267410e-03    6.241095e-03    0.000000e+00
   -3.400940e-03    6.201774e-03    0.000000e+00
   -3.622103e-03    6.164784e-03    0.000000e+00
   -3.761511e-03    6.207691e-03    0.000000e+00
   -3.899341e-03    6.150295e-03    0.000000e+00
   -4.038180e-03    6.146572e-03    0.000000e+00
   -4.279320e-03    6.247440e-03    0.000000e+00
   -2.413696e-03    5.594927e-03    0.000000e+00
   -2.527402e-03    5.614266e-03    0.000000e+00
   -2.666523e-03    5.621918e-03    0.000000e+00
   -2.805629e-03    5.622225e-03    0.000000e+00
   -2.959092e-03    5.647265e-03    0.000000e+00
   -3.115319e-03    5.612539e-03    0.000000e+00
   -3.275545e-03    5.584680e-03    0.000000e+00
   -3.438834e-03    5.631267e-03    0.000000e+00
   -3.607374e-03    5.675809e-03    0.000000e+00
   -3.761514e-03    5.672766e-03    0.000000e+00
   -3.904284e-03    5.732116e-03    0.000000e+00
   -4.065825e-03    5.728418e-03    0.000000e+00
   -4.230508e-03    5.649347e-03    0.000000e+00
   -2.346785e-03    4.908161e-03    0.000000e+00
   -2.519741e-03    4.877900e-03    0.000000e+00
   -2.678501e-03    4.895604e-03    0.000000e+00
   -2.824986e-03    4.941339e-03    0.000000e+00
   -2.966082e-03    5.061748e-03    0.000000e+00
   -3.115596e-03    4.984877e-03    0.000000e+00
   -3.282786e-03    5.058554e-03    0.000000e+00
   -3.418475e-03    5.082499e-03    0.000000e+00
   -3.636314e-03    5.064584e-03    0.000000e+00
   -3.764426e-03    5.079385e-03    0.000000e+00
   -3.881039e-03    5.022865e-03    0.000000e+00
   -4.070162e-03    5.012794e-03    0.000000e+00
   -4.277988e-03    4.958951e-03    0.000000e+00
   -2.338549e-03    4.506533e-03    0.000000e+00
   -2.521928e-03    4.533972e-03    0.000000e+00
   -2.707326e-03    4.543987e-03    0.000000e+00
   -2.836563e-03    4.549622e-03    0.000000e+00
   -2.976912e-03    4.501388e-03    0.000000e+00
   -3.124290e-03    4.572405e-03    0.000000e+00
   -3.295929e-03    4.562943e-03    0.000000e+00
   -3.460429e-03    4.567259e-03    0.000000e+00
   -3.619137e-03    4.634018e-03    0.000000e+00
   -3.765654e-03    4.576517e-03    0.000000e+00
   -3.905703e-03    4.652310e-03    0.000000e+00
   -4.065000e-03    4.666760e-03    0.000000e+00
   -4.206719e-03    4.606626e-03    0.000000e+00
   -2.369135e-03    3.923554e-03    0.000000e+00
   -2.518953e-03    3.832093e-03    0.000000e+00
   -2.679663e-03    3.799873e-03    0.000000e+00
   -2.832902e-03    3.780930e-03    0.000000e+00
   -2.982897e-03    3.778146e-03    0.000000e+00
   -3.144065e-03    3.793894e-03    0.000000e+00
   -3.305090e-03    3.931748e-03    0.000000e+00
   -3.466447e-03    3.843410e-03    0.000000e+00
   -3.622960e-03    3.898454e-03    0.000000e+00
   -3.770413e-03    3.902910e-03    0.000000e+00
   -3.921025e-03    3.911325e-03    0.000000e+00
   -4.068897e-03    3.930493e-03    0.000000e+00
   -4.190572e-03    3.966453e-03    0.000000e+00
   -2.319444e-03    3.362702e-03    0.000000e+00
   -2.517679e-03    3.464864e-03    0.000000e+00
   -2.680539e-03    3.461172e-03    0.000000e+00
   -2.832979e-03    3.458640e-03    0.000000e+00
   -2.978610e-03    3.455683e-03    0.000000e+00
   -3.150966e-03    3.357618e-03    0.000000e+00
   -3.342438e-03    3.375241e-03    0.000000e+00
   -3.461361e-03    3.353427e-03    0.000000e+00
   -3.592898e-03    3.287304e-03    0.000000e+00
   -3.769262e-03    3.283529e-03    0.000000e+00
   -3.927309e-03    3.284791e-03    0.000000e+00
   -4.092735e-03    3.288716e-03    0.000000e+00
   -4.300526e-03    3.391554e-03    0.000000e+00
   -2.420611e-03    2.819251e-03    0.000000e+00
   -2.537899e-03    2.836449e-03    0.000000e+00
   -2.684242e-03    2.835623e-03    0.000000e+00
   -2.834524e-03    2.845356e-03    0.000000e+00
   -2.979709e-03    2.866592e-03    0.000000e+00
   -3.147161e-03    2.861463e-03    0.000000e+00
   -3.306782e-03    2.863726e-03    0.000000e+00
   -3.458206e-03    2.849013e-03    0.000000e+00
   -3.614468e-03    2.930010e-03    0.000000e+00
   -3.768828e-03    2.942309e-03    0.000000e+00
   -3.927594e-03    2.928345e-03    0.000000e+00
   -4.088606e-03    2.910368e-03    0.000000e+00
   -4.214220e-03    2.834584e-03    0.000000e+00
   -2.350301e-03    2.130280e-03    0.000000e+00
   -2.524482e-03    2.110780e-03    0.000000e+00
   -2.653383e-03    2.180718e-03    0.000000e+00
   -2.870165e-03    2.140983e-03    0.000000e+00
   -2.996021e-03    2.234790e-03    0.000000e+00
   -3.150330e-03    2.273657e-03    0.000000e+00
   -3.306066e-03    2.280429e-03    0.000000e+00
   -3.459024e-03    2.268008e-03    0.000000e+00
   -3.621635e-03    2.190611e-03    0.000000e+00
   -3.739874e-03    2.256407e-03    0.000000e+00
   -3.924907e-03    2.157614e-03    0.000000e+00
   -4.094424e-03    2.173811e-03    0.000000e+00
   -4.297267e-03    2.160577e-03    0.000000e+00
   -2.340095e-03    1.723692e-03    0.000000e+00
   -2.529025e-03    1.745370e-03    0.000000e+00
   -2.716588e-03    1.684202e-03    0.000000e+00
   -2.852718e-03    1.692039e-03    0.000000e+00
   -3.000147e-03    1.695691e-03    0.000000e+00
   -3.153350e-03    1.708608e-03    0.000000e+00
   -3.307485e-03    1.715953e-03    0.000000e+00
   -3.458272e-03    1.716706e-03    0.000000e+00
   -3.628517e-03    1.715726e-03    0.000000e+00
   -3.778643e-03    1.726323e-03    0.000000e+00
   -3.932495e-03    1.725317e-03    0.000000e+00
   -4.097351e-03    1.801190e-03    0.000000e+00
   -4.235191e-03    1.779547e-03    0.000000e+00
   -2.364376e-03    1.148054e-03    0.000000e+00
   -2.491432e-03    1.085518e-03    0.000000e+00
   -2.713505e-03    1.089032e-03    0.000000e+00
   -2.848302e-03    1.199736e-03    0.000000e+00
   -2.994603e-03    1.080059e-03    0.000000e+00
   -3.156127e-03    1.143102e-03    0.000000e+00
   -3.310826e-03    1.139483e-03    0.000000e+00
   -3.466520e-03    1.156334e-03    0.000000e+00
   -3.630843e-03    1.228362e-03    0.000000e+00
   -3.782086e-03    1.095240e-03    0.000000e+00
   -3.938023e-03    1.141098e-03    0.000000e+00
   -4.081199e-03    1.037416e-03    0.000000e+00
   -4.294844e-03    1.083320e-03    0.000000e+00
   -2.349091e-03    4.252648e-04    0.000000e+00
   -2.519744e-03    6.527111e-04    0.000000e+00
   -2.685216e-03    6.588200e-04    0.000000e+00
   -2.843210e-03    4.456474e-04    0.000000e+00
   -2.999929e-03    6.413817e-04    0.000000e+00
   -3.152641e-03    6.404904e-04    0.000000e+00
   -3.318812e-03    3.940405e-04    0.000000e+00
   -3.485341e-03    5.729717e-04    0.000000e+00
   -3.633381e-03    4.977315e-04    0.000000e+00
   -3.789865e-03    6.561218e-04    0.000000e+00
   -3.942171e-03    6.690820e-04    0.000000e+00
   -4.112693e-03    5.212513e-04    0.000000e+00
   -4.294552e-03    6.171260e-04    0.000000e+00
   -4.874506e-03    1.737637e-02    0.000000e+00
   -4.700097e-03    1.745342e-02    0.000000e+00
   -4.520898e-03    1.733685e-02    0.000000e+00
   -4.370902e-03    1.746382e-02    0.000000e+00
   -4.228643e-03    1.737473e-02    0.000000e+00
   -4.120294e-03    1.725952e-02    0.000000e+00
   -3.969172e-03    1.732565e-02    0.000000e+00
   -3.876978e-03    1.741419e-02    0.000000e+00
   -3.759105e-03    1.738102e-02    0.000000e+00
   -3.644883e-03    1.723366e-02    0.000000e+00
   -2.231179e-03    1.410123e-02    0.000000e+00
   -2.224578e-03    1.409551e-02    0.000000e+00
   -2.210995e-03    1.404767e-02    0.000000e+00
   -2.211579e-03    1.405670e-02    0.000000e+00
   -3.740697e-03    1.792453e-02    0.000000e+00
   -2.217320e-03    1.408382e-02    0.000000e+00
   -2.215333e-03    1.407814e-02    0.000000e+00
   -2.213795e-03    1.407179e-02    0.000000e+00
   -2.212532e-03    1.406472e-02    0.000000e+00
   -2.210296e-03    1.403783e-02    0.000000e+00
   -2.209721e-03    1.402680e-02    0.000000e+00
   -2.209615e-03    1.401496e-02    0.000000e+00
   -2.209399e-03    1.400197e-02    0.000000e+00
   -2.209339e-03    1.398780e-02    0.000000e+00
   -2.209294e-03    1.397235e-02    0.000000e+00
   -2.209410e-03    1.395549e-02    0.000000e+00
   -3.636382e-03    1.785079e-02    0.000000e+00
   -3.665214e-03    1.787758e-02    0.000000e+00
   -3.684399e-03    1.789613e-02    0.000000e+00
   -3.700555e-03    1.790665e-02    0.000000e+00
   -3.713240e-03    1.791386e-02    0.000000e+00
   -3.723975e-03    1.791824e-02    0.000000e+00
   -3.733017e-03    1.792159e-02    0.000000e+00
   -3.747211e-03    1.792699e-02    0.000000e+00
   -3.752786e-03    1.792885e-02    0.000000e+00
   -3.757751e-03    1.793039e-02    0.000000e+00
   -3.762401e-03    1.793146e-02    0.000000e+00
   -3.766602e-03    1.793270e-02    0.000000e+00
   -3.770696e-03    1.793321e-02    0.000000e+00
   -3.774804e-03    1.793443e-02    0.000000e+00
   -3.778744e-03    1.793606e-02    0.000000e+00
   -3.782814e-03    1.793504e-02    0.000000e+00
   -2.242625e-03    1.411118e-02    0.000000e+00
   -2.219855e-03    1.408907e-02    0.000000e+00
   -3.375316e-03    1.620300e-02    0.000000e+00
   -3.306227e-03    1.593984e-02    0.000000e+00
   -3.019956e-03    1.511094e-02    0.000000e+00
   -2.461520e-03    1.422398e-02    0.000000e+00
   -3.562119e-03    1.733533e-02    0.000000e+00
   -2.650999e-03    1.442715e-02    0.000000e+00
   -3.531728e-03    1.704403e-02    0.000000e+00
   -2.791338e-03    1.464367e-02    0.000000e+00
   -3.407317e-03    1.633836e-02    0.000000e+00
   -3.548571e-03    1.718893e-02    0.000000e+00
   -3.063972e-03    1.521782e-02    0.000000e+00
   -2.556324e-03    1.431289e-02    0.000000e+00
   -2.698010e-03    1.449344e-02    0.000000e+00
   -3.464342e-03    1.661492e-02    0.000000e+00
   -2.837568e-03    1.472706e-02    0.000000e+00
   -2.883721e-03    1.481588e-02    0.000000e+00
   -2.975251e-03    1.500814e-02    0.000000e+00
   -3.511426e-03    1.689985e-02    0.000000e+00
   -3.107098e-03    1.532884e-02    0.000000e+00
   -2.414940e-03    1.419036e-02    0.000000e+00
   -3.436486e-03    1.647649e-02    0.000000e+00
   -3.230463e-03    1.568632e-02    0.000000e+00
   -3.269060e-03    1.581166e-02    0.000000e+00
   -2.603906e-03    1.436691e-02    0.000000e+00
   -2.509021e-03    1.426519e-02    0.000000e+00
   -2.744785e-03    1.456563e-02    0.000000e+00
   -3.488816e-03    1.675667e-02    0.000000e+00
   -3.149626e-03    1.544399e-02    0.000000e+00
   -3.341651e-03    1.607064e-02    0.000000e+00
   -2.211471e-03    1.392174e-02    0.000000e+00
   -3.789767e-03    1.791270e-02    0.000000e+00
   -2.214990e-03    1.388876e-02    0.000000e+00
   -3.795610e-03    1.787575e-02    0.000000e+00
   -2.220906e-03    1.382475e-02    0.000000e+00
   -3.807318e-03    1.782255e-02    0.000000e+00
   -3.752021e-03    1.786490e-02    0.000000e+00
   -2.216454e-03    1.402660e-02    0.000000e+00
   -2.226063e-03    1.408124e-02    0.000000e+00
   -3.740629e-03    1.785740e-02    0.000000e+00
   -2.220976e-03    1.406647e-02    0.000000e+00
   -2.215554e-03    1.399995e-02    0.000000e+00
   -2.215508e-03    1.396880e-02    0.000000e+00
   -3.703452e-03    1.782733e-02    0.000000e+00
   -3.725324e-03    1.784492e-02    0.000000e+00
   -3.761305e-03    1.786810e-02    0.000000e+00
   -3.769499e-03    1.787209e-02    0.000000e+00
   -3.778170e-03    1.787709e-02    0.000000e+00
   -2.234274e-03    1.409400e-02    0.000000e+00
   -3.715302e-03    1.783771e-02    0.000000e+00
   -2.215520e-03    1.398519e-02    0.000000e+00
   -2.219066e-03    1.405784e-02    0.000000e+00
   -2.229587e-03    1.408773e-02    0.000000e+00
   -2.223253e-03    1.407425e-02    0.000000e+00
   -2.215919e-03    1.401393e-02    0.000000e+00
   -3.689706e-03    1.780927e-02    0.000000e+00
   -3.733630e-03    1.785175e-02    0.000000e+00
   -3.746961e-03    1.786199e-02    0.000000e+00
   -3.756661e-03    1.786597e-02    0.000000e+00
   -3.765481e-03    1.786963e-02    0.000000e+00
   -2.216571e-03    1.394812e-02    0.000000e+00
   -3.781847e-03    1.786516e-02    0.000000e+00
   -2.251793e-03    1.412249e-02    0.000000e+00
   -3.190443e-03    1.556321e-02    0.000000e+00
   -3.598537e-03    1.783680e-02    0.000000e+00
   -2.929738e-03    1.490971e-02    0.000000e+00
   -3.578151e-03    1.729728e-02    0.000000e+00
   -2.947138e-03    1.511010e-02    0.000000e+00
   -2.670091e-03    1.455050e-02    0.000000e+00
   -2.494652e-03    1.429246e-02    0.000000e+00
   -2.364542e-03    1.416840e-02    0.000000e+00
   -2.806178e-03    1.480732e-02    0.000000e+00
   -3.383328e-03    1.633385e-02    0.000000e+00
   -3.039985e-03    1.532954e-02    0.000000e+00
   -2.408800e-03    1.420268e-02    0.000000e+00
   -3.419554e-03    1.646724e-02    0.000000e+00
   -3.345250e-03    1.620183e-02    0.000000e+00
   -2.538021e-03    1.434728e-02    0.000000e+00
   -3.263739e-03    1.594213e-02    0.000000e+00
   -2.581794e-03    1.440871e-02    0.000000e+00
   -3.537382e-03    1.701536e-02    0.000000e+00
   -2.760183e-03    1.471612e-02    0.000000e+00
   -3.220774e-03    1.581443e-02    0.000000e+00
   -3.511782e-03    1.687693e-02    0.000000e+00
   -2.993815e-03    1.521864e-02    0.000000e+00
   -3.559474e-03    1.715488e-02    0.000000e+00
   -3.483665e-03    1.673894e-02    0.000000e+00
   -2.714857e-03    1.463042e-02    0.000000e+00
   -3.452419e-03    1.660269e-02    0.000000e+00
   -3.305396e-03    1.607148e-02    0.000000e+00
   -3.085709e-03    1.544492e-02    0.000000e+00
   -2.451496e-03    1.424393e-02    0.000000e+00
   -2.625874e-03    1.447647e-02    0.000000e+00
   -3.593849e-03    1.744545e-02    0.000000e+00
   -2.222083e-03    1.392629e-02    0.000000e+00
   -3.783161e-03    1.780600e-02    0.000000e+00
   -2.230147e-03    1.389333e-02    0.000000e+00
   -3.783959e-03    1.773073e-02    0.000000e+00
   -2.234592e-03    1.371601e-02    0.000000e+00
   -3.827424e-03    1.773316e-02    0.000000e+00
   -2.262355e-03    1.411317e-02    0.000000e+00
   -2.231569e-03    1.407975e-02    0.000000e+00
   -2.223601e-03    1.404945e-02    0.000000e+00
   -2.246309e-03    1.410185e-02    0.000000e+00
   -2.235449e-03    1.408771e-02    0.000000e+00
   -2.228177e-03    1.407040e-02    0.000000e+00
   -2.240301e-03    1.409494e-02    0.000000e+00
   -3.731523e-03    1.778599e-02    0.000000e+00
   -3.724005e-03    1.777516e-02    0.000000e+00
   -3.714977e-03    1.776436e-02    0.000000e+00
   -3.704251e-03    1.775074e-02    0.000000e+00
   -3.677880e-03    1.771425e-02    0.000000e+00
   -3.762246e-03    1.780665e-02    0.000000e+00
   -3.757782e-03    1.780267e-02    0.000000e+00
   -3.753184e-03    1.780041e-02    0.000000e+00
   -2.221817e-03    1.398660e-02    0.000000e+00
   -2.222284e-03    1.401597e-02    0.000000e+00
   -3.748241e-03    1.779970e-02    0.000000e+00
   -2.222731e-03    1.402938e-02    0.000000e+00
   -2.296645e-03    1.413150e-02    0.000000e+00
   -3.634551e-03    1.763521e-02    0.000000e+00
   -2.900103e-03    1.500475e-02    0.000000e+00
   -3.176564e-03    1.568848e-02    0.000000e+00
   -3.131348e-03    1.556483e-02    0.000000e+00
   -2.853014e-03    1.490364e-02    0.000000e+00
   -2.364322e-03    1.418073e-02    0.000000e+00
   -3.605529e-03    1.739384e-02    0.000000e+00
   -2.402478e-03    1.422093e-02    0.000000e+00
   -2.481603e-03    1.432475e-02    0.000000e+00
   -2.521776e-03    1.438641e-02    0.000000e+00
   -2.441799e-03    1.426920e-02    0.000000e+00
   -3.586771e-03    1.725687e-02    0.000000e+00
   -3.563114e-03    1.712032e-02    0.000000e+00
   -3.505380e-03    1.685200e-02    0.000000e+00
   -3.535710e-03    1.698591e-02    0.000000e+00
   -3.471793e-03    1.671833e-02    0.000000e+00
   -2.562679e-03    1.445473e-02    0.000000e+00
   -3.435711e-03    1.658582e-02    0.000000e+00
   -3.396454e-03    1.645516e-02    0.000000e+00
   -2.604230e-03    1.452955e-02    0.000000e+00
   -2.646617e-03    1.461075e-02    0.000000e+00
   -2.977361e-03    1.532349e-02    0.000000e+00
   -2.690136e-03    1.469787e-02    0.000000e+00
   -2.928791e-03    1.521309e-02    0.000000e+00
   -3.355073e-03    1.632428e-02    0.000000e+00
   -3.024196e-03    1.543526e-02    0.000000e+00
   -2.735314e-03    1.479100e-02    0.000000e+00
   -3.311372e-03    1.619421e-02    0.000000e+00
   -3.218696e-03    1.593600e-02    0.000000e+00
   -3.265804e-03    1.606514e-02    0.000000e+00
   -2.227019e-03    1.396221e-02    0.000000e+00
   -3.772310e-03    1.776827e-02    0.000000e+00
   -2.235412e-03    1.394896e-02    0.000000e+00
   -3.767429e-03    1.768928e-02    0.000000e+00
   -2.244493e-03    1.384397e-02    0.000000e+00
   -3.781158e-03    1.761438e-02    0.000000e+00
   -2.229637e-03    1.404815e-02    0.000000e+00
   -3.764799e-03    1.775899e-02    0.000000e+00
   -3.738535e-03    1.773530e-02    0.000000e+00
   -3.757770e-03    1.774204e-02    0.000000e+00
   -2.249534e-03    1.410558e-02    0.000000e+00
   -2.238488e-03    1.408681e-02    0.000000e+00
   -2.257057e-03    1.411346e-02    0.000000e+00
   -2.243569e-03    1.409705e-02    0.000000e+00
   -2.233832e-03    1.407392e-02    0.000000e+00
   -3.711725e-03    1.769521e-02    0.000000e+00
   -2.267492e-03    1.412161e-02    0.000000e+00
   -2.279382e-03    1.412924e-02    0.000000e+00
   -3.720056e-03    1.771044e-02    0.000000e+00
   -3.728934e-03    1.772650e-02    0.000000e+00
   -3.701166e-03    1.767660e-02    0.000000e+00
   -3.687850e-03    1.764982e-02    0.000000e+00
   -3.671437e-03    1.762393e-02    0.000000e+00
   -3.652410e-03    1.762245e-02    0.000000e+00
   -3.752070e-03    1.773553e-02    0.000000e+00
   -2.228519e-03    1.402009e-02    0.000000e+00
   -3.747228e-03    1.773256e-02    0.000000e+00
   -3.742727e-03    1.773277e-02    0.000000e+00
   -2.229308e-03    1.403557e-02    0.000000e+00
   -3.603885e-03    1.763892e-02    0.000000e+00
   -2.879341e-03    1.510092e-02    0.000000e+00
   -3.071675e-03    1.555442e-02    0.000000e+00
   -2.782238e-03    1.488925e-02    0.000000e+00
   -3.170596e-03    1.580758e-02    0.000000e+00
   -3.369848e-03    1.643856e-02    0.000000e+00
   -3.323233e-03    1.630990e-02    0.000000e+00
   -2.330796e-03    1.416258e-02    0.000000e+00
   -2.507888e-03    1.442910e-02    0.000000e+00
   -2.546299e-03    1.450375e-02    0.000000e+00
   -3.493298e-03    1.682501e-02    0.000000e+00
   -3.455049e-03    1.669558e-02    0.000000e+00
   -2.432997e-03    1.429919e-02    0.000000e+00
   -3.413716e-03    1.656711e-02    0.000000e+00
   -2.470133e-03    1.436086e-02    0.000000e+00
   -3.588896e-03    1.721960e-02    0.000000e+00
   -3.560249e-03    1.708638e-02    0.000000e+00
   -2.971507e-03    1.541684e-02    0.000000e+00
   -3.528497e-03    1.695478e-02    0.000000e+00
   -2.921961e-03    1.532172e-02    0.000000e+00
   -2.585963e-03    1.458520e-02    0.000000e+00
   -2.359670e-03    1.419575e-02    0.000000e+00
   -3.629199e-03    1.747758e-02    0.000000e+00
   -2.395929e-03    1.424333e-02    0.000000e+00
   -2.627300e-03    1.467319e-02    0.000000e+00
   -3.613857e-03    1.735831e-02    0.000000e+00
   -2.671027e-03    1.476736e-02    0.000000e+00
   -3.223681e-03    1.605101e-02    0.000000e+00
   -3.274339e-03    1.618055e-02    0.000000e+00
   -3.121408e-03    1.567972e-02    0.000000e+00
   -2.830428e-03    1.499279e-02    0.000000e+00
   -2.307609e-03    1.413706e-02    0.000000e+00
   -2.290827e-03    1.413060e-02    0.000000e+00
   -2.230276e-03    1.399380e-02    0.000000e+00
   -2.238553e-03    1.399122e-02    0.000000e+00
   -3.756612e-03    1.767306e-02    0.000000e+00
   -2.248989e-03    1.393460e-02    0.000000e+00
   -3.756883e-03    1.758289e-02    0.000000e+00
   -2.269686e-03    1.378396e-02    0.000000e+00
   -2.237063e-03    1.407200e-02    0.000000e+00
   -3.725448e-03    1.767379e-02    0.000000e+00
   -3.749144e-03    1.766711e-02    0.000000e+00
   -2.237180e-03    1.406019e-02    0.000000e+00
   -3.729684e-03    1.766768e-02    0.000000e+00
   -3.743005e-03    1.766257e-02    0.000000e+00
   -2.250212e-03    1.410792e-02    0.000000e+00
   -2.243574e-03    1.409289e-02    0.000000e+00
   -2.266412e-03    1.412928e-02    0.000000e+00
   -2.257459e-03    1.411947e-02    0.000000e+00
   -3.695260e-03    1.760838e-02    0.000000e+00
   -3.682467e-03    1.757804e-02    0.000000e+00
   -3.667086e-03    1.753865e-02    0.000000e+00
   -2.278129e-03    1.413933e-02    0.000000e+00
   -2.292563e-03    1.414976e-02    0.000000e+00
   -2.234090e-03    1.402210e-02    0.000000e+00
   -3.738022e-03    1.766111e-02    0.000000e+00
   -3.733665e-03    1.766254e-02    0.000000e+00
   -2.236089e-03    1.404330e-02    0.000000e+00
   -3.011091e-03    1.552908e-02    0.000000e+00
   -2.867776e-03    1.519991e-02    0.000000e+00
   -2.717307e-03    1.486754e-02    0.000000e+00
   -3.172058e-03    1.592033e-02    0.000000e+00
   -3.388684e-03    1.654486e-02    0.000000e+00
   -3.119198e-03    1.578980e-02    0.000000e+00
   -3.340150e-03    1.641836e-02    0.000000e+00
   -2.532636e-03    1.455453e-02    0.000000e+00
   -2.460469e-03    1.440029e-02    0.000000e+00
   -2.495787e-03    1.447375e-02    0.000000e+00
   -3.434200e-03    1.667101e-02    0.000000e+00
   -3.516250e-03    1.692316e-02    0.000000e+00
   -3.476845e-03    1.679683e-02    0.000000e+00
   -3.552707e-03    1.705141e-02    0.000000e+00
   -3.586001e-03    1.718332e-02    0.000000e+00
   -2.571218e-03    1.464213e-02    0.000000e+00
   -2.425483e-03    1.433262e-02    0.000000e+00
   -2.390289e-03    1.427068e-02    0.000000e+00
   -2.354998e-03    1.421481e-02    0.000000e+00
   -2.815853e-03    1.508355e-02    0.000000e+00
   -3.616682e-03    1.732260e-02    0.000000e+00
   -3.645124e-03    1.748037e-02    0.000000e+00
   -2.612901e-03    1.473723e-02    0.000000e+00
   -3.065157e-03    1.565954e-02    0.000000e+00
   -2.765796e-03    1.497301e-02    0.000000e+00
   -3.288751e-03    1.629021e-02    0.000000e+00
   -3.234986e-03    1.615961e-02    0.000000e+00
   -2.317385e-03    1.416385e-02    0.000000e+00
   -2.249938e-03    1.399320e-02    0.000000e+00
   -3.743096e-03    1.757548e-02    0.000000e+00
   -2.273457e-03    1.392735e-02    0.000000e+00
   -2.303811e-03    1.389225e-02    0.000000e+00
   -2.248340e-03    1.410002e-02    0.000000e+00
   -2.246976e-03    1.409014e-02    0.000000e+00
   -3.708160e-03    1.759045e-02    0.000000e+00
   -3.716326e-03    1.760972e-02    0.000000e+00
   -3.729415e-03    1.758083e-02    0.000000e+00
   -3.702036e-03    1.758694e-02    0.000000e+00
   -3.689642e-03    1.755021e-02    0.000000e+00
   -3.674983e-03    1.750993e-02    0.000000e+00
   -2.273764e-03    1.414812e-02    0.000000e+00
   -2.263742e-03    1.413454e-02    0.000000e+00
   -2.255296e-03    1.411836e-02    0.000000e+00
   -3.663495e-03    1.748485e-02    0.000000e+00
   -2.298332e-03    1.416792e-02    0.000000e+00
   -3.717507e-03    1.759383e-02    0.000000e+00
   -2.245306e-03    1.407370e-02    0.000000e+00
   -3.724898e-03    1.758408e-02    0.000000e+00
   -3.720888e-03    1.758753e-02    0.000000e+00
   -2.243300e-03    1.405179e-02    0.000000e+00
   -2.866039e-03    1.530330e-02    0.000000e+00
   -2.657846e-03    1.483865e-02    0.000000e+00
   -3.410799e-03    1.664404e-02    0.000000e+00
   -3.123766e-03    1.589531e-02    0.000000e+00
   -3.361271e-03    1.652014e-02    0.000000e+00
   -3.179775e-03    1.602755e-02    0.000000e+00
   -2.452252e-03    1.444084e-02    0.000000e+00
   -2.485820e-03    1.451930e-02    0.000000e+00
   -2.809949e-03    1.517626e-02    0.000000e+00
   -3.457090e-03    1.676706e-02    0.000000e+00
   -3.067160e-03    1.576344e-02    0.000000e+00
   -3.008669e-03    1.562838e-02    0.000000e+00
   -3.541060e-03    1.701741e-02    0.000000e+00
   -2.419351e-03    1.436854e-02    0.000000e+00
   -3.500621e-03    1.689153e-02    0.000000e+00
   -3.578804e-03    1.714660e-02    0.000000e+00
   -2.705918e-03    1.494616e-02    0.000000e+00
   -2.521553e-03    1.460551e-02    0.000000e+00
   -2.386155e-03    1.430169e-02    0.000000e+00
   -2.321325e-03    1.418904e-02    0.000000e+00
   -3.613979e-03    1.728231e-02    0.000000e+00
   -2.351978e-03    1.424056e-02    0.000000e+00
   -3.643695e-03    1.741555e-02    0.000000e+00
   -2.756854e-03    1.505846e-02    0.000000e+00
   -3.308355e-03    1.639369e-02    0.000000e+00
   -2.560673e-03    1.470018e-02    0.000000e+00
   -3.252064e-03    1.626354e-02    0.000000e+00
   -2.250336e-03    1.403154e-02    0.000000e+00
   -2.240913e-03    1.402429e-02    0.000000e+00
   -3.734956e-03    1.757714e-02    0.000000e+00
   -2.268055e-03    1.401028e-02    0.000000e+00
   -3.719647e-03    1.745078e-02    0.000000e+00
   -2.346572e-03    1.386599e-02    0.000000e+00
   -2.307715e-03    1.401719e-02    0.000000e+00
   -3.696938e-03    1.752210e-02    0.000000e+00
   -2.259469e-03    1.412738e-02    0.000000e+00
   -3.685564e-03    1.750476e-02    0.000000e+00
   -2.256440e-03    1.411104e-02    0.000000e+00
   -2.268731e-03    1.414948e-02    0.000000e+00
   -3.667900e-03    1.745625e-02    0.000000e+00
   -2.278895e-03    1.416571e-02    0.000000e+00
   -2.293361e-03    1.418298e-02    0.000000e+00
   -3.707907e-03    1.750364e-02    0.000000e+00
   -3.700519e-03    1.751253e-02    0.000000e+00
   -2.254002e-03    1.408914e-02    0.000000e+00
   -3.704929e-03    1.751097e-02    0.000000e+00
   -2.864504e-03    1.538503e-02    0.000000e+00
   -2.251663e-03    1.406191e-02    0.000000e+00
   -2.603849e-03    1.480294e-02    0.000000e+00
   -2.445262e-03    1.448105e-02    0.000000e+00
   -3.385813e-03    1.661585e-02    0.000000e+00
   -3.435454e-03    1.673670e-02    0.000000e+00
   -2.413977e-03    1.440477e-02    0.000000e+00
   -2.811167e-03    1.526770e-02    0.000000e+00
   -3.481800e-03    1.685808e-02    0.000000e+00
   -2.964091e-03    1.560888e-02    0.000000e+00
   -3.075443e-03    1.586198e-02    0.000000e+00
   -3.525886e-03    1.698216e-02    0.000000e+00
   -3.017425e-03    1.573006e-02    0.000000e+00
   -2.477743e-03    1.456425e-02    0.000000e+00
   -3.193709e-03    1.612989e-02    0.000000e+00
   -3.567438e-03    1.710894e-02    0.000000e+00
   -2.755364e-03    1.514508e-02    0.000000e+00
   -2.382820e-03    1.433428e-02    0.000000e+00
   -3.605675e-03    1.723717e-02    0.000000e+00
   -2.316715e-03    1.420828e-02    0.000000e+00
   -2.351876e-03    1.427024e-02    0.000000e+00
   -2.651034e-03    1.491205e-02    0.000000e+00
   -3.332250e-03    1.649190e-02    0.000000e+00
   -2.701812e-03    1.502666e-02    0.000000e+00
   -3.644914e-03    1.738476e-02    0.000000e+00
   -3.134507e-03    1.599515e-02    0.000000e+00
   -2.513824e-03    1.465707e-02    0.000000e+00
   -3.274370e-03    1.636319e-02    0.000000e+00
   -3.709867e-03    1.748935e-02    0.000000e+00
   -2.262938e-03    1.405048e-02    0.000000e+00
   -3.713417e-03    1.747198e-02    0.000000e+00
   -3.733876e-03    1.743256e-02    0.000000e+00
   -2.287423e-03    1.402785e-02    0.000000e+00
   -2.341341e-03    1.401573e-02    0.000000e+00
   -2.326537e-03    1.365766e-02    0.000000e+00
   -3.663537e-03    1.740523e-02    0.000000e+00
   -2.276590e-03    1.417260e-02    0.000000e+00
   -3.659819e-03    1.741058e-02    0.000000e+00
   -2.282931e-03    1.418205e-02    0.000000e+00
   -2.296446e-03    1.420399e-02    0.000000e+00
   -3.675099e-03    1.742726e-02    0.000000e+00
   -2.266776e-03    1.413444e-02    0.000000e+00
   -3.689442e-03    1.744591e-02    0.000000e+00
   -3.682532e-03    1.743617e-02    0.000000e+00
   -2.409391e-03    1.443999e-02    0.000000e+00
   -2.821950e-03    1.536131e-02    0.000000e+00
   -2.439507e-03    1.451952e-02    0.000000e+00
   -3.413000e-03    1.670642e-02    0.000000e+00
   -3.461366e-03    1.682253e-02    0.000000e+00
   -3.506647e-03    1.694187e-02    0.000000e+00
   -2.554765e-03    1.475984e-02    0.000000e+00
   -2.967528e-03    1.568362e-02    0.000000e+00
   -2.378926e-03    1.436571e-02    0.000000e+00
   -3.027191e-03    1.581872e-02    0.000000e+00
   -2.761866e-03    1.523335e-02    0.000000e+00
   -3.550789e-03    1.706445e-02    0.000000e+00
   -3.359697e-03    1.658584e-02    0.000000e+00
   -3.213394e-03    1.622836e-02    0.000000e+00
   -3.088196e-03    1.595443e-02    0.000000e+00
   -2.260959e-03    1.407377e-02    0.000000e+00
   -2.350266e-03    1.429879e-02    0.000000e+00
   -2.704585e-03    1.510881e-02    0.000000e+00
   -2.650692e-03    1.498790e-02    0.000000e+00
   -2.472562e-03    1.460878e-02    0.000000e+00
   -2.600632e-03    1.487069e-02    0.000000e+00
   -3.301218e-03    1.645871e-02    0.000000e+00
   -3.150751e-03    1.609127e-02    0.000000e+00
   -2.270410e-03    1.415558e-02    0.000000e+00
   -2.264179e-03    1.410688e-02    0.000000e+00
   -3.682075e-03    1.738287e-02    0.000000e+00
   -2.277472e-03    1.407709e-02    0.000000e+00
   -2.309924e-03    1.411795e-02    0.000000e+00
   -3.677470e-03    1.728582e-02    0.000000e+00
   -2.343177e-03    1.413693e-02    0.000000e+00
   -2.379149e-03    1.376181e-02    0.000000e+00
   -2.267178e-03    1.359612e-02    0.000000e+00
   -3.632976e-03    1.730574e-02    0.000000e+00
   -2.297741e-03    1.422327e-02    0.000000e+00
   -3.630207e-03    1.730517e-02    0.000000e+00
   -2.320613e-03    1.425569e-02    0.000000e+00
   -3.654814e-03    1.735040e-02    0.000000e+00
   -3.666074e-03    1.737057e-02    0.000000e+00
   -3.625650e-03    1.730022e-02    0.000000e+00
   -2.329100e-03    1.424931e-02    0.000000e+00
   -2.288361e-03    1.420857e-02    0.000000e+00
   -2.895001e-03    1.551977e-02    0.000000e+00
   -2.934771e-03    1.546643e-02    0.000000e+00
   -2.406252e-03    1.447328e-02    0.000000e+00
   -2.377665e-03    1.439845e-02    0.000000e+00
   -3.441957e-03    1.679250e-02    0.000000e+00
   -3.484103e-03    1.689200e-02    0.000000e+00
   -3.529303e-03    1.701214e-02    0.000000e+00
   -3.390008e-03    1.667599e-02    0.000000e+00
   -2.776230e-03    1.532450e-02    0.000000e+00
   -2.978191e-03    1.576503e-02    0.000000e+00
   -2.346223e-03    1.432377e-02    0.000000e+00
   -3.238400e-03    1.632394e-02    0.000000e+00
   -2.435977e-03    1.455697e-02    0.000000e+00
   -2.510571e-03    1.470963e-02    0.000000e+00
   -3.040974e-03    1.590353e-02    0.000000e+00
   -2.715039e-03    1.519398e-02    0.000000e+00
   -2.278193e-03    1.412531e-02    0.000000e+00
   -2.657240e-03    1.506599e-02    0.000000e+00
   -2.282222e-03    1.418814e-02    0.000000e+00
   -3.331892e-03    1.655091e-02    0.000000e+00
   -3.106213e-03    1.604368e-02    0.000000e+00
   -2.603370e-03    1.494108e-02    0.000000e+00
   -2.554395e-03    1.482124e-02    0.000000e+00
   -3.172629e-03    1.618468e-02    0.000000e+00
   -2.294914e-03    1.413434e-02    0.000000e+00
   -2.832775e-03    1.543881e-02    0.000000e+00
   -3.681959e-03    1.734995e-02    0.000000e+00
   -3.684929e-03    1.741598e-02    0.000000e+00
   -3.644975e-03    1.733304e-02    0.000000e+00
   -2.279557e-03    1.416441e-02    0.000000e+00
   -3.695288e-03    1.726931e-02    0.000000e+00
   -2.346691e-03    1.423642e-02    0.000000e+00
   -2.382044e-03    1.415613e-02    0.000000e+00
   -2.444605e-03    1.376557e-02    0.000000e+00
   -2.372181e-03    1.356468e-02    0.000000e+00
   -2.314350e-03    1.427805e-02    0.000000e+00
   -3.596266e-03    1.719912e-02    0.000000e+00
   -3.593582e-03    1.719356e-02    0.000000e+00
   -3.632197e-03    1.727381e-02    0.000000e+00
   -2.300921e-03    1.424814e-02    0.000000e+00
   -2.379171e-03    1.443023e-02    0.000000e+00
   -3.613224e-03    1.724170e-02    0.000000e+00
   -2.404751e-03    1.450398e-02    0.000000e+00
   -2.925734e-03    1.564231e-02    0.000000e+00
   -3.475125e-03    1.688191e-02    0.000000e+00
   -2.354844e-03    1.436818e-02    0.000000e+00
   -3.423016e-03    1.676468e-02    0.000000e+00
   -3.268275e-03    1.641677e-02    0.000000e+00
   -2.470758e-03    1.465371e-02    0.000000e+00
   -2.992032e-03    1.584178e-02    0.000000e+00
   -2.733236e-03    1.528412e-02    0.000000e+00
   -3.365893e-03    1.664109e-02    0.000000e+00
   -2.670762e-03    1.514711e-02    0.000000e+00
   -3.060512e-03    1.598665e-02    0.000000e+00
   -2.612810e-03    1.501427e-02    0.000000e+00
   -3.621935e-03    1.725752e-02    0.000000e+00
   -2.559449e-03    1.488523e-02    0.000000e+00
   -3.130242e-03    1.613162e-02    0.000000e+00
   -2.512005e-03    1.476400e-02    0.000000e+00
   -3.200148e-03    1.627575e-02    0.000000e+00
   -3.572592e-03    1.713228e-02    0.000000e+00
   -2.804428e-03    1.543582e-02    0.000000e+00
   -3.605368e-03    1.722343e-02    0.000000e+00
   -2.296769e-03    1.422895e-02    0.000000e+00
   -3.648557e-03    1.730001e-02    0.000000e+00
   -2.297352e-03    1.421205e-02    0.000000e+00
   -2.305534e-03    1.420637e-02    0.000000e+00
   -2.387481e-03    1.428616e-02    0.000000e+00
   -2.321325e-03    1.421476e-02    0.000000e+00
   -3.634802e-03    1.712069e-02    0.000000e+00
   -3.614451e-03    1.712613e-02    0.000000e+00
   -2.380040e-03    1.403283e-02    0.000000e+00
   -2.493525e-03    1.402070e-02    0.000000e+00
   -2.333622e-03    1.431812e-02    0.000000e+00
   -2.379216e-03    1.445367e-02    0.000000e+00
   -2.871191e-03    1.554916e-02    0.000000e+00
   -2.361031e-03    1.439901e-02    0.000000e+00
   -3.547491e-03    1.706607e-02    0.000000e+00
   -2.319851e-03    1.427817e-02    0.000000e+00
   -3.586388e-03    1.716376e-02    0.000000e+00
   -3.302235e-03    1.650781e-02    0.000000e+00
   -2.435234e-03    1.459277e-02    0.000000e+00
   -3.593699e-03    1.717423e-02    0.000000e+00
   -2.919893e-03    1.568501e-02    0.000000e+00
   -3.402833e-03    1.673088e-02    0.000000e+00
   -2.690570e-03    1.523032e-02    0.000000e+00
   -3.015829e-03    1.592592e-02    0.000000e+00
   -2.628754e-03    1.509031e-02    0.000000e+00
   -3.087672e-03    1.607301e-02    0.000000e+00
   -3.508531e-03    1.696908e-02    0.000000e+00
   -2.570469e-03    1.495180e-02    0.000000e+00
   -2.319895e-03    1.430444e-02    0.000000e+00
   -3.457856e-03    1.685201e-02    0.000000e+00
   -2.472763e-03    1.469859e-02    0.000000e+00
   -3.232930e-03    1.636683e-02    0.000000e+00
   -3.578870e-03    1.714871e-02    0.000000e+00
   -3.160923e-03    1.622082e-02    0.000000e+00
   -2.754852e-03    1.537184e-02    0.000000e+00
   -2.518039e-03    1.481952e-02    0.000000e+00
   -2.315111e-03    1.429058e-02    0.000000e+00
   -2.351299e-03    1.431339e-02    0.000000e+00
   -3.603733e-03    1.718526e-02    0.000000e+00
   -3.599117e-03    1.713121e-02    0.000000e+00
   -3.646363e-03    1.726681e-02    0.000000e+00
   -2.381908e-03    1.435917e-02    0.000000e+00
   -2.331781e-03    1.428836e-02    0.000000e+00
   -3.566328e-03    1.697431e-02    0.000000e+00
   -3.664355e-03    1.711530e-02    0.000000e+00
   -2.533777e-03    1.390892e-02    0.000000e+00
   -2.481026e-03    1.417880e-02    0.000000e+00
   -2.357679e-03    1.440529e-02    0.000000e+00
   -2.337648e-03    1.435484e-02    0.000000e+00
   -3.543300e-03    1.705520e-02    0.000000e+00
   -2.403586e-03    1.452836e-02    0.000000e+00
   -3.560015e-03    1.709246e-02    0.000000e+00
   -3.340419e-03    1.659984e-02    0.000000e+00
   -2.946763e-03    1.578219e-02    0.000000e+00
   -3.441395e-03    1.681904e-02    0.000000e+00
   -2.314636e-03    1.428092e-02    0.000000e+00
   -2.818131e-03    1.551054e-02    0.000000e+00
   -3.614674e-03    1.719606e-02    0.000000e+00
   -2.651524e-03    1.516970e-02    0.000000e+00
   -3.048145e-03    1.601314e-02    0.000000e+00
   -2.435902e-03    1.462424e-02    0.000000e+00
   -2.331701e-03    1.434196e-02    0.000000e+00
   -2.715001e-03    1.531220e-02    0.000000e+00
   -2.588095e-03    1.502198e-02    0.000000e+00
   -3.270870e-03    1.645792e-02    0.000000e+00
   -2.357053e-03    1.436815e-02    0.000000e+00
   -3.122970e-03    1.616308e-02    0.000000e+00
   -3.492353e-03    1.693365e-02    0.000000e+00
   -2.528587e-03    1.487522e-02    0.000000e+00
   -3.198000e-03    1.631195e-02    0.000000e+00
   -2.477774e-03    1.474068e-02    0.000000e+00
   -2.345511e-03    1.435731e-02    0.000000e+00
   -3.552461e-03    1.706415e-02    0.000000e+00
   -2.383452e-03    1.442352e-02    0.000000e+00
   -2.416272e-03    1.441471e-02    0.000000e+00
   -3.553633e-03    1.699444e-02    0.000000e+00
   -3.582287e-03    1.693982e-02    0.000000e+00
   -2.425731e-03    1.416155e-02    0.000000e+00
   -2.546721e-03    1.422501e-02    0.000000e+00
   -2.511668e-03    1.367179e-02    0.000000e+00
   -2.378471e-03    1.446794e-02    0.000000e+00
   -2.880386e-03    1.564361e-02    0.000000e+00
   -3.381675e-03    1.669152e-02    0.000000e+00
   -2.333840e-03    1.434671e-02    0.000000e+00
   -3.571348e-03    1.709066e-02    0.000000e+00
   -2.777811e-03    1.545019e-02    0.000000e+00
   -2.382206e-03    1.446639e-02    0.000000e+00
   -2.976438e-03    1.586803e-02    0.000000e+00
   -2.398901e-03    1.453594e-02    0.000000e+00
   -2.333346e-03    1.433600e-02    0.000000e+00
   -3.312565e-03    1.654929e-02    0.000000e+00
   -3.476034e-03    1.689540e-02    0.000000e+00
   -2.680582e-03    1.525046e-02    0.000000e+00
   -2.616118e-03    1.510258e-02    0.000000e+00
   -3.087910e-03    1.610247e-02    0.000000e+00
   -2.857790e-03    1.556564e-02    0.000000e+00
   -2.357456e-03    1.442001e-02    0.000000e+00
   -2.439771e-03    1.465257e-02    0.000000e+00
   -3.239378e-03    1.640220e-02    0.000000e+00
   -3.164355e-03    1.625357e-02    0.000000e+00
   -2.547008e-03    1.493667e-02    0.000000e+00
   -3.536285e-03    1.698787e-02    0.000000e+00
   -2.486295e-03    1.477959e-02    0.000000e+00
   -3.498626e-03    1.684583e-02    0.000000e+00
   -2.466653e-03    1.454379e-02    0.000000e+00
   -2.421062e-03    1.448905e-02    0.000000e+00
   -3.505589e-03    1.680113e-02    0.000000e+00
   -3.599525e-03    1.687240e-02    0.000000e+00
   -2.428554e-03    1.430000e-02    0.000000e+00
   -2.479514e-03    1.433238e-02    0.000000e+00
   -2.540614e-03    1.437615e-02    0.000000e+00
   -2.502906e-03    1.342634e-02    0.000000e+00
   -3.209108e-03    1.634218e-02    0.000000e+00
   -2.906732e-03    1.572477e-02    0.000000e+00
   -3.428221e-03    1.678893e-02    0.000000e+00
   -2.741673e-03    1.538605e-02    0.000000e+00
   -3.355717e-03    1.663678e-02    0.000000e+00
   -3.012514e-03    1.595271e-02    0.000000e+00
   -2.840375e-03    1.558525e-02    0.000000e+00
   -3.513345e-03    1.695941e-02    0.000000e+00
   -2.411593e-03    1.457718e-02    0.000000e+00
   -2.652665e-03    1.518850e-02    0.000000e+00
   -3.284374e-03    1.649202e-02    0.000000e+00
   -3.520175e-03    1.699618e-02    0.000000e+00
   -2.383998e-03    1.449776e-02    0.000000e+00
   -2.444857e-03    1.467019e-02    0.000000e+00
   -3.055828e-03    1.603881e-02    0.000000e+00
   -2.478673e-03    1.446004e-02    0.000000e+00
   -2.424864e-03    1.455855e-02    0.000000e+00
   -3.498337e-03    1.688223e-02    0.000000e+00
   -2.539283e-03    1.452132e-02    0.000000e+00
   -2.359585e-03    1.442254e-02    0.000000e+00
   -3.431306e-03    1.667583e-02    0.000000e+00
   -2.472081e-03    1.464257e-02    0.000000e+00
   -3.512520e-03    1.673705e-02    0.000000e+00
   -2.608822e-03    1.442490e-02    0.000000e+00
   -3.491024e-03    1.692309e-02    0.000000e+00
   -2.800782e-03    1.551461e-02    0.000000e+00
   -3.179964e-03    1.627506e-02    0.000000e+00
   -3.391571e-03    1.670473e-02    0.000000e+00
   -2.937414e-03    1.580107e-02    0.000000e+00
   -2.714958e-03    1.532975e-02    0.000000e+00
   -3.470338e-03    1.684622e-02    0.000000e+00
   -2.499225e-03    1.481443e-02    0.000000e+00
   -2.591742e-03    1.504400e-02    0.000000e+00
   -3.103890e-03    1.612381e-02    0.000000e+00
   -3.331430e-03    1.657931e-02    0.000000e+00
   -2.399924e-03    1.453959e-02    0.000000e+00
   -3.256839e-03    1.642836e-02    0.000000e+00
   -2.977023e-03    1.588101e-02    0.000000e+00
   -3.346455e-03    1.652832e-02    0.000000e+00
   -2.526460e-03    1.473076e-02    0.000000e+00
   -3.427251e-03    1.672397e-02    0.000000e+00
   -2.480931e-03    1.472723e-02    0.000000e+00
   -2.431471e-03    1.461508e-02    0.000000e+00
   -2.605062e-03    1.457594e-02    0.000000e+00
   -3.433905e-03    1.661339e-02    0.000000e+00
   -2.558754e-03    1.409626e-02    0.000000e+00
   -2.542642e-03    1.466594e-02    0.000000e+00
   -3.448088e-03    1.682031e-02    0.000000e+00
   -2.571453e-03    1.498084e-02    0.000000e+00
   -2.766958e-03    1.544414e-02    0.000000e+00
   -2.865121e-03    1.565180e-02    0.000000e+00
   -3.150877e-03    1.619665e-02    0.000000e+00
   -2.472843e-03    1.473471e-02    0.000000e+00
   -3.026407e-03    1.596768e-02    0.000000e+00
   -3.230260e-03    1.635595e-02    0.000000e+00
   -2.695566e-03    1.527716e-02    0.000000e+00
   -2.631024e-03    1.512538e-02    0.000000e+00
   -2.517041e-03    1.484638e-02    0.000000e+00
   -3.390278e-03    1.668421e-02    0.000000e+00
   -3.307398e-03    1.651263e-02    0.000000e+00
   -2.894610e-03    1.571352e-02    0.000000e+00
   -2.528780e-03    1.480425e-02    0.000000e+00
   -3.294142e-03    1.637352e-02    0.000000e+00
   -3.345119e-03    1.640093e-02    0.000000e+00
   -3.434248e-03    1.652705e-02    0.000000e+00
   -2.606058e-03    1.471500e-02    0.000000e+00
   -3.351278e-03    1.657888e-02    0.000000e+00
   -2.677579e-03    1.463513e-02    0.000000e+00
   -2.590412e-03    1.485285e-02    0.000000e+00
   -2.612402e-03    1.407246e-02    0.000000e+00
   -3.205144e-03    1.627364e-02    0.000000e+00
   -2.762619e-03    1.542980e-02    0.000000e+00
   -2.676416e-03    1.520823e-02    0.000000e+00
   -2.609454e-03    1.504780e-02    0.000000e+00
   -3.078565e-03    1.605445e-02    0.000000e+00
   -3.284293e-03    1.643801e-02    0.000000e+00
   -2.819415e-03    1.555741e-02    0.000000e+00
   -2.939618e-03    1.579119e-02    0.000000e+00
   -2.546897e-03    1.489382e-02    0.000000e+00
   -2.675564e-03    1.490930e-02    0.000000e+00
   -2.570919e-03    1.486894e-02    0.000000e+00
   -2.615405e-03    1.483218e-02    0.000000e+00
   -2.685500e-03    1.447658e-02    0.000000e+00
   -3.354845e-03    1.631726e-02    0.000000e+00
   -3.239998e-03    1.620704e-02    0.000000e+00
   -2.753140e-03    1.485410e-02    0.000000e+00
   -2.700350e-03    1.429387e-02    0.000000e+00
   -2.654004e-03    1.511487e-02    0.000000e+00
   -3.005534e-03    1.589506e-02    0.000000e+00
   -2.750530e-03    1.538209e-02    0.000000e+00
   -3.264699e-03    1.636354e-02    0.000000e+00
   -2.587460e-03    1.495520e-02    0.000000e+00
   -2.627605e-03    1.499906e-02    0.000000e+00
   -2.838087e-03    1.558212e-02    0.000000e+00
   -3.193719e-03    1.619489e-02    0.000000e+00
   -2.750135e-03    1.499209e-02    0.000000e+00
   -3.109008e-03    1.607813e-02    0.000000e+00
   -3.279447e-03    1.621045e-02    0.000000e+00
   -3.446314e-03    1.643199e-02    0.000000e+00
   -2.756983e-03    1.469983e-02    0.000000e+00
   -2.682354e-03    1.403875e-02    0.000000e+00
   -2.731352e-03    1.529690e-02    0.000000e+00
   -3.184890e-03    1.601032e-02    0.000000e+00
   -3.273205e-03    1.610613e-02    0.000000e+00
   -2.905547e-03    1.569046e-02    0.000000e+00
   -2.816665e-03    1.549396e-02    0.000000e+00
   -2.705627e-03    1.517840e-02    0.000000e+00
   -3.351538e-03    1.621173e-02    0.000000e+00
   -2.751834e-03    1.511730e-02    0.000000e+00
   -3.030006e-03    1.589188e-02    0.000000e+00
   -2.830527e-03    1.507374e-02    0.000000e+00
   -2.844189e-03    1.493752e-02    0.000000e+00
   -2.768827e-03    1.455071e-02    0.000000e+00
   -2.672518e-03    1.501953e-02    0.000000e+00
   -2.768407e-03    1.422686e-02    0.000000e+00
   -3.511586e-03    1.643324e-02    0.000000e+00
   -2.957781e-03    1.576355e-02    0.000000e+00
   -3.103714e-03    1.601180e-02    0.000000e+00
   -3.285660e-03    1.598801e-02    0.000000e+00
   -3.140491e-03    1.602335e-02    0.000000e+00
   -2.764203e-03    1.523968e-02    0.000000e+00
   -2.831339e-03    1.521083e-02    0.000000e+00
   -2.888057e-03    1.560528e-02    0.000000e+00
   -2.827902e-03    1.475104e-02    0.000000e+00
   -3.622757e-03    1.666603e-02    0.000000e+00
   -2.750462e-03    1.401113e-02    0.000000e+00
   -2.790520e-03    1.442847e-02    0.000000e+00
   -2.963722e-03    1.572338e-02    0.000000e+00
   -2.890926e-03    1.554511e-02    0.000000e+00
   -3.076753e-03    1.583284e-02    0.000000e+00
   -2.831423e-03    1.531856e-02    0.000000e+00
   -3.046638e-03    1.585858e-02    0.000000e+00
   -2.867877e-03    1.465582e-02    0.000000e+00
   -3.187992e-03    1.588538e-02    0.000000e+00
   -2.912675e-03    1.529182e-02    0.000000e+00
   -2.901526e-03    1.514880e-02    0.000000e+00
   -3.576750e-03    1.641883e-02    0.000000e+00
   -3.663972e-03    1.689952e-02    0.000000e+00
   -2.841797e-03    1.416015e-02    0.000000e+00
   -2.676606e-03    1.377606e-02    0.000000e+00
   -3.110800e-03    1.568808e-02    0.000000e+00
   -2.980466e-03    1.531929e-02    0.000000e+00
   -2.922353e-03    1.545184e-02    0.000000e+00
   -3.016516e-03    1.565068e-02    0.000000e+00
   -3.694797e-03    1.709467e-02    0.000000e+00
   -2.947387e-03    1.461975e-02    0.000000e+00
   -2.970584e-03    1.565109e-02    0.000000e+00
   -2.834461e-03    1.539598e-02    0.000000e+00
   -2.596511e-03    1.384382e-02    0.000000e+00
   -3.718413e-03    1.690025e-02    0.000000e+00
   -3.465309e-03    1.620461e-02    0.000000e+00
   -2.638180e-03    1.348343e-02    0.000000e+00
   -3.511013e-03    1.664729e-02    0.000000e+00
   -2.888795e-03    1.547307e-02    0.000000e+00
   -3.014710e-03    1.552983e-02    0.000000e+00
   -3.039244e-03    1.530205e-02    0.000000e+00
   -2.931165e-03    1.439082e-02    0.000000e+00
   -2.994531e-03    1.490786e-02    0.000000e+00
   -3.774484e-03    1.719351e-02    0.000000e+00
   -3.403444e-03    1.621335e-02    0.000000e+00
   -3.518344e-03    1.615486e-02    0.000000e+00
   -3.818650e-03    1.705143e-02    0.000000e+00
   -2.564809e-03    1.337455e-02    0.000000e+00
   -2.997146e-03    1.509746e-02    0.000000e+00
   -2.930676e-03    1.420202e-02    0.000000e+00
   -3.047085e-03    1.477843e-02    0.000000e+00
   -3.633428e-03    1.635983e-02    0.000000e+00
   -3.253221e-03    1.575923e-02    0.000000e+00
   -2.509720e-03    1.318465e-02    0.000000e+00
   -2.910459e-03    1.491302e-02    0.000000e+00
   -3.100863e-03    1.524498e-02    0.000000e+00
   -3.175237e-03    1.572669e-02    0.000000e+00
   -3.336253e-03    1.578852e-02    0.000000e+00
   -2.884884e-03    1.401434e-02    0.000000e+00
   -3.439721e-03    1.585419e-02    0.000000e+00
   -3.694577e-03    1.628720e-02    0.000000e+00
   -3.143508e-03    1.551537e-02    0.000000e+00
   -3.075881e-03    1.551543e-02    0.000000e+00
   -2.882925e-03    1.379444e-02    0.000000e+00
   -3.505638e-03    1.575663e-02    0.000000e+00
   -3.635659e-03    1.596159e-02    0.000000e+00
   -3.558881e-03    1.557893e-02    0.000000e+00
   -3.399803e-03    1.559117e-02    0.000000e+00
   -3.307752e-03    1.531434e-02    0.000000e+00
   -3.319112e-03    1.556660e-02    0.000000e+00
   -3.226088e-03    1.553246e-02    0.000000e+00
   -3.354918e-03    1.514713e-02    0.000000e+00
   -3.423877e-03    1.600069e-02    0.000000e+00
   -3.115726e-03    1.504213e-02    0.000000e+00
   -3.460490e-03    1.526052e-02    0.000000e+00
   -3.247201e-03    1.500843e-02    0.000000e+00
   -3.146354e-03    1.488888e-02    0.000000e+00
   -3.205094e-03    1.511312e-02    0.000000e+00
   -3.396879e-03    1.502036e-02    0.000000e+00
   -3.393704e-03    1.480205e-02    0.000000e+00
   -3.184334e-03    1.474343e-02    0.000000e+00
   -3.124872e-03    1.449410e-02    0.000000e+00
   -3.479543e-03    1.506884e-02    0.000000e+00
   -3.287134e-03    1.454514e-02    0.000000e+00
   -3.580767e-03    1.516416e-02    0.000000e+00
   -3.017498e-03    1.437491e-02    0.000000e+00
   -3.212636e-03    1.459352e-02    0.000000e+00
   -3.174967e-03    1.435435e-02    0.000000e+00
   -3.004736e-03    1.456140e-02    0.000000e+00
   -3.100707e-03    1.403186e-02    0.000000e+00
   -3.401918e-03    1.449779e-02    0.000000e+00
   -3.173070e-03    1.388438e-02    0.000000e+00
   -3.610148e-03    1.497757e-02    0.000000e+00
   -3.810168e-03    1.678448e-02    0.000000e+00
   -2.434060e-03    1.323331e-02    0.000000e+00
   -2.791930e-03    1.356936e-02    0.000000e+00
   -3.701225e-03    1.582440e-02    0.000000e+00
   -2.718400e-03    1.360812e-02    0.000000e+00
   -2.981008e-03    1.375942e-02    0.000000e+00
   -3.849651e-03    1.757693e-02    0.000000e+00
   -3.730732e-03    1.653279e-02    0.000000e+00
   -2.362472e-03    1.330441e-02    0.000000e+00
   -3.079326e-03    1.426418e-02    0.000000e+00
   -2.522474e-03    1.291534e-02    0.000000e+00
   -3.805392e-03    1.654653e-02    0.000000e+00
   -2.702403e-03    1.336652e-02    0.000000e+00
   -4.227734e-03    2.845879e-04    0.000000e+00
   -2.607800e-03    3.118622e-04    0.000000e+00
   -2.719026e-03    2.832346e-04    0.000000e+00
   -3.076366e-03    3.057020e-04    0.000000e+00
   -3.551303e-03    2.676487e-04    0.000000e+00
   -3.876964e-03    3.122964e-04    0.000000e+00
   -3.992351e-03    3.005207e-04    0.000000e+00
   -4.317639e-03    1.468902e-03    0.000000e+00
   -4.281981e-03    4.232395e-03    0.000000e+00
   -4.277487e-03    6.639264e-03    0.000000e+00
   -4.275187e-03    9.513425e-03    0.000000e+00
   -4.399692e-03    1.247282e-02    0.000000e+00
   -4.490324e-03    1.369138e-02    0.000000e+00
   -4.689108e-03    1.537663e-02    0.000000e+00
   -4.841846e-03    1.653689e-02    0.000000e+00
   -4.256366e-03    8.279953e-03    0.000000e+00
   -4.293734e-03    5.335498e-03    0.000000e+00
   -4.306235e-03    2.607258e-03    0.000000e+00
   -2.306356e-03    9.726141e-03    0.000000e+00
   -2.302059e-03    1.067867e-02    0.000000e+00
   -2.297864e-03    1.220862e-02    0.000000e+00
   -2.317232e-03    6.969257e-03    0.000000e+00
   -2.330082e-03    2.603174e-03    0.000000e+00
   -2.314420e-03    1.429450e-03    0.000000e+00
   -2.326026e-03    5.377686e-03    0.000000e+00
   -2.314982e-03    4.212125e-03    0.000000e+00
   -2.281646e-03    1.311278e-02    0.000000e+00
   -2.328599e-03    8.071621e-03    0.000000e+00
   -4.062178e-03    1.756054e-02    0.000000e+00
   -4.174222e-03    1.764566e-02    0.000000e+00
   -4.493669e-03    1.769528e-02    0.000000e+00
   -4.586814e-03    1.769432e-02    0.000000e+00
   -2.251324e-03    1.337903e-02    0.000000e+00
   -4.815658e-03    1.770400e-02    0.000000e+00
   -3.828215e-03    1.601649e-02    0.000000e+00
   -2.691014e-03    1.307562e-02    0.000000e+00
   -3.901259e-03    1.706070e-02    0.000000e+00
   -3.918970e-03    1.661196e-02    0.000000e+00
   -3.270221e-03    1.390376e-02    0.000000e+00
   -3.075903e-03    1.369342e-02    0.000000e+00
   -2.880353e-03    1.351515e-02    0.000000e+00
   -3.712016e-03    1.529647e-02    0.000000e+00
   -3.560314e-03    1.464271e-02    0.000000e+00
   -2.369195e-03    1.302764e-02    0.000000e+00
   -2.456671e-03    1.271282e-02    0.000000e+00
   -3.910657e-03    1.772084e-02    0.000000e+00
   -2.605867e-03    1.285500e-02    0.000000e+00
   -3.743199e-03    2.443455e-04    0.000000e+00
   -2.968090e-03    2.785782e-04    0.000000e+00
   -2.495068e-03    2.779748e-04    0.000000e+00
   -4.294522e-03    8.662960e-03    0.000000e+00
   -4.340527e-03    1.798370e-03    0.000000e+00
   -4.309599e-03    2.998331e-03    0.000000e+00
   -4.316900e-03    4.595876e-03    0.000000e+00
   -4.296385e-03    5.906619e-03    0.000000e+00
   -4.401690e-03    1.191573e-02    0.000000e+00
   -4.483879e-03    1.331382e-02    0.000000e+00
   -4.643696e-03    1.497443e-02    0.000000e+00
   -4.829973e-03    1.623040e-02    0.000000e+00
   -4.285608e-03    9.924712e-03    0.000000e+00
   -4.278824e-03    7.024072e-03    0.000000e+00
   -4.294834e-03    3.793363e-03    0.000000e+00
   -4.361602e-03    9.225596e-04    0.000000e+00
   -2.292798e-03    1.118315e-02    0.000000e+00
   -2.270797e-03    1.254957e-02    0.000000e+00
   -2.302533e-03    7.718097e-03    0.000000e+00
   -2.319243e-03    5.759753e-03    0.000000e+00
   -2.277002e-03    4.640902e-03    0.000000e+00
   -2.305200e-03    3.683532e-03    0.000000e+00
   -2.309401e-03    8.798070e-04    0.000000e+00
   -2.301131e-03    6.441745e-03    0.000000e+00
   -2.323752e-03    2.988869e-03    0.000000e+00
   -2.278726e-03    1.860767e-03    0.000000e+00
   -2.282724e-03    9.999053e-03    0.000000e+00
   -2.295025e-03    9.157866e-03    0.000000e+00
   -4.265854e-03    1.769399e-02    0.000000e+00
   -4.192744e-03    9.244735e-04    0.000000e+00
   -4.018527e-03    8.422013e-04    0.000000e+00
   -3.579777e-03    8.649826e-04    0.000000e+00
   -3.075792e-03    8.762333e-04    0.000000e+00
   -2.603730e-03    9.814150e-04    0.000000e+00
   -4.760846e-03    1.704485e-02    0.000000e+00
   -4.580326e-03    1.703813e-02    0.000000e+00
   -4.174110e-03    1.707321e-02    0.000000e+00
   -3.994846e-03    1.706774e-02    0.000000e+00
   -3.863010e-03    8.903875e-04    0.000000e+00
   -2.796825e-03    8.476545e-04    0.000000e+00
   -4.424142e-03    1.714023e-02    0.000000e+00
   -4.547031e-03    1.413943e-02    0.000000e+00
   -2.314827e-03    8.477334e-03    0.000000e+00
   -2.296418e-03    1.183090e-02    0.000000e+00
   -4.266819e-03    7.832033e-03    0.000000e+00
   -4.923273e-03    1.708531e-02    0.000000e+00
   -4.109341e-03    8.304471e-03    0.000000e+00
   -2.459977e-03    8.063778e-03    0.000000e+00
   -4.708482e-03    1.657316e-02    0.000000e+00
   -4.562553e-03    1.544312e-02    0.000000e+00
   -2.400679e-03    1.229404e-02    0.000000e+00
   -4.266966e-03    1.244514e-02    0.000000e+00
   -2.412405e-03    1.066642e-02    0.000000e+00
   -2.429905e-03    9.743677e-03    0.000000e+00
   -4.128872e-03    9.361603e-03    0.000000e+00
   -2.441467e-03    6.958867e-03    0.000000e+00
   -4.154448e-03    5.269962e-03    0.000000e+00
   -2.455162e-03    5.272408e-03    0.000000e+00
   -4.133910e-03    4.281620e-03    0.000000e+00
   -2.443229e-03    4.270866e-03    0.000000e+00
   -4.170136e-03    2.460572e-03    0.000000e+00
   -2.461391e-03    2.497695e-03    0.000000e+00
   -4.180901e-03    1.358956e-03    0.000000e+00
   -2.440931e-03    1.485136e-03    0.000000e+00
   -4.139713e-03    6.480125e-03    0.000000e+00
   -4.345873e-03    1.362208e-02    0.000000e+00
   -3.186614e-03    2.680054e-04    0.000000e+00
   -3.966033e-03    1.761730e-02    0.000000e+00
   -2.778249e-03    1.299112e-02    0.000000e+00
   -2.388612e-03    1.276219e-02    0.000000e+00
   -3.766880e-03    1.567561e-02    0.000000e+00
   -2.256788e-03    1.281178e-02    0.000000e+00
   -2.876369e-03    1.321901e-02    0.000000e+00
   -2.530357e-03    1.259904e-02    0.000000e+00
   -3.910153e-03    1.729608e-02    0.000000e+00
   -3.061358e-03    1.342642e-02    0.000000e+00
   -3.544013e-03    1.531056e-02    0.000000e+00
   -4.215519e-03    1.358496e-02    0.000000e+00
   -4.121339e-03    1.240578e-02    0.000000e+00
   -2.491202e-03    1.229879e-02    0.000000e+00
   -3.863409e-03    1.527469e-02    0.000000e+00
   -2.688536e-03    1.277263e-02    0.000000e+00
   -3.574115e-03    1.437226e-02    0.000000e+00
   -3.355569e-03    1.415809e-02    0.000000e+00
   -3.669182e-03    1.458381e-02    0.000000e+00
   -3.286303e-03    1.366538e-02    0.000000e+00
   -3.890749e-03    1.630452e-02    0.000000e+00
   -4.133818e-03    7.610154e-03    0.000000e+00
   -4.178924e-03    2.075198e-03    0.000000e+00
   -2.395025e-03    9.061439e-03    0.000000e+00
   -2.405567e-03    6.330803e-03    0.000000e+00
   -2.433993e-03    4.619486e-03    0.000000e+00
   -2.413137e-03    3.572987e-03    0.000000e+00
   -2.436947e-03    1.839063e-03    0.000000e+00
   -2.406808e-03    8.382864e-04    0.000000e+00
   -4.195247e-03    3.169454e-03    0.000000e+00
   -4.154850e-03    4.903181e-03    0.000000e+00
   -4.174911e-03    6.026832e-03    0.000000e+00
   -4.161811e-03    7.187776e-03    0.000000e+00
   -4.177043e-03    1.003574e-02    0.000000e+00
   -4.283035e-03    1.305261e-02    0.000000e+00
   -4.429685e-03    1.427774e-02    0.000000e+00
   -4.662594e-03    1.615073e-02    0.000000e+00
   -4.536608e-03    1.657808e-02    0.000000e+00
   -4.075908e-03    1.642955e-02    0.000000e+00
   -4.478140e-03    1.474259e-02    0.000000e+00
   -2.399616e-03    1.170094e-02    0.000000e+00
   -4.202561e-03    1.177026e-02    0.000000e+00
   -2.425150e-03    1.007720e-02    0.000000e+00
   -4.124566e-03    8.956751e-03    0.000000e+00
   -2.479566e-03    7.537662e-03    0.000000e+00
   -2.439487e-03    5.948853e-03    0.000000e+00
   -4.163950e-03    3.583939e-03    0.000000e+00
   -2.448130e-03    3.179166e-03    0.000000e+00
   -2.608932e-03    1.420024e-03    0.000000e+00
   -3.050085e-03    1.409606e-03    0.000000e+00
   -3.546001e-03    1.454308e-03    0.000000e+00
   -4.046005e-03    1.412855e-03    0.000000e+00
   -4.260378e-03    1.711291e-02    0.000000e+00
   -4.405015e-03    1.658969e-02    0.000000e+00
   -2.747969e-03    1.416978e-03    0.000000e+00
   -3.832474e-03    1.425390e-03    0.000000e+00
   -3.974204e-03    8.279626e-03    0.000000e+00
   -2.428734e-03    8.677060e-03    0.000000e+00
   -2.581510e-03    8.087202e-03    0.000000e+00
   -4.414036e-03    1.540154e-02    0.000000e+00
   -2.401019e-03    1.129939e-02    0.000000e+00
   -2.536380e-03    1.072254e-02    0.000000e+00
   -2.560683e-03    9.689359e-03    0.000000e+00
   -3.978763e-03    9.413539e-03    0.000000e+00
   -2.582744e-03    6.923663e-03    0.000000e+00
   -3.984604e-03    5.294345e-03    0.000000e+00
   -2.597897e-03    5.259242e-03    0.000000e+00
   -3.989242e-03    4.285045e-03    0.000000e+00
   -2.605318e-03    4.256855e-03    0.000000e+00
   -4.008709e-03    2.453955e-03    0.000000e+00
   -2.603566e-03    2.481894e-03    0.000000e+00
   -3.683187e-03    8.685072e-04    0.000000e+00
   -3.368282e-03    8.194444e-04    0.000000e+00
   -3.261309e-03    8.273168e-04    0.000000e+00
   -2.896553e-03    8.429131e-04    0.000000e+00
   -3.977253e-03    6.516152e-03    0.000000e+00
   -3.539084e-03    1.406205e-02    0.000000e+00
   -3.755617e-03    1.443507e-02    0.000000e+00
   -3.980574e-03    1.647186e-02    0.000000e+00
   -2.868974e-03    1.290802e-02    0.000000e+00
   -2.679573e-03    1.243864e-02    0.000000e+00
   -2.982263e-03    1.314673e-02    0.000000e+00
   -2.409296e-03    1.255436e-02    0.000000e+00
   -3.107589e-03    1.323734e-02    0.000000e+00
   -3.241051e-03    1.333628e-02    0.000000e+00
   -2.702343e-03    8.111036e-03    0.000000e+00
   -4.267819e-03    1.533173e-02    0.000000e+00
   -2.679794e-03    9.700401e-03    0.000000e+00
   -3.842465e-03    8.250844e-03    0.000000e+00
   -3.845936e-03    9.411003e-03    0.000000e+00
   -3.887544e-03    1.586608e-02    0.000000e+00
   -2.664172e-03    1.083118e-02    0.000000e+00
   -4.297174e-03    1.418673e-02    0.000000e+00
   -4.184489e-03    1.301149e-02    0.000000e+00
   -2.505796e-03    1.178839e-02    0.000000e+00
   -4.082402e-03    1.174940e-02    0.000000e+00
   -2.519562e-03    1.128360e-02    0.000000e+00
   -3.391183e-03    1.391407e-02    0.000000e+00
   -4.099060e-03    1.355350e-02    0.000000e+00
   -4.002949e-03    1.237399e-02    0.000000e+00
   -3.944284e-03    8.844550e-03    0.000000e+00
   -3.972645e-03    1.005694e-02    0.000000e+00
   -2.589609e-03    7.531996e-03    0.000000e+00
   -2.585846e-03    6.317708e-03    0.000000e+00
   -2.586359e-03    9.065227e-03    0.000000e+00
   -2.606508e-03    4.621670e-03    0.000000e+00
   -2.600322e-03    3.553611e-03    0.000000e+00
   -2.629942e-03    1.858130e-03    0.000000e+00
   -4.008185e-03    3.191529e-03    0.000000e+00
   -3.981255e-03    4.929946e-03    0.000000e+00
   -3.976735e-03    5.939332e-03    0.000000e+00
   -3.951605e-03    7.201523e-03    0.000000e+00
   -4.151481e-03    1.071511e-02    0.000000e+00
   -4.460384e-03    1.609908e-02    0.000000e+00
   -4.202691e-03    1.651273e-02    0.000000e+00
   -4.330222e-03    1.472986e-02    0.000000e+00
   -2.579455e-03    1.020907e-02    0.000000e+00
   -4.168794e-03    1.110935e-02    0.000000e+00
   -3.974990e-03    7.575061e-03    0.000000e+00
   -2.589870e-03    5.991393e-03    0.000000e+00
   -4.004187e-03    3.532338e-03    0.000000e+00
   -2.603930e-03    3.220819e-03    0.000000e+00
   -4.011611e-03    2.062402e-03    0.000000e+00
   -3.050419e-03    1.973594e-03    0.000000e+00
   -3.541812e-03    1.972782e-03    0.000000e+00
   -2.949123e-03    1.415430e-03    0.000000e+00
   -3.257516e-03    1.428696e-03    0.000000e+00
   -3.360048e-03    1.431455e-03    0.000000e+00
   -3.730486e-03    1.438231e-03    0.000000e+00
   -4.318868e-03    1.597631e-02    0.000000e+00
   -2.747103e-03    1.997727e-03    0.000000e+00
   -3.822808e-03    2.056435e-03    0.000000e+00
   -2.719003e-03    6.933989e-03    0.000000e+00
   -2.571799e-03    8.714150e-03    0.000000e+00
   -3.832931e-03    5.362011e-03    0.000000e+00
   -2.741341e-03    5.274752e-03    0.000000e+00
   -3.841237e-03    4.264224e-03    0.000000e+00
   -2.761244e-03    4.183094e-03    0.000000e+00
   -3.840755e-03    2.479595e-03    0.000000e+00
   -2.758151e-03    2.427434e-03    0.000000e+00
   -3.832029e-03    6.527408e-03    0.000000e+00
   -3.943900e-03    1.569919e-02    0.000000e+00
   -3.917832e-03    1.253106e-02    0.000000e+00
   -3.978855e-03    1.334628e-02    0.000000e+00
   -4.023918e-03    1.372946e-02    0.000000e+00
   -3.900822e-03    1.215047e-02    0.000000e+00
   -3.665694e-03    1.408695e-02    0.000000e+00
   -3.464916e-03    1.375321e-02    0.000000e+00
   -3.046602e-03    1.296642e-02    0.000000e+00
   -2.579527e-03    1.235188e-02    0.000000e+00
   -4.007100e-03    1.603806e-02    0.000000e+00
   -3.794512e-03    1.482030e-02    0.000000e+00
   -2.861952e-03    1.259876e-02    0.000000e+00
   -2.876154e-03    5.313408e-03    0.000000e+00
   -3.703045e-03    5.367319e-03    0.000000e+00
   -2.847216e-03    6.964138e-03    0.000000e+00
   -3.696901e-03    6.513610e-03    0.000000e+00
   -4.035351e-03    1.064807e-02    0.000000e+00
   -3.846772e-03    7.152516e-03    0.000000e+00
   -2.679468e-03    9.126304e-03    0.000000e+00
   -3.872219e-03    1.003990e-02    0.000000e+00
   -2.658166e-03    1.023653e-02    0.000000e+00
   -3.351050e-03    1.327163e-02    0.000000e+00
   -4.204268e-03    1.470231e-02    0.000000e+00
   -3.857504e-03    8.830891e-03    0.000000e+00
   -3.854804e-03    7.636060e-03    0.000000e+00
   -2.685385e-03    8.663308e-03    0.000000e+00
   -3.267610e-03    1.305629e-02    0.000000e+00
   -4.163130e-03    1.585278e-02    0.000000e+00
   -4.061160e-03    1.116523e-02    0.000000e+00
   -2.781964e-03    8.120043e-03    0.000000e+00
   -3.734304e-03    8.237528e-03    0.000000e+00
   -4.154953e-03    1.529711e-02    0.000000e+00
   -2.779218e-03    9.723262e-03    0.000000e+00
   -3.737899e-03    9.399584e-03    0.000000e+00
   -2.607247e-03    1.129428e-02    0.000000e+00
   -3.992612e-03    1.173232e-02    0.000000e+00
   -3.037438e-03    2.549323e-03    0.000000e+00
   -3.569123e-03    2.559764e-03    0.000000e+00
   -2.953853e-03    1.947403e-03    0.000000e+00
   -3.255091e-03    1.995596e-03    0.000000e+00
   -3.357102e-03    1.995347e-03    0.000000e+00
   -3.718262e-03    1.989131e-03    0.000000e+00
   -3.848078e-03    3.194541e-03    0.000000e+00
   -2.761766e-03    4.732735e-03    0.000000e+00
   -2.757035e-03    3.543281e-03    0.000000e+00
   -2.712350e-03    7.542781e-03    0.000000e+00
   -3.807316e-03    4.832832e-03    0.000000e+00
   -3.807608e-03    5.939787e-03    0.000000e+00
   -2.756371e-03    6.325495e-03    0.000000e+00
   -2.738634e-03    5.979277e-03    0.000000e+00
   -3.847695e-03    3.521253e-03    0.000000e+00
   -2.757011e-03    3.226810e-03    0.000000e+00
   -3.692370e-03    2.559874e-03    0.000000e+00
   -3.693952e-03    4.253091e-03    0.000000e+00
   -2.907324e-03    4.161552e-03    0.000000e+00
   -2.912593e-03    2.510693e-03    0.000000e+00
   -4.350790e-03    1.071443e-02    0.000000e+00
   -3.250550e-03    1.273646e-02    0.000000e+00
   -3.456236e-03    1.347966e-02    0.000000e+00
   -3.438417e-03    1.318164e-02    0.000000e+00
   -3.866883e-03    1.469362e-02    0.000000e+00
   -3.042482e-03    1.268836e-02    0.000000e+00
   -4.046383e-03    1.513056e-02    0.000000e+00
   -2.691160e-03    1.144383e-02    0.000000e+00
   -2.862186e-03    9.907264e-03    0.000000e+00
   -3.653762e-03    9.572904e-03    0.000000e+00
   -3.646604e-03    8.398975e-03    0.000000e+00
   -3.647661e-03    8.055009e-03    0.000000e+00
   -3.648167e-03    9.212482e-03    0.000000e+00
   -2.861704e-03    9.575027e-03    0.000000e+00
   -3.885778e-03    1.172411e-02    0.000000e+00
   -4.099942e-03    1.545831e-02    0.000000e+00
   -2.946980e-03    1.249526e-02    0.000000e+00
   -2.776861e-03    1.238160e-02    0.000000e+00
   -3.705643e-03    1.386565e-02    0.000000e+00
   -2.539671e-03    1.207286e-02    0.000000e+00
   -3.939997e-03    1.293777e-02    0.000000e+00
   -4.080528e-03    1.407843e-02    0.000000e+00
   -3.542968e-03    4.238575e-03    0.000000e+00
   -3.718453e-03    4.837500e-03    0.000000e+00
   -3.711789e-03    5.932215e-03    0.000000e+00
   -2.852192e-03    6.384848e-03    0.000000e+00
   -2.822131e-03    7.547849e-03    0.000000e+00
   -2.857699e-03    5.913323e-03    0.000000e+00
   -4.053460e-03    1.586759e-02    0.000000e+00
   -2.961873e-03    5.336471e-03    0.000000e+00
   -3.616107e-03    5.349325e-03    0.000000e+00
   -2.951476e-03    6.986474e-03    0.000000e+00
   -3.589763e-03    6.494497e-03    0.000000e+00
   -3.989819e-03    1.528853e-02    0.000000e+00
   -3.785965e-03    1.228344e-02    0.000000e+00
   -3.862867e-03    1.353270e-02    0.000000e+00
   -2.924772e-03    4.766131e-03    0.000000e+00
   -2.906704e-03    3.539380e-03    0.000000e+00
   -3.649123e-03    7.096509e-03    0.000000e+00
   -3.694062e-03    3.526766e-03    0.000000e+00
   -3.687890e-03    3.194034e-03    0.000000e+00
   -2.903740e-03    3.229611e-03    0.000000e+00
   -3.036245e-03    3.216004e-03    0.000000e+00
   -3.531644e-03    3.104967e-03    0.000000e+00
   -3.253392e-03    2.569515e-03    0.000000e+00
   -3.356594e-03    2.566159e-03    0.000000e+00
   -3.823600e-03    1.061234e-02    0.000000e+00
   -3.056245e-03    4.170654e-03    0.000000e+00
   -3.545615e-03    1.335646e-02    0.000000e+00
   -2.861682e-03    1.229678e-02    0.000000e+00
   -3.543369e-03    8.194496e-03    0.000000e+00
   -3.543977e-03    9.401671e-03    0.000000e+00
   -3.983384e-03    1.477484e-02    0.000000e+00
   -2.589219e-03    1.187866e-02    0.000000e+00
   -3.033386e-03    7.166858e-03    0.000000e+00
   -3.507438e-03    6.679173e-03    0.000000e+00
   -3.499725e-03    6.341553e-03    0.000000e+00
   -3.038194e-03    6.841556e-03    0.000000e+00
   -2.860376e-03    8.106402e-03    0.000000e+00
   -3.349601e-03    1.274448e-02    0.000000e+00
   -3.785587e-03    1.413972e-02    0.000000e+00
   -3.844538e-03    1.291124e-02    0.000000e+00
   -2.659090e-03    1.115139e-02    0.000000e+00
   -2.689546e-03    1.184591e-02    0.000000e+00
   -2.864784e-03    1.029693e-02    0.000000e+00
   -3.846669e-03    1.128038e-02    0.000000e+00
   -3.204200e-03    4.211638e-03    0.000000e+00
   -3.021372e-03    4.777294e-03    0.000000e+00
   -3.533021e-03    7.032605e-03    0.000000e+00
   -3.699654e-03    1.059672e-02    0.000000e+00
   -3.567422e-03    3.581966e-03    0.000000e+00
   -3.132048e-03    1.256086e-02    0.000000e+00
   -2.710811e-03    1.217476e-02    0.000000e+00
   -3.395020e-03    4.230463e-03    0.000000e+00
   -2.977033e-03    9.725506e-03    0.000000e+00
   -3.633739e-03    8.800198e-03    0.000000e+00
   -2.869032e-03    9.259445e-03    0.000000e+00
   -3.058484e-03    3.520324e-03    0.000000e+00
   -3.507657e-03    4.911621e-03    0.000000e+00
   -3.638466e-03    7.708655e-03    0.000000e+00
   -3.647881e-03    9.958664e-03    0.000000e+00
   -3.261900e-03    3.191416e-03    0.000000e+00
   -3.366032e-03    3.126587e-03    0.000000e+00
   -2.878081e-03    8.669529e-03    0.000000e+00
   -3.692048e-03    1.352382e-02    0.000000e+00
   -3.894673e-03    1.416441e-02    0.000000e+00
   -3.390413e-03    6.526837e-03    0.000000e+00
   -3.047224e-03    5.325821e-03    0.000000e+00
   -2.786053e-03    1.184834e-02    0.000000e+00
   -3.709499e-03    1.120528e-02    0.000000e+00
   -3.429269e-03    1.290398e-02    0.000000e+00
   -3.030174e-03    1.232934e-02    0.000000e+00
   -2.969944e-03    8.103780e-03    0.000000e+00
   -2.986765e-03    8.679182e-03    0.000000e+00
   -3.392844e-03    4.836637e-03    0.000000e+00
   -3.525972e-03    7.644757e-03    0.000000e+00
   -3.500527e-03    8.778981e-03    0.000000e+00
   -2.969907e-03    9.265818e-03    0.000000e+00
   -3.206038e-03    1.236948e-02    0.000000e+00
   -2.780277e-03    1.145579e-02    0.000000e+00
   -3.300139e-03    4.234185e-03    0.000000e+00
   -3.138928e-03    7.026807e-03    0.000000e+00
   -2.773201e-03    1.082474e-02    0.000000e+00
   -3.261759e-03    3.545541e-03    0.000000e+00
   -3.515819e-03    5.291866e-03    0.000000e+00
   -3.037506e-03    7.508126e-03    0.000000e+00
   -3.054035e-03    6.510130e-03    0.000000e+00
   -3.487451e-03    5.989921e-03    0.000000e+00
   -3.204532e-03    4.794654e-03    0.000000e+00
   -3.367283e-03    3.609872e-03    0.000000e+00
   -3.064980e-03    5.906413e-03    0.000000e+00
   -3.525606e-03    1.280617e-02    0.000000e+00
   -3.160247e-03    1.205659e-02    0.000000e+00
   -2.972846e-03    1.200372e-02    0.000000e+00
   -2.869104e-03    1.197704e-02    0.000000e+00
   -2.853640e-03    1.100549e-02    0.000000e+00
   -2.850875e-03    1.067055e-02    0.000000e+00
   -3.167065e-03    5.313233e-03    0.000000e+00
   -3.184350e-03    5.909418e-03    0.000000e+00
   -3.164693e-03    6.493097e-03    0.000000e+00
   -3.356599e-03    5.926864e-03    0.000000e+00
   -3.148577e-03    7.573323e-03    0.000000e+00
   -3.608487e-03    1.313496e-02    0.000000e+00
   -3.386013e-03    5.329862e-03    0.000000e+00
   -3.087117e-03    8.692581e-03    0.000000e+00
   -3.336542e-03    7.092535e-03    0.000000e+00
   -3.314788e-03    8.212822e-03    0.000000e+00
   -3.414763e-03    1.260920e-02    0.000000e+00
   -2.946775e-03    1.087416e-02    0.000000e+00
   -2.861918e-03    1.136777e-02    0.000000e+00
   -3.164753e-03    8.872002e-03    0.000000e+00
   -2.828458e-03    1.166655e-02    0.000000e+00
   -3.587331e-03    1.258416e-02    0.000000e+00
   -3.066790e-03    1.202866e-02    0.000000e+00
   -2.983619e-03    1.036095e-02    0.000000e+00
   -3.188839e-03    8.213508e-03    0.000000e+00
   -3.651925e-03    1.285622e-02    0.000000e+00
   -3.271041e-03    5.915490e-03    0.000000e+00
   -3.337686e-03    7.594618e-03    0.000000e+00
   -3.577315e-03    1.225815e-02    0.000000e+00
   -2.964906e-03    1.143467e-02    0.000000e+00
   -3.170538e-03    8.552147e-03    0.000000e+00
   -3.013976e-03    1.173312e-02    0.000000e+00
   -3.385251e-03    1.227168e-02    0.000000e+00
   -3.169239e-03    9.229807e-03    0.000000e+00
   -3.766118e-03    1.288417e-02    0.000000e+00
   -3.332202e-03    8.512877e-03    0.000000e+00
   -3.672377e-03    1.219874e-02    0.000000e+00
   -3.464952e-03    1.210629e-02    0.000000e+00
   -3.270006e-03    1.208922e-02    0.000000e+00
   -3.267450e-03    8.742967e-03    0.000000e+00
   -3.699956e-03    1.191248e-02    0.000000e+00
   -3.196530e-03    1.178159e-02    0.000000e+00
   -3.364979e-03    1.189041e-02    0.000000e+00
   -3.527129e-03    1.192729e-02    0.000000e+00
   -3.581099e-03    1.167852e-02    0.000000e+00
   -3.143019e-03    1.149134e-02    0.000000e+00
   -3.314981e-03    1.155231e-02    0.000000e+00
   -3.407023e-03    1.160538e-02    0.000000e+00
   -3.487160e-03    1.168547e-02    0.000000e+00
   -3.770491e-03    1.172815e-02    0.000000e+00
   -3.054317e-03    1.146547e-02    0.000000e+00
   -3.228218e-03    1.151018e-02    0.000000e+00
   -3.687667e-03    1.155427e-02    0.000000e+00
   -3.177929e-03    1.122303e-02    0.000000e+00
   -3.005076e-03    1.117488e-02    0.000000e+00
   -3.358949e-03    1.128847e-02    0.000000e+00
   -3.210272e-03    1.095853e-02    0.000000e+00
   -3.045176e-03    1.092628e-02    0.000000e+00
   -3.400839e-03    1.099374e-02    0.000000e+00
   -3.127693e-03    1.095419e-02    0.000000e+00
   -3.153944e-03    1.070037e-02    0.000000e+00
   -3.299694e-03    1.095460e-02    0.000000e+00
   -3.507467e-03    1.103331e-02    0.000000e+00
   -3.011889e-03    1.065506e-02    0.000000e+00
   -3.080039e-03    1.049058e-02    0.000000e+00
   -3.332643e-03    1.053485e-02    0.000000e+00
   -3.183200e-03    1.038596e-02    0.000000e+00
   -3.163959e-03    1.004053e-02    0.000000e+00
   -3.210152e-03    9.805981e-03    0.000000e+00
   -3.105121e-03    9.776620e-03    0.000000e+00
   -3.329473e-03    9.851000e-03    0.000000e+00
   -3.158029e-03    9.549451e-03    0.000000e+00
   -2.985013e-03    9.470092e-03    0.000000e+00
   -3.266780e-03    9.238525e-03    0.000000e+00
   -3.352833e-03    9.409930e-03    0.000000e+00
   -3.325545e-03    9.049579e-03    0.000000e+00
   -3.448402e-03    9.455999e-03    0.000000e+00
   -3.491629e-03    9.684693e-03    0.000000e+00
   -3.383929e-03    8.769770e-03    0.000000e+00
   -3.537338e-03    9.946912e-03    0.000000e+00
   -3.442784e-03    9.927044e-03    0.000000e+00
   -3.653924e-03    1.029013e-02    0.000000e+00
   -3.328713e-03    1.017925e-02    0.000000e+00
   -3.497596e-03    1.020687e-02    0.000000e+00
   -3.462322e-03    1.049271e-02    0.000000e+00
   -3.577120e-03    1.046816e-02    0.000000e+00
   -3.535242e-03    1.075068e-02    0.000000e+00
   -3.682642e-03    1.089155e-02    0.000000e+00
   -3.607017e-03    1.098897e-02    0.000000e+00
   -4.872733e-03    1.859743e-02    0.000000e+00
   -4.696558e-03    1.851845e-02    0.000000e+00
   -4.523998e-03    1.868091e-02    0.000000e+00
   -4.383043e-03    1.867300e-02    0.000000e+00
   -4.252628e-03    1.841295e-02    0.000000e+00
   -4.124090e-03    1.860937e-02    0.000000e+00
   -3.983701e-03    1.860941e-02    0.000000e+00
   -3.849949e-03    1.860227e-02    0.000000e+00
   -3.772304e-03    1.856163e-02    0.000000e+00
   -3.652893e-03    1.872458e-02    0.000000e+00
   -3.546539e-03    1.892451e-02    0.000000e+00
   -4.846710e-03    1.905189e-02    0.000000e+00
   -4.636301e-03    1.904236e-02    0.000000e+00
   -4.486345e-03    1.915590e-02    0.000000e+00
   -4.329617e-03    1.919043e-02    0.000000e+00
   -4.179007e-03    1.925005e-02    0.000000e+00
   -4.050359e-03    1.917552e-02    0.000000e+00
   -3.911934e-03    1.917070e-02    0.000000e+00
   -3.722179e-03    1.924092e-02    0.000000e+00
   -3.589208e-03    1.924550e-02    0.000000e+00
   -3.365379e-03    1.945909e-02    0.000000e+00
   -3.147931e-03    1.976353e-02    0.000000e+00
   -2.909899e-03    2.048972e-02    0.000000e+00
   -4.719026e-03    1.971791e-02    0.000000e+00
   -4.621655e-03    1.967560e-02    0.000000e+00
   -4.423916e-03    1.962196e-02    0.000000e+00
   -4.268105e-03    1.970811e-02    0.000000e+00
   -4.121582e-03    1.966916e-02    0.000000e+00
   -3.953424e-03    1.975788e-02    0.000000e+00
   -3.755790e-03    1.982479e-02    0.000000e+00
   -3.585516e-03    1.982876e-02    0.000000e+00
   -3.387099e-03    1.992534e-02    0.000000e+00
   -3.109396e-03    2.022457e-02    0.000000e+00
   -2.862060e-03    2.042926e-02    0.000000e+00
   -2.547855e-03    2.104854e-02    0.000000e+00
   -2.344029e-03    2.163811e-02    0.000000e+00
   -4.710156e-03    2.013873e-02    0.000000e+00
   -4.531530e-03    2.023226e-02    0.000000e+00
   -4.408571e-03    2.024757e-02    0.000000e+00
   -4.186622e-03    2.020023e-02    0.000000e+00
   -4.024663e-03    2.035692e-02    0.000000e+00
   -3.865183e-03    2.031888e-02    0.000000e+00
   -3.633846e-03    2.051758e-02    0.000000e+00
   -3.453832e-03    2.038057e-02    0.000000e+00
   -3.244875e-03    2.054247e-02    0.000000e+00
   -2.920035e-03    2.090045e-02    0.000000e+00
   -2.680786e-03    2.113058e-02    0.000000e+00
   -2.439467e-03    2.154953e-02    0.000000e+00
   -2.289688e-03    2.188962e-02    0.000000e+00
   -4.555903e-03    2.093080e-02    0.000000e+00
   -4.426063e-03    2.087871e-02    0.000000e+00
   -4.283886e-03    2.086288e-02    0.000000e+00
   -4.132817e-03    2.087281e-02    0.000000e+00
   -3.980156e-03    2.089769e-02    0.000000e+00
   -3.726852e-03    2.109132e-02    0.000000e+00
   -3.516830e-03    2.121514e-02    0.000000e+00
   -3.317690e-03    2.106483e-02    0.000000e+00
   -3.113131e-03    2.121752e-02    0.000000e+00
   -2.830720e-03    2.154454e-02    0.000000e+00
   -2.646449e-03    2.164470e-02    0.000000e+00
   -2.426598e-03    2.194959e-02    0.000000e+00
   -2.288257e-03    2.223067e-02    0.000000e+00
   -4.539459e-03    2.140341e-02    0.000000e+00
   -4.351548e-03    2.144318e-02    0.000000e+00
   -4.199580e-03    2.147107e-02    0.000000e+00
   -4.043223e-03    2.149877e-02    0.000000e+00
   -3.868565e-03    2.154024e-02    0.000000e+00
   -3.640708e-03    2.187253e-02    0.000000e+00
   -3.416885e-03    2.186318e-02    0.000000e+00
   -3.194756e-03    2.180718e-02    0.000000e+00
   -2.950757e-03    2.201475e-02    0.000000e+00
   -2.775045e-03    2.202862e-02    0.000000e+00
   -2.624188e-03    2.219396e-02    0.000000e+00
   -2.418768e-03    2.242347e-02    0.000000e+00
   -2.299359e-03    2.255498e-02    0.000000e+00
   -4.431922e-03    2.190743e-02    0.000000e+00
   -4.281293e-03    2.200491e-02    0.000000e+00
   -4.132548e-03    2.205558e-02    0.000000e+00
   -3.977336e-03    2.210351e-02    0.000000e+00
   -3.802426e-03    2.218715e-02    0.000000e+00
   -3.594191e-03    2.248395e-02    0.000000e+00
   -3.384009e-03    2.244416e-02    0.000000e+00
   -3.175231e-03    2.244141e-02    0.000000e+00
   -2.959331e-03    2.250577e-02    0.000000e+00
   -2.759998e-03    2.255215e-02    0.000000e+00
   -2.610762e-03    2.273209e-02    0.000000e+00
   -2.411540e-03    2.292390e-02    0.000000e+00
   -2.312722e-03    2.305597e-02    0.000000e+00
   -4.361105e-03    2.261653e-02    0.000000e+00
   -4.223092e-03    2.261556e-02    0.000000e+00
   -4.082481e-03    2.264921e-02    0.000000e+00
   -3.946892e-03    2.268884e-02    0.000000e+00
   -3.715887e-03    2.285377e-02    0.000000e+00
   -3.516933e-03    2.300984e-02    0.000000e+00
   -3.354336e-03    2.304225e-02    0.000000e+00
   -3.167531e-03    2.298657e-02    0.000000e+00
   -2.982936e-03    2.300523e-02    0.000000e+00
   -2.762003e-03    2.314223e-02    0.000000e+00
   -2.592910e-03    2.327910e-02    0.000000e+00
   -2.461498e-03    2.333696e-02    0.000000e+00
   -2.317697e-03    2.346669e-02    0.000000e+00
   -4.375738e-03    2.305075e-02    0.000000e+00
   -4.187281e-03    2.318371e-02    0.000000e+00
   -4.035461e-03    2.323342e-02    0.000000e+00
   -3.879740e-03    2.326127e-02    0.000000e+00
   -3.643665e-03    2.334665e-02    0.000000e+00
   -3.490540e-03    2.347370e-02    0.000000e+00
   -3.304678e-03    2.361215e-02    0.000000e+00
   -3.153572e-03    2.349311e-02    0.000000e+00
   -3.004408e-03    2.344636e-02    0.000000e+00
   -2.721137e-03    2.374258e-02    0.000000e+00
   -2.581328e-03    2.382554e-02    0.000000e+00
   -2.468965e-03    2.386646e-02    0.000000e+00
   -2.362837e-03    2.384640e-02    0.000000e+00
   -4.264230e-03    2.386560e-02    0.000000e+00
   -4.131026e-03    2.382031e-02    0.000000e+00
   -3.990077e-03    2.383713e-02    0.000000e+00
   -3.836020e-03    2.389070e-02    0.000000e+00
   -3.602299e-03    2.398086e-02    0.000000e+00
   -3.452684e-03    2.404330e-02    0.000000e+00
   -3.276496e-03    2.414964e-02    0.000000e+00
   -3.112943e-03    2.402952e-02    0.000000e+00
   -2.966830e-03    2.411980e-02    0.000000e+00
   -2.724408e-03    2.422457e-02    0.000000e+00
   -2.589900e-03    2.433846e-02    0.000000e+00
   -2.470786e-03    2.441101e-02    0.000000e+00
   -2.332951e-03    2.452824e-02    0.000000e+00
   -4.278913e-03    2.434540e-02    0.000000e+00
   -4.095557e-03    2.437990e-02    0.000000e+00
   -3.954690e-03    2.441072e-02    0.000000e+00
   -3.824702e-03    2.444419e-02    0.000000e+00
   -3.614318e-03    2.444959e-02    0.000000e+00
   -3.405539e-03    2.459619e-02    0.000000e+00
   -3.256747e-03    2.462695e-02    0.000000e+00
   -3.122538e-03    2.452578e-02    0.000000e+00
   -2.888904e-03    2.473138e-02    0.000000e+00
   -2.719225e-03    2.479036e-02    0.000000e+00
   -2.606707e-03    2.485621e-02    0.000000e+00
   -2.492386e-03    2.490196e-02    0.000000e+00
   -2.380897e-03    2.490191e-02    0.000000e+00
   -4.205274e-03    2.484968e-02    0.000000e+00
   -4.061531e-03    2.493956e-02    0.000000e+00
   -3.918855e-03    2.498739e-02    0.000000e+00
   -3.773811e-03    2.503156e-02    0.000000e+00
   -3.620028e-03    2.508990e-02    0.000000e+00
   -3.467347e-03    2.505773e-02    0.000000e+00
   -3.281494e-03    2.510947e-02    0.000000e+00
   -3.129592e-03    2.497612e-02    0.000000e+00
   -2.884859e-03    2.522280e-02    0.000000e+00
   -2.750107e-03    2.531621e-02    0.000000e+00
   -2.622820e-03    2.538494e-02    0.000000e+00
   -2.502536e-03    2.544073e-02    0.000000e+00
   -2.389190e-03    2.552117e-02    0.000000e+00
   -4.184207e-03    2.555479e-02    0.000000e+00
   -4.042161e-03    2.554315e-02    0.000000e+00
   -3.898478e-03    2.557199e-02    0.000000e+00
   -3.750958e-03    2.561552e-02    0.000000e+00
   -3.597161e-03    2.567687e-02    0.000000e+00
   -3.445339e-03    2.560935e-02    0.000000e+00
   -3.248086e-03    2.568461e-02    0.000000e+00
   -3.102603e-03    2.573634e-02    0.000000e+00
   -2.896630e-03    2.582497e-02    0.000000e+00
   -2.758655e-03    2.587588e-02    0.000000e+00
   -2.629956e-03    2.591483e-02    0.000000e+00
   -2.505336e-03    2.594382e-02    0.000000e+00
   -2.352788e-03    2.596720e-02    0.000000e+00
   -4.227273e-03    2.598762e-02    0.000000e+00
   -4.042191e-03    2.610301e-02    0.000000e+00
   -3.890271e-03    2.614542e-02    0.000000e+00
   -3.744525e-03    2.618304e-02    0.000000e+00
   -3.597757e-03    2.624655e-02    0.000000e+00
   -3.430926e-03    2.616644e-02    0.000000e+00
   -3.236515e-03    2.624255e-02    0.000000e+00
   -3.097705e-03    2.631016e-02    0.000000e+00
   -2.898712e-03    2.638421e-02    0.000000e+00
   -2.762327e-03    2.641923e-02    0.000000e+00
   -2.633944e-03    2.644263e-02    0.000000e+00
   -2.511891e-03    2.644928e-02    0.000000e+00
   -2.395214e-03    2.640673e-02    0.000000e+00
   -4.164225e-03    2.678160e-02    0.000000e+00
   -4.024331e-03    2.672582e-02    0.000000e+00
   -3.881853e-03    2.672640e-02    0.000000e+00
   -3.741510e-03    2.673667e-02    0.000000e+00
   -3.604503e-03    2.673385e-02    0.000000e+00
   -3.387754e-03    2.663897e-02    0.000000e+00
   -3.241778e-03    2.676767e-02    0.000000e+00
   -3.112484e-03    2.688528e-02    0.000000e+00
   -2.903357e-03    2.694963e-02    0.000000e+00
   -2.766022e-03    2.696298e-02    0.000000e+00
   -2.637492e-03    2.698338e-02    0.000000e+00
   -2.513943e-03    2.700279e-02    0.000000e+00
   -2.395351e-03    2.704648e-02    0.000000e+00
   -4.203823e-03    2.724876e-02    0.000000e+00
   -4.020526e-03    2.727041e-02    0.000000e+00
   -3.876655e-03    2.728964e-02    0.000000e+00
   -3.736429e-03    2.731154e-02    0.000000e+00
   -3.591536e-03    2.734577e-02    0.000000e+00
   -3.383526e-03    2.739538e-02    0.000000e+00
   -3.272040e-03    2.742157e-02    0.000000e+00
   -3.080700e-03    2.739944e-02    0.000000e+00
   -2.887008e-03    2.748375e-02    0.000000e+00
   -2.768517e-03    2.750278e-02    0.000000e+00
   -2.640005e-03    2.751817e-02    0.000000e+00
   -2.507631e-03    2.751776e-02    0.000000e+00
   -2.351188e-03    2.745032e-02    0.000000e+00
   -4.156416e-03    2.772428e-02    0.000000e+00
   -4.016974e-03    2.781267e-02    0.000000e+00
   -3.873845e-03    2.784946e-02    0.000000e+00
   -3.735302e-03    2.787295e-02    0.000000e+00
   -3.612797e-03    2.788700e-02    0.000000e+00
   -3.427839e-03    2.788366e-02    0.000000e+00
   -3.236828e-03    2.791700e-02    0.000000e+00
   -3.029292e-03    2.805222e-02    0.000000e+00
   -2.901864e-03    2.803415e-02    0.000000e+00
   -2.776942e-03    2.804794e-02    0.000000e+00
   -2.644664e-03    2.806463e-02    0.000000e+00
   -2.513329e-03    2.807577e-02    0.000000e+00
   -2.404863e-03    2.807691e-02    0.000000e+00
   -4.208073e-03    2.849104e-02    0.000000e+00
   -4.025090e-03    2.842375e-02    0.000000e+00
   -3.871380e-03    2.842801e-02    0.000000e+00
   -3.725647e-03    2.844165e-02    0.000000e+00
   -3.589697e-03    2.844434e-02    0.000000e+00
   -3.458426e-03    2.842211e-02    0.000000e+00
   -3.243163e-03    2.840398e-02    0.000000e+00
   -3.036404e-03    2.848281e-02    0.000000e+00
   -2.911407e-03    2.855526e-02    0.000000e+00
   -2.784560e-03    2.858594e-02    0.000000e+00
   -2.649059e-03    2.860833e-02    0.000000e+00
   -2.509273e-03    2.863015e-02    0.000000e+00
   -2.344714e-03    2.868987e-02    0.000000e+00
   -4.154087e-03    2.892898e-02    0.000000e+00
   -4.014921e-03    2.898808e-02    0.000000e+00
   -3.869024e-03    2.901730e-02    0.000000e+00
   -3.721493e-03    2.903675e-02    0.000000e+00
   -3.581346e-03    2.904634e-02    0.000000e+00
   -3.456823e-03    2.903544e-02    0.000000e+00
   -3.233824e-03    2.886052e-02    0.000000e+00
   -3.048765e-03    2.904540e-02    0.000000e+00
   -2.928457e-03    2.910055e-02    0.000000e+00
   -2.794547e-03    2.912988e-02    0.000000e+00
   -2.655625e-03    2.914793e-02    0.000000e+00
   -2.516400e-03    2.915784e-02    0.000000e+00
   -2.365054e-03    2.912819e-02    0.000000e+00
   -4.156199e-03    2.955283e-02    0.000000e+00
   -4.031413e-03    2.966431e-02    0.000000e+00
   -3.876553e-03    2.970569e-02    0.000000e+00
   -3.721417e-03    2.972623e-02    0.000000e+00
   -3.565830e-03    2.973622e-02    0.000000e+00
   -3.419406e-03    2.967707e-02    0.000000e+00
   -3.254884e-03    2.964549e-02    0.000000e+00
   -3.086558e-03    2.965029e-02    0.000000e+00
   -2.942081e-03    2.968020e-02    0.000000e+00
   -2.799949e-03    2.968759e-02    0.000000e+00
   -2.659619e-03    2.970088e-02    0.000000e+00
   -2.525116e-03    2.972114e-02    0.000000e+00
   -2.399691e-03    2.977491e-02    0.000000e+00
   -4.244705e-03    3.014046e-02    0.000000e+00
   -4.036627e-03    2.999223e-02    0.000000e+00
   -3.878356e-03    3.001623e-02    0.000000e+00
   -3.724022e-03    3.003724e-02    0.000000e+00
   -3.563858e-03    3.007905e-02    0.000000e+00
   -3.411297e-03    3.019163e-02    0.000000e+00
   -3.236539e-03    3.010676e-02    0.000000e+00
   -3.118299e-03    3.027219e-02    0.000000e+00
   -2.908791e-03    3.022164e-02    0.000000e+00
   -2.793599e-03    3.023532e-02    0.000000e+00
   -2.657338e-03    3.024778e-02    0.000000e+00
   -2.517310e-03    3.024351e-02    0.000000e+00
   -2.354482e-03    3.017219e-02    0.000000e+00
   -4.170571e-03    3.053520e-02    0.000000e+00
   -4.027279e-03    3.057866e-02    0.000000e+00
   -3.879369e-03    3.059756e-02    0.000000e+00
   -3.735250e-03    3.062690e-02    0.000000e+00
   -3.611240e-03    3.064898e-02    0.000000e+00
   -3.382979e-03    3.077809e-02    0.000000e+00
   -3.257293e-03    3.071997e-02    0.000000e+00
   -3.106666e-03    3.074441e-02    0.000000e+00
   -2.941670e-03    3.077808e-02    0.000000e+00
   -2.799893e-03    3.082713e-02    0.000000e+00
   -2.656885e-03    3.085414e-02    0.000000e+00
   -2.516246e-03    3.085653e-02    0.000000e+00
   -2.402662e-03    3.083457e-02    0.000000e+00
   -4.206042e-03    3.129303e-02    0.000000e+00
   -4.028657e-03    3.122430e-02    0.000000e+00
   -3.885616e-03    3.121686e-02    0.000000e+00
   -3.769650e-03    3.122091e-02    0.000000e+00
   -3.551214e-03    3.132778e-02    0.000000e+00
   -3.398828e-03    3.127184e-02    0.000000e+00
   -3.255047e-03    3.127591e-02    0.000000e+00
   -3.112727e-03    3.130624e-02    0.000000e+00
   -2.971838e-03    3.141147e-02    0.000000e+00
   -2.802938e-03    3.134342e-02    0.000000e+00
   -2.657617e-03    3.146528e-02    0.000000e+00
   -2.494227e-03    3.145694e-02    0.000000e+00
   -2.302300e-03    3.135738e-02    0.000000e+00
   -4.155201e-03    3.172749e-02    0.000000e+00
   -4.016949e-03    3.180300e-02    0.000000e+00
   -3.874666e-03    3.180267e-02    0.000000e+00
   -3.734719e-03    3.177850e-02    0.000000e+00
   -3.572099e-03    3.179331e-02    0.000000e+00
   -3.399794e-03    3.180427e-02    0.000000e+00
   -3.255268e-03    3.181384e-02    0.000000e+00
   -3.112569e-03    3.183209e-02    0.000000e+00
   -2.948376e-03    3.184687e-02    0.000000e+00
   -2.799565e-03    3.183060e-02    0.000000e+00
   -2.651158e-03    3.185622e-02    0.000000e+00
   -2.490841e-03    3.180069e-02    0.000000e+00
   -2.350519e-03    3.188996e-02    0.000000e+00
   -4.220117e-03    3.238051e-02    0.000000e+00
   -4.026475e-03    3.241267e-02    0.000000e+00
   -3.836996e-03    3.242533e-02    0.000000e+00
   -3.716589e-03    3.236337e-02    0.000000e+00
   -3.568612e-03    3.232965e-02    0.000000e+00
   -3.399121e-03    3.233571e-02    0.000000e+00
   -3.252280e-03    3.236082e-02    0.000000e+00
   -3.106546e-03    3.236045e-02    0.000000e+00
   -2.940492e-03    3.237949e-02    0.000000e+00
   -2.792294e-03    3.241151e-02    0.000000e+00
   -2.641696e-03    3.242091e-02    0.000000e+00
   -2.491166e-03    3.244882e-02    0.000000e+00
   -2.352296e-03    3.252430e-02    0.000000e+00
   -4.194696e-03    3.287278e-02    0.000000e+00
   -4.019504e-03    3.276495e-02    0.000000e+00
   -3.861631e-03    3.280799e-02    0.000000e+00
   -3.705052e-03    3.302263e-02    0.000000e+00
   -3.553101e-03    3.281981e-02    0.000000e+00
   -3.402111e-03    3.282851e-02    0.000000e+00
   -3.243993e-03    3.305116e-02    0.000000e+00
   -3.092824e-03    3.285578e-02    0.000000e+00
   -2.943195e-03    3.287956e-02    0.000000e+00
   -2.782763e-03    3.314252e-02    0.000000e+00
   -2.624231e-03    3.297326e-02    0.000000e+00
   -2.490908e-03    3.301204e-02    0.000000e+00
   -2.331949e-03    3.308477e-02    0.000000e+00
   -2.212710e-03    2.192304e-02    0.000000e+00
   -2.208220e-03    2.203253e-02    0.000000e+00
   -2.209331e-03    2.197294e-02    0.000000e+00
   -2.209668e-03    2.196083e-02    0.000000e+00
   -2.211688e-03    2.193101e-02    0.000000e+00
   -2.217630e-03    2.190362e-02    0.000000e+00
   -2.220212e-03    2.189802e-02    0.000000e+00
   -3.747133e-03    1.806180e-02    0.000000e+00
   -3.752853e-03    1.805967e-02    0.000000e+00
   -3.635494e-03    1.813743e-02    0.000000e+00
   -3.664234e-03    1.810999e-02    0.000000e+00
   -3.683307e-03    1.809175e-02    0.000000e+00
   -3.700416e-03    1.808119e-02    0.000000e+00
   -3.713244e-03    1.807470e-02    0.000000e+00
   -3.723863e-03    1.807006e-02    0.000000e+00
   -3.732887e-03    1.806656e-02    0.000000e+00
   -3.740483e-03    1.806342e-02    0.000000e+00
   -3.757698e-03    1.805812e-02    0.000000e+00
   -3.762263e-03    1.805728e-02    0.000000e+00
   -3.766520e-03    1.805644e-02    0.000000e+00
   -3.770607e-03    1.805526e-02    0.000000e+00
   -3.774697e-03    1.805426e-02    0.000000e+00
   -3.778610e-03    1.805380e-02    0.000000e+00
   -3.782766e-03    1.805449e-02    0.000000e+00
   -2.208823e-03    2.200028e-02    0.000000e+00
   -2.209071e-03    2.198598e-02    0.000000e+00
   -2.210134e-03    2.194990e-02    0.000000e+00
   -2.210931e-03    2.194002e-02    0.000000e+00
   -2.214028e-03    2.191584e-02    0.000000e+00
   -2.215674e-03    2.190948e-02    0.000000e+00
   -2.223215e-03    2.189219e-02    0.000000e+00
   -2.230150e-03    2.188584e-02    0.000000e+00
   -3.340384e-03    1.991529e-02    0.000000e+00
   -3.530067e-03    1.894513e-02    0.000000e+00
   -2.792319e-03    2.134176e-02    0.000000e+00
   -3.148971e-03    2.054207e-02    0.000000e+00
   -3.064097e-03    2.076779e-02    0.000000e+00
   -3.548066e-03    1.879987e-02    0.000000e+00
   -2.699307e-03    2.149211e-02    0.000000e+00
   -3.462642e-03    1.937275e-02    0.000000e+00
   -2.510204e-03    2.172098e-02    0.000000e+00
   -2.884167e-03    2.116956e-02    0.000000e+00
   -3.405953e-03    1.964848e-02    0.000000e+00
   -2.745990e-03    2.141985e-02    0.000000e+00
   -2.605107e-03    2.161883e-02    0.000000e+00
   -3.509745e-03    1.908911e-02    0.000000e+00
   -2.557807e-03    2.167299e-02    0.000000e+00
   -3.107118e-03    2.065715e-02    0.000000e+00
   -2.409734e-03    2.179954e-02    0.000000e+00
   -2.350341e-03    2.183185e-02    0.000000e+00
   -3.435175e-03    1.951202e-02    0.000000e+00
   -2.461466e-03    2.176315e-02    0.000000e+00
   -3.267849e-03    2.017496e-02    0.000000e+00
   -3.374326e-03    1.978268e-02    0.000000e+00
   -3.020185e-03    2.087455e-02    0.000000e+00
   -3.189519e-03    2.042346e-02    0.000000e+00
   -2.652289e-03    2.155856e-02    0.000000e+00
   -3.304807e-03    2.004619e-02    0.000000e+00
   -2.838332e-03    2.125826e-02    0.000000e+00
   -2.929749e-03    2.107587e-02    0.000000e+00
   -3.487689e-03    1.923214e-02    0.000000e+00
   -3.561627e-03    1.865478e-02    0.000000e+00
   -2.210342e-03    2.206574e-02    0.000000e+00
   -3.789702e-03    1.807613e-02    0.000000e+00
   -2.214053e-03    2.209787e-02    0.000000e+00
   -3.795668e-03    1.811213e-02    0.000000e+00
   -2.220837e-03    2.215851e-02    0.000000e+00
   -3.807844e-03    1.816200e-02    0.000000e+00
   -3.751907e-03    1.812368e-02    0.000000e+00
   -2.221149e-03    2.192126e-02    0.000000e+00
   -2.216215e-03    2.196163e-02    0.000000e+00
   -2.234323e-03    2.189431e-02    0.000000e+00
   -3.724937e-03    1.814287e-02    0.000000e+00
   -3.703433e-03    1.816020e-02    0.000000e+00
   -3.740654e-03    1.813082e-02    0.000000e+00
   -3.761126e-03    1.812062e-02    0.000000e+00
   -3.769363e-03    1.811661e-02    0.000000e+00
   -3.777468e-03    1.811615e-02    0.000000e+00
   -2.215012e-03    2.198842e-02    0.000000e+00
   -2.218012e-03    2.193949e-02    0.000000e+00
   -2.226274e-03    2.190650e-02    0.000000e+00
   -2.258433e-03    2.187644e-02    0.000000e+00
   -3.773515e-03    1.811483e-02    0.000000e+00
   -3.746834e-03    1.812639e-02    0.000000e+00
   -3.715125e-03    1.815036e-02    0.000000e+00
   -3.733524e-03    1.813588e-02    0.000000e+00
   -3.756542e-03    1.812251e-02    0.000000e+00
   -3.765320e-03    1.811904e-02    0.000000e+00
   -2.214666e-03    2.200403e-02    0.000000e+00
   -2.215571e-03    2.197436e-02    0.000000e+00
   -2.216808e-03    2.195016e-02    0.000000e+00
   -2.219555e-03    2.192999e-02    0.000000e+00
   -2.223447e-03    2.191348e-02    0.000000e+00
   -2.229885e-03    2.190017e-02    0.000000e+00
   -2.240172e-03    2.188846e-02    0.000000e+00
   -2.215536e-03    2.203749e-02    0.000000e+00
   -3.781904e-03    1.812520e-02    0.000000e+00
   -3.597982e-03    1.815156e-02    0.000000e+00
   -2.975261e-03    2.097739e-02    0.000000e+00
   -3.229171e-03    2.030038e-02    0.000000e+00
   -2.806267e-03    2.117782e-02    0.000000e+00
   -3.303854e-03    1.991425e-02    0.000000e+00
   -3.040669e-03    2.065609e-02    0.000000e+00
   -2.627333e-03    2.150916e-02    0.000000e+00
   -2.715993e-03    2.135503e-02    0.000000e+00
   -3.558160e-03    1.883314e-02    0.000000e+00
   -2.452104e-03    2.174218e-02    0.000000e+00
   -3.417959e-03    1.951974e-02    0.000000e+00
   -3.131137e-03    2.042204e-02    0.000000e+00
   -2.994345e-03    2.076770e-02    0.000000e+00
   -3.535722e-03    1.897371e-02    0.000000e+00
   -3.382281e-03    1.965187e-02    0.000000e+00
   -3.510409e-03    1.911236e-02    0.000000e+00
   -3.481942e-03    1.924940e-02    0.000000e+00
   -2.496019e-03    2.169349e-02    0.000000e+00
   -2.583286e-03    2.157703e-02    0.000000e+00
   -2.355825e-03    2.182303e-02    0.000000e+00
   -2.671600e-03    2.143514e-02    0.000000e+00
   -2.539551e-03    2.163850e-02    0.000000e+00
   -3.451263e-03    1.938525e-02    0.000000e+00
   -2.406016e-03    2.178522e-02    0.000000e+00
   -3.086332e-03    2.054100e-02    0.000000e+00
   -3.577289e-03    1.869214e-02    0.000000e+00
   -3.344109e-03    1.978311e-02    0.000000e+00
   -3.261850e-03    2.004418e-02    0.000000e+00
   -2.852723e-03    2.108180e-02    0.000000e+00
   -3.592701e-03    1.854330e-02    0.000000e+00
   -2.760770e-03    2.126912e-02    0.000000e+00
   -2.274745e-03    2.185974e-02    0.000000e+00
   -2.221297e-03    2.205926e-02    0.000000e+00
   -3.783218e-03    1.818316e-02    0.000000e+00
   -2.229610e-03    2.208950e-02    0.000000e+00
   -3.784570e-03    1.825681e-02    0.000000e+00
   -2.239841e-03    2.226315e-02    0.000000e+00
   -3.828335e-03    1.824255e-02    0.000000e+00
   -2.231786e-03    2.190758e-02    0.000000e+00
   -2.246247e-03    2.188636e-02    0.000000e+00
   -2.235617e-03    2.189991e-02    0.000000e+00
   -2.240378e-03    2.189285e-02    0.000000e+00
   -3.731644e-03    1.820070e-02    0.000000e+00
   -3.723251e-03    1.821182e-02    0.000000e+00
   -3.714539e-03    1.822233e-02    0.000000e+00
   -3.703488e-03    1.823602e-02    0.000000e+00
   -3.677967e-03    1.826698e-02    0.000000e+00
   -2.254032e-03    2.187981e-02    0.000000e+00
   -2.265546e-03    2.187232e-02    0.000000e+00
   -2.221163e-03    2.198882e-02    0.000000e+00
   -2.221805e-03    2.197300e-02    0.000000e+00
   -3.761984e-03    1.818157e-02    0.000000e+00
   -2.220954e-03    2.200850e-02    0.000000e+00
   -2.228745e-03    2.191605e-02    0.000000e+00
   -3.757528e-03    1.818552e-02    0.000000e+00
   -3.752952e-03    1.818746e-02    0.000000e+00
   -3.770341e-03    1.817462e-02    0.000000e+00
   -2.222740e-03    2.195894e-02    0.000000e+00
   -2.223856e-03    2.194641e-02    0.000000e+00
   -3.748079e-03    1.818814e-02    0.000000e+00
   -3.634268e-03    1.834963e-02    0.000000e+00
   -2.899899e-03    2.098099e-02    0.000000e+00
   -3.175454e-03    2.029921e-02    0.000000e+00
   -3.218962e-03    2.017288e-02    0.000000e+00
   -2.947278e-03    2.087618e-02    0.000000e+00
   -3.604395e-03    1.859728e-02    0.000000e+00
   -3.584946e-03    1.873320e-02    0.000000e+00
   -3.561496e-03    1.886876e-02    0.000000e+00
   -2.361157e-03    2.180517e-02    0.000000e+00
   -3.470481e-03    1.927016e-02    0.000000e+00
   -3.434398e-03    1.940040e-02    0.000000e+00
   -3.503808e-03    1.913698e-02    0.000000e+00
   -3.534296e-03    1.900348e-02    0.000000e+00
   -2.483226e-03    2.166080e-02    0.000000e+00
   -2.523602e-03    2.159924e-02    0.000000e+00
   -2.443200e-03    2.171581e-02    0.000000e+00
   -2.564510e-03    2.153096e-02    0.000000e+00
   -2.402770e-03    2.176381e-02    0.000000e+00
   -2.605916e-03    2.145618e-02    0.000000e+00
   -2.647721e-03    2.137509e-02    0.000000e+00
   -2.690616e-03    2.128754e-02    0.000000e+00
   -2.735032e-03    2.119418e-02    0.000000e+00
   -2.781320e-03    2.109565e-02    0.000000e+00
   -2.977015e-03    2.066382e-02    0.000000e+00
   -3.025355e-03    2.054842e-02    0.000000e+00
   -3.395692e-03    1.953071e-02    0.000000e+00
   -3.073383e-03    2.042986e-02    0.000000e+00
   -3.353963e-03    1.965967e-02    0.000000e+00
   -3.263394e-03    1.992039e-02    0.000000e+00
   -3.309801e-03    1.978930e-02    0.000000e+00
   -2.226337e-03    2.202270e-02    0.000000e+00
   -3.772253e-03    1.822336e-02    0.000000e+00
   -2.234390e-03    2.203572e-02    0.000000e+00
   -3.767378e-03    1.830132e-02    0.000000e+00
   -2.244503e-03    2.212941e-02    0.000000e+00
   -3.783843e-03    1.836652e-02    0.000000e+00
   -3.765065e-03    1.823708e-02    0.000000e+00
   -3.738371e-03    1.825089e-02    0.000000e+00
   -3.756982e-03    1.824354e-02    0.000000e+00
   -2.239090e-03    2.189943e-02    0.000000e+00
   -2.249486e-03    2.188203e-02    0.000000e+00
   -2.243775e-03    2.189026e-02    0.000000e+00
   -2.256546e-03    2.187472e-02    0.000000e+00
   -2.295570e-03    2.185118e-02    0.000000e+00
   -3.711991e-03    1.828775e-02    0.000000e+00
   -3.701270e-03    1.830686e-02    0.000000e+00
   -3.688419e-03    1.833079e-02    0.000000e+00
   -3.729151e-03    1.825588e-02    0.000000e+00
   -2.232371e-03    2.192068e-02    0.000000e+00
   -2.228061e-03    2.196949e-02    0.000000e+00
   -2.265349e-03    2.186768e-02    0.000000e+00
   -2.278100e-03    2.185947e-02    0.000000e+00
   -3.751742e-03    1.825108e-02    0.000000e+00
   -2.230460e-03    2.193973e-02    0.000000e+00
   -3.747007e-03    1.825445e-02    0.000000e+00
   -3.742505e-03    1.825397e-02    0.000000e+00
   -2.229410e-03    2.195347e-02    0.000000e+00
   -2.317995e-03    2.183991e-02    0.000000e+00
   -3.120993e-03    2.030735e-02    0.000000e+00
   -2.927935e-03    2.077625e-02    0.000000e+00
   -3.216347e-03    2.005183e-02    0.000000e+00
   -2.829463e-03    2.099265e-02    0.000000e+00
   -3.413322e-03    1.941770e-02    0.000000e+00
   -3.369401e-03    1.954403e-02    0.000000e+00
   -2.627369e-03    2.131304e-02    0.000000e+00
   -3.017117e-03    2.044573e-02    0.000000e+00
   -3.631195e-03    1.851535e-02    0.000000e+00
   -2.548184e-03    2.148212e-02    0.000000e+00
   -3.491958e-03    1.916345e-02    0.000000e+00
   -3.453956e-03    1.929171e-02    0.000000e+00
   -2.398590e-03    2.173852e-02    0.000000e+00
   -2.587039e-03    2.140114e-02    0.000000e+00
   -2.435099e-03    2.168509e-02    0.000000e+00
   -2.472172e-03    2.162429e-02    0.000000e+00
   -2.509913e-03    2.155664e-02    0.000000e+00
   -3.526968e-03    1.903417e-02    0.000000e+00
   -3.586678e-03    1.877374e-02    0.000000e+00
   -3.558757e-03    1.890376e-02    0.000000e+00
   -2.966827e-03    2.056372e-02    0.000000e+00
   -2.362046e-03    2.178401e-02    0.000000e+00
   -2.669930e-03    2.121810e-02    0.000000e+00
   -2.715556e-03    2.111728e-02    0.000000e+00
   -3.168700e-03    2.018102e-02    0.000000e+00
   -3.322398e-03    1.967246e-02    0.000000e+00
   -3.272271e-03    1.980305e-02    0.000000e+00
   -2.878680e-03    2.088615e-02    0.000000e+00
   -3.603442e-03    1.834841e-02    0.000000e+00
   -3.653509e-03    1.835648e-02    0.000000e+00
   -2.295904e-03    2.185707e-02    0.000000e+00
   -2.230670e-03    2.199240e-02    0.000000e+00
   -2.237208e-03    2.199619e-02    0.000000e+00
   -3.756757e-03    1.831506e-02    0.000000e+00
   -2.247451e-03    2.204707e-02    0.000000e+00
   -3.756349e-03    1.841168e-02    0.000000e+00
   -2.328053e-03    2.182101e-02    0.000000e+00
   -3.725556e-03    1.830869e-02    0.000000e+00
   -3.751445e-03    1.830620e-02    0.000000e+00
   -2.244600e-03    2.189220e-02    0.000000e+00
   -2.238363e-03    2.191772e-02    0.000000e+00
   -2.250536e-03    2.187920e-02    0.000000e+00
   -3.729448e-03    1.831865e-02    0.000000e+00
   -3.743480e-03    1.831949e-02    0.000000e+00
   -2.257331e-03    2.186847e-02    0.000000e+00
   -2.265272e-03    2.185931e-02    0.000000e+00
   -3.708965e-03    1.834544e-02    0.000000e+00
   -3.696847e-03    1.837298e-02    0.000000e+00
   -3.683385e-03    1.840424e-02    0.000000e+00
   -3.668792e-03    1.844113e-02    0.000000e+00
   -2.275511e-03    2.185098e-02    0.000000e+00
   -2.234212e-03    2.196786e-02    0.000000e+00
   -2.237672e-03    2.192959e-02    0.000000e+00
   -3.738079e-03    1.832338e-02    0.000000e+00
   -2.236400e-03    2.194642e-02    0.000000e+00
   -3.733431e-03    1.832373e-02    0.000000e+00
   -2.916117e-03    2.068001e-02    0.000000e+00
   -3.067211e-03    2.032512e-02    0.000000e+00
   -3.220600e-03    1.993657e-02    0.000000e+00
   -3.389426e-03    1.943614e-02    0.000000e+00
   -3.434262e-03    1.931375e-02    0.000000e+00
   -3.168582e-03    2.006890e-02    0.000000e+00
   -2.570866e-03    2.134520e-02    0.000000e+00
   -2.610892e-03    2.125002e-02    0.000000e+00
   -2.764102e-03    2.101192e-02    0.000000e+00
   -2.814337e-03    2.090308e-02    0.000000e+00
   -2.497808e-03    2.151202e-02    0.000000e+00
   -2.533554e-03    2.143243e-02    0.000000e+00
   -3.629699e-03    1.857625e-02    0.000000e+00
   -3.117382e-03    2.019901e-02    0.000000e+00
   -2.428055e-03    2.165121e-02    0.000000e+00
   -3.475918e-03    1.918975e-02    0.000000e+00
   -2.963827e-03    2.046842e-02    0.000000e+00
   -3.514892e-03    1.906523e-02    0.000000e+00
   -2.462556e-03    2.158520e-02    0.000000e+00
   -3.551296e-03    1.893816e-02    0.000000e+00
   -2.393858e-03    2.171014e-02    0.000000e+00
   -3.610530e-03    1.868409e-02    0.000000e+00
   -3.583661e-03    1.880981e-02    0.000000e+00
   -2.360591e-03    2.176162e-02    0.000000e+00
   -3.340607e-03    1.956090e-02    0.000000e+00
   -2.865201e-03    2.079306e-02    0.000000e+00
   -2.655017e-03    2.114708e-02    0.000000e+00
   -3.287557e-03    1.969126e-02    0.000000e+00
   -3.651452e-03    1.846874e-02    0.000000e+00
   -2.248188e-03    2.199232e-02    0.000000e+00
   -3.742124e-03    1.841758e-02    0.000000e+00
   -2.268404e-03    2.205178e-02    0.000000e+00
   -3.732690e-03    1.857126e-02    0.000000e+00
   -2.246984e-03    2.189164e-02    0.000000e+00
   -3.706466e-03    1.839424e-02    0.000000e+00
   -3.715078e-03    1.837828e-02    0.000000e+00
   -2.255644e-03    2.186862e-02    0.000000e+00
   -3.731446e-03    1.839558e-02    0.000000e+00
   -2.263916e-03    2.185343e-02    0.000000e+00
   -3.690375e-03    1.843650e-02    0.000000e+00
   -3.676000e-03    1.847062e-02    0.000000e+00
   -2.272619e-03    2.184180e-02    0.000000e+00
   -2.307742e-03    2.182012e-02    0.000000e+00
   -2.246436e-03    2.190155e-02    0.000000e+00
   -2.283545e-03    2.183148e-02    0.000000e+00
   -3.716714e-03    1.839466e-02    0.000000e+00
   -2.245997e-03    2.191561e-02    0.000000e+00
   -3.726564e-03    1.839508e-02    0.000000e+00
   -2.244700e-03    2.193904e-02    0.000000e+00
   -3.721200e-03    1.839740e-02    0.000000e+00
   -2.911163e-03    2.058668e-02    0.000000e+00
   -3.015598e-03    2.035096e-02    0.000000e+00
   -3.412705e-03    1.933441e-02    0.000000e+00
   -3.458029e-03    1.921559e-02    0.000000e+00
   -2.520819e-03    2.138326e-02    0.000000e+00
   -2.754202e-03    2.092652e-02    0.000000e+00
   -3.174921e-03    1.996250e-02    0.000000e+00
   -2.486851e-03    2.146772e-02    0.000000e+00
   -3.066070e-03    2.022733e-02    0.000000e+00
   -2.557613e-03    2.128959e-02    0.000000e+00
   -3.363480e-03    1.945537e-02    0.000000e+00
   -3.231831e-03    1.982608e-02    0.000000e+00
   -3.119401e-03    2.009691e-02    0.000000e+00
   -2.453817e-03    2.154513e-02    0.000000e+00
   -2.859684e-03    2.070300e-02    0.000000e+00
   -3.500306e-03    1.909452e-02    0.000000e+00
   -3.540263e-03    1.896913e-02    0.000000e+00
   -2.421356e-03    2.161576e-02    0.000000e+00
   -3.640084e-03    1.857406e-02    0.000000e+00
   -2.389787e-03    2.167866e-02    0.000000e+00
   -3.577762e-03    1.884147e-02    0.000000e+00
   -2.358526e-03    2.173433e-02    0.000000e+00
   -3.610210e-03    1.871310e-02    0.000000e+00
   -2.807027e-03    2.081392e-02    0.000000e+00
   -2.238657e-03    2.197123e-02    0.000000e+00
   -2.703141e-03    2.103846e-02    0.000000e+00
   -2.599580e-03    2.118582e-02    0.000000e+00
   -3.308963e-03    1.958364e-02    0.000000e+00
   -2.247077e-03    2.195904e-02    0.000000e+00
   -3.735939e-03    1.840518e-02    0.000000e+00
   -2.267078e-03    2.197029e-02    0.000000e+00
   -3.713090e-03    1.856241e-02    0.000000e+00
   -2.265930e-03    2.214859e-02    0.000000e+00
   -3.674098e-03    1.881844e-02    0.000000e+00
   -3.692115e-03    1.848253e-02    0.000000e+00
   -2.261494e-03    2.185413e-02    0.000000e+00
   -2.255503e-03    2.187351e-02    0.000000e+00
   -3.678625e-03    1.850709e-02    0.000000e+00
   -2.277987e-03    2.182344e-02    0.000000e+00
   -3.665322e-03    1.853852e-02    0.000000e+00
   -3.655982e-03    1.855796e-02    0.000000e+00
   -2.289904e-03    2.181004e-02    0.000000e+00
   -2.305564e-03    2.179742e-02    0.000000e+00
   -2.256263e-03    2.187912e-02    0.000000e+00
   -3.713776e-03    1.846088e-02    0.000000e+00
   -2.325940e-03    2.178615e-02    0.000000e+00
   -3.699715e-03    1.847742e-02    0.000000e+00
   -2.256289e-03    2.189376e-02    0.000000e+00
   -3.706100e-03    1.847372e-02    0.000000e+00
   -3.439288e-03    1.923667e-02    0.000000e+00
   -3.390469e-03    1.935429e-02    0.000000e+00
   -2.476633e-03    2.142574e-02    0.000000e+00
   -2.445596e-03    2.150659e-02    0.000000e+00
   -3.014775e-03    2.026985e-02    0.000000e+00
   -3.484682e-03    1.911891e-02    0.000000e+00
   -2.862401e-03    2.062030e-02    0.000000e+00
   -2.509952e-03    2.133595e-02    0.000000e+00
   -3.068695e-03    2.013821e-02    0.000000e+00
   -3.127273e-03    2.000034e-02    0.000000e+00
   -2.752634e-03    2.083816e-02    0.000000e+00
   -2.810011e-03    2.071920e-02    0.000000e+00
   -3.527584e-03    1.899837e-02    0.000000e+00
   -2.414977e-03    2.158092e-02    0.000000e+00
   -2.386443e-03    2.164601e-02    0.000000e+00
   -3.569843e-03    1.886784e-02    0.000000e+00
   -2.358922e-03    2.170209e-02    0.000000e+00
   -3.636598e-03    1.862364e-02    0.000000e+00
   -3.607288e-03    1.873975e-02    0.000000e+00
   -2.698144e-03    2.095629e-02    0.000000e+00
   -3.249784e-03    1.971935e-02    0.000000e+00
   -2.646814e-03    2.107357e-02    0.000000e+00
   -2.548931e-03    2.123331e-02    0.000000e+00
   -3.335693e-03    1.948027e-02    0.000000e+00
   -3.188399e-03    1.985948e-02    0.000000e+00
   -2.971570e-03    2.038275e-02    0.000000e+00
   -3.712564e-03    1.848640e-02    0.000000e+00
   -3.713204e-03    1.851459e-02    0.000000e+00
   -2.257418e-03    2.191350e-02    0.000000e+00
   -2.259890e-03    2.193808e-02    0.000000e+00
   -2.303460e-03    2.204696e-02    0.000000e+00
   -2.293318e-03    2.195169e-02    0.000000e+00
   -3.676328e-03    1.871971e-02    0.000000e+00
   -3.699398e-03    1.888870e-02    0.000000e+00
   -3.662977e-03    1.858934e-02    0.000000e+00
   -2.276209e-03    2.181697e-02    0.000000e+00
   -3.659048e-03    1.859201e-02    0.000000e+00
   -2.281593e-03    2.180880e-02    0.000000e+00
   -3.646005e-03    1.862116e-02    0.000000e+00
   -2.268346e-03    2.183763e-02    0.000000e+00
   -2.293820e-03    2.178851e-02    0.000000e+00
   -2.331372e-03    2.175313e-02    0.000000e+00
   -2.310699e-03    2.176928e-02    0.000000e+00
   -3.673408e-03    1.856712e-02    0.000000e+00
   -2.268317e-03    2.184736e-02    0.000000e+00
   -3.688269e-03    1.855573e-02    0.000000e+00
   -3.680222e-03    1.856087e-02    0.000000e+00
   -3.420167e-03    1.925852e-02    0.000000e+00
   -2.956268e-03    2.034190e-02    0.000000e+00
   -2.437752e-03    2.147251e-02    0.000000e+00
   -3.468971e-03    1.914045e-02    0.000000e+00
   -2.408650e-03    2.154903e-02    0.000000e+00
   -2.467892e-03    2.138793e-02    0.000000e+00
   -3.012737e-03    2.019805e-02    0.000000e+00
   -3.513652e-03    1.902546e-02    0.000000e+00
   -2.832195e-03    2.059685e-02    0.000000e+00
   -3.076175e-03    2.005173e-02    0.000000e+00
   -2.762002e-03    2.074027e-02    0.000000e+00
   -3.555920e-03    1.890632e-02    0.000000e+00
   -2.381078e-03    2.161814e-02    0.000000e+00
   -3.366405e-03    1.938022e-02    0.000000e+00
   -2.701578e-03    2.086961e-02    0.000000e+00
   -2.360721e-03    2.167073e-02    0.000000e+00
   -3.274408e-03    1.961553e-02    0.000000e+00
   -3.141924e-03    1.990488e-02    0.000000e+00
   -2.594471e-03    2.111871e-02    0.000000e+00
   -2.503338e-03    2.128902e-02    0.000000e+00
   -2.645836e-03    2.099602e-02    0.000000e+00
   -2.269304e-03    2.186230e-02    0.000000e+00
   -3.208902e-03    1.975833e-02    0.000000e+00
   -3.684978e-03    1.859305e-02    0.000000e+00
   -2.271589e-03    2.188234e-02    0.000000e+00
   -2.312559e-03    2.185511e-02    0.000000e+00
   -2.274743e-03    2.190569e-02    0.000000e+00
   -3.784695e-03    1.868343e-02    0.000000e+00
   -2.344424e-03    2.212549e-02    0.000000e+00
   -2.329755e-03    2.187867e-02    0.000000e+00
   -3.633786e-03    1.867834e-02    0.000000e+00
   -2.294467e-03    2.177180e-02    0.000000e+00
   -2.833342e-03    2.052647e-02    0.000000e+00
   -3.643419e-03    1.865899e-02    0.000000e+00
   -2.314824e-03    2.173887e-02    0.000000e+00
   -2.336096e-03    2.171773e-02    0.000000e+00
   -2.282713e-03    2.179736e-02    0.000000e+00
   -3.650557e-03    1.864974e-02    0.000000e+00
   -3.450718e-03    1.916932e-02    0.000000e+00
   -3.637274e-03    1.863894e-02    0.000000e+00
   -2.403311e-03    2.152277e-02    0.000000e+00
   -2.282997e-03    2.180753e-02    0.000000e+00
   -2.430256e-03    2.144429e-02    0.000000e+00
   -2.889495e-03    2.044092e-02    0.000000e+00
   -3.399314e-03    1.928529e-02    0.000000e+00
   -3.021572e-03    2.011562e-02    0.000000e+00
   -3.539296e-03    1.894873e-02    0.000000e+00
   -2.714170e-03    2.077748e-02    0.000000e+00
   -2.461839e-03    2.135114e-02    0.000000e+00
   -3.304640e-03    1.951343e-02    0.000000e+00
   -2.546282e-03    2.117459e-02    0.000000e+00
   -3.092594e-03    1.996244e-02    0.000000e+00
   -2.652861e-03    2.091424e-02    0.000000e+00
   -3.654458e-03    1.867265e-02    0.000000e+00
   -3.164809e-03    1.980881e-02    0.000000e+00
   -2.945174e-03    2.028298e-02    0.000000e+00
   -2.596527e-03    2.104796e-02    0.000000e+00
   -3.236441e-03    1.965798e-02    0.000000e+00
   -2.286112e-03    2.178627e-02    0.000000e+00
   -3.682581e-03    1.862957e-02    0.000000e+00
   -2.289108e-03    2.184430e-02    0.000000e+00
   -2.285284e-03    2.182175e-02    0.000000e+00
   -3.655336e-03    1.865053e-02    0.000000e+00
   -2.314806e-03    2.178610e-02    0.000000e+00
   -2.343663e-03    2.175631e-02    0.000000e+00
   -2.364861e-03    2.191101e-02    0.000000e+00
   -2.320121e-03    2.234365e-02    0.000000e+00
   -2.318342e-03    2.170991e-02    0.000000e+00
   -2.298813e-03    2.174984e-02    0.000000e+00
   -3.501835e-03    1.904305e-02    0.000000e+00
   -3.619743e-03    1.873505e-02    0.000000e+00
   -3.603859e-03    1.876013e-02    0.000000e+00
   -2.396634e-03    2.150401e-02    0.000000e+00
   -3.599368e-03    1.877644e-02    0.000000e+00
   -3.473882e-03    1.910402e-02    0.000000e+00
   -3.432486e-03    1.919798e-02    0.000000e+00
   -2.299639e-03    2.174481e-02    0.000000e+00
   -2.302614e-03    2.174197e-02    0.000000e+00
   -2.424661e-03    2.141806e-02    0.000000e+00
   -2.359301e-03    2.161810e-02    0.000000e+00
   -3.339424e-03    1.941356e-02    0.000000e+00
   -2.501323e-03    2.123976e-02    0.000000e+00
   -2.971437e-03    2.017595e-02    0.000000e+00
   -2.778358e-03    2.064208e-02    0.000000e+00
   -3.042855e-03    2.002657e-02    0.000000e+00
   -3.673352e-03    1.868522e-02    0.000000e+00
   -2.669793e-03    2.082436e-02    0.000000e+00
   -2.301160e-03    2.175657e-02    0.000000e+00
   -3.651724e-03    1.870413e-02    0.000000e+00
   -3.624226e-03    1.873395e-02    0.000000e+00
   -3.628646e-03    1.873500e-02    0.000000e+00
   -3.117457e-03    1.987086e-02    0.000000e+00
   -3.610390e-03    1.875303e-02    0.000000e+00
   -2.606605e-03    2.097154e-02    0.000000e+00
   -3.270200e-03    1.955778e-02    0.000000e+00
   -2.550113e-03    2.111119e-02    0.000000e+00
   -3.194929e-03    1.971225e-02    0.000000e+00
   -2.870379e-03    2.041641e-02    0.000000e+00
   -2.305539e-03    2.176856e-02    0.000000e+00
   -2.351975e-03    2.166495e-02    0.000000e+00
   -2.379646e-03    2.173780e-02    0.000000e+00
   -3.511873e-03    1.900866e-02    0.000000e+00
   -2.317438e-03    2.168973e-02    0.000000e+00
   -2.366031e-03    2.156565e-02    0.000000e+00
   -3.466907e-03    1.911297e-02    0.000000e+00
   -2.392043e-03    2.148578e-02    0.000000e+00
   -2.805868e-03    2.053768e-02    0.000000e+00
   -3.591126e-03    1.880314e-02    0.000000e+00
   -3.552669e-03    1.890631e-02    0.000000e+00
   -3.591769e-03    1.881568e-02    0.000000e+00
   -3.592058e-03    1.880791e-02    0.000000e+00
   -3.377183e-03    1.931676e-02    0.000000e+00
   -2.459820e-03    2.131362e-02    0.000000e+00
   -2.998971e-03    2.009035e-02    0.000000e+00
   -3.595338e-03    1.881936e-02    0.000000e+00
   -3.617646e-03    1.881221e-02    0.000000e+00
   -3.066582e-03    1.994751e-02    0.000000e+00
   -3.309530e-03    1.945712e-02    0.000000e+00
   -2.627433e-03    2.088409e-02    0.000000e+00
   -3.149821e-03    1.977896e-02    0.000000e+00
   -2.506093e-03    2.118591e-02    0.000000e+00
   -2.563291e-03    2.103917e-02    0.000000e+00
   -3.232312e-03    1.961378e-02    0.000000e+00
   -2.910726e-03    2.030355e-02    0.000000e+00
   -3.637361e-03    1.879355e-02    0.000000e+00
   -2.319175e-03    2.168881e-02    0.000000e+00
   -2.738155e-03    2.067563e-02    0.000000e+00
   -2.324385e-03    2.169050e-02    0.000000e+00
   -3.611508e-03    1.879787e-02    0.000000e+00
   -2.329191e-03    2.170292e-02    0.000000e+00
   -2.388680e-03    2.161123e-02    0.000000e+00
   -3.535615e-03    1.894852e-02    0.000000e+00
   -2.346660e-03    2.166461e-02    0.000000e+00
   -2.364086e-03    2.155317e-02    0.000000e+00
   -2.776614e-03    2.055634e-02    0.000000e+00
   -3.416877e-03    1.922201e-02    0.000000e+00
   -3.560772e-03    1.888927e-02    0.000000e+00
   -2.423121e-03    2.139299e-02    0.000000e+00
   -2.851894e-03    2.040848e-02    0.000000e+00
   -3.554744e-03    1.891339e-02    0.000000e+00
   -2.340146e-03    2.162040e-02    0.000000e+00
   -3.565786e-03    1.893064e-02    0.000000e+00
   -3.352874e-03    1.935655e-02    0.000000e+00
   -3.000225e-03    2.006306e-02    0.000000e+00
   -2.699895e-03    2.071916e-02    0.000000e+00
   -2.461576e-03    2.127851e-02    0.000000e+00
   -3.100210e-03    1.986243e-02    0.000000e+00
   -2.356798e-03    2.159982e-02    0.000000e+00
   -2.587670e-03    2.095698e-02    0.000000e+00
   -3.276399e-03    1.951219e-02    0.000000e+00
   -2.344738e-03    2.161254e-02    0.000000e+00
   -3.191085e-03    1.968221e-02    0.000000e+00
   -2.521629e-03    2.112036e-02    0.000000e+00
   -2.922806e-03    2.023960e-02    0.000000e+00
   -3.614816e-03    1.889881e-02    0.000000e+00
   -3.582023e-03    1.892974e-02    0.000000e+00
   -3.557523e-03    1.892351e-02    0.000000e+00
   -2.394466e-03    2.152256e-02    0.000000e+00
   -2.442769e-03    2.143547e-02    0.000000e+00
   -2.432555e-03    2.171593e-02    0.000000e+00
   -2.263222e-03    2.241947e-02    0.000000e+00
   -2.384960e-03    2.224353e-02    0.000000e+00
   -3.845927e-03    1.838983e-02    0.000000e+00
   -3.738393e-03    1.898724e-02    0.000000e+00
   -3.510905e-03    1.901042e-02    0.000000e+00
   -3.458837e-03    1.912715e-02    0.000000e+00
   -3.399700e-03    1.925521e-02    0.000000e+00
   -2.339829e-03    2.162751e-02    0.000000e+00
   -2.318830e-03    2.169280e-02    0.000000e+00
   -3.497140e-03    1.904058e-02    0.000000e+00
   -2.367741e-03    2.153814e-02    0.000000e+00
   -3.513860e-03    1.907471e-02    0.000000e+00
   -2.422445e-03    2.138197e-02    0.000000e+00
   -2.834618e-03    2.040963e-02    0.000000e+00
   -2.659886e-03    2.078711e-02    0.000000e+00
   -3.326178e-03    1.940800e-02    0.000000e+00
   -3.505374e-03    1.905717e-02    0.000000e+00
   -2.626643e-03    2.085908e-02    0.000000e+00
   -3.504963e-03    1.903568e-02    0.000000e+00
   -3.051970e-03    1.995334e-02    0.000000e+00
   -3.241135e-03    1.957893e-02    0.000000e+00
   -2.744825e-03    2.059517e-02    0.000000e+00
   -2.399642e-03    2.146454e-02    0.000000e+00
   -2.906033e-03    2.025001e-02    0.000000e+00
   -2.483305e-03    2.121283e-02    0.000000e+00
   -2.444589e-03    2.136154e-02    0.000000e+00
   -3.535117e-03    1.907969e-02    0.000000e+00
   -2.506736e-03    2.133451e-02    0.000000e+00
   -2.504550e-03    2.148262e-02    0.000000e+00
   -3.572686e-03    1.906478e-02    0.000000e+00
   -2.354615e-03    2.245656e-02    0.000000e+00
   -2.469106e-03    2.213267e-02    0.000000e+00
   -3.450966e-03    1.914811e-02    0.000000e+00
   -2.372929e-03    2.153063e-02    0.000000e+00
   -2.440946e-03    2.132890e-02    0.000000e+00
   -3.440008e-03    1.921582e-02    0.000000e+00
   -3.574495e-03    1.885060e-02    0.000000e+00
   -2.693835e-03    2.070445e-02    0.000000e+00
   -3.381720e-03    1.929837e-02    0.000000e+00
   -2.970137e-03    2.011820e-02    0.000000e+00
   -2.592222e-03    2.095816e-02    0.000000e+00
   -3.205694e-03    1.965875e-02    0.000000e+00
   -2.393405e-03    2.146499e-02    0.000000e+00
   -3.102434e-03    1.986351e-02    0.000000e+00
   -3.442368e-03    1.918130e-02    0.000000e+00
   -2.822897e-03    2.042246e-02    0.000000e+00
   -2.443504e-03    2.133030e-02    0.000000e+00
   -3.299471e-03    1.946933e-02    0.000000e+00
   -2.506074e-03    2.117436e-02    0.000000e+00
   -3.448048e-03    1.924789e-02    0.000000e+00
   -2.504932e-03    2.124207e-02    0.000000e+00
   -2.586691e-03    2.123129e-02    0.000000e+00
   -3.611368e-03    1.905622e-02    0.000000e+00
   -2.504217e-03    2.166300e-02    0.000000e+00
   -3.471716e-03    1.926930e-02    0.000000e+00
   -2.403512e-03    2.143452e-02    0.000000e+00
   -3.366484e-03    1.934895e-02    0.000000e+00
   -2.752590e-03    2.057522e-02    0.000000e+00
   -3.166724e-03    1.976348e-02    0.000000e+00
   -3.274492e-03    1.954457e-02    0.000000e+00
   -3.357754e-03    1.940656e-02    0.000000e+00
   -2.901708e-03    2.026087e-02    0.000000e+00
   -3.388410e-03    1.950629e-02    0.000000e+00
   -2.996474e-03    2.007271e-02    0.000000e+00
   -2.590411e-03    2.108154e-02    0.000000e+00
   -2.702096e-03    2.069951e-02    0.000000e+00
   -2.563789e-03    2.106847e-02    0.000000e+00
   -3.511601e-03    1.927763e-02    0.000000e+00
   -2.583768e-03    2.140583e-02    0.000000e+00
   -2.813245e-03    2.045231e-02    0.000000e+00
   -2.642393e-03    2.088717e-02    0.000000e+00
   -2.913259e-03    2.026343e-02    0.000000e+00
   -3.046728e-03    2.000114e-02    0.000000e+00
   -3.246830e-03    1.965546e-02    0.000000e+00
   -3.428696e-03    1.955098e-02    0.000000e+00
   -2.672929e-03    2.134864e-02    0.000000e+00
   -3.266709e-03    1.970556e-02    0.000000e+00
   -2.684419e-03    2.095935e-02    0.000000e+00
   -2.529315e-03    2.182890e-02    0.000000e+00
   -2.356470e-03    2.269942e-02    0.000000e+00
   -3.114311e-03    1.991552e-02    0.000000e+00
   -2.745631e-03    2.066721e-02    0.000000e+00
   -2.988612e-03    2.016639e-02    0.000000e+00
   -3.275945e-03    1.980488e-02    0.000000e+00
   -2.790738e-03    2.102851e-02    0.000000e+00
   -2.796616e-03    2.081691e-02    0.000000e+00
   -2.573986e-03    2.199648e-02    0.000000e+00
   -3.477475e-03    1.961767e-02    0.000000e+00
   -2.804848e-03    2.050000e-02    0.000000e+00
   -2.690269e-03    2.084807e-02    0.000000e+00
   -3.169212e-03    1.986283e-02    0.000000e+00
   -3.066385e-03    2.007584e-02    0.000000e+00
   -3.316501e-03    1.989183e-02    0.000000e+00
   -2.802427e-03    2.064420e-02    0.000000e+00
   -2.784741e-03    2.130882e-02    0.000000e+00
   -2.945431e-03    2.033233e-02    0.000000e+00
   -3.616958e-03    1.938744e-02    0.000000e+00
   -2.926749e-03    2.066568e-02    0.000000e+00
   -2.583309e-03    2.157833e-02    0.000000e+00
   -2.693739e-03    2.183166e-02    0.000000e+00
   -3.517528e-03    1.972934e-02    0.000000e+00
   -2.457284e-03    2.262928e-02    0.000000e+00
   -3.153074e-03    1.997703e-02    0.000000e+00
   -2.934073e-03    2.047582e-02    0.000000e+00
   -3.046722e-03    2.055519e-02    0.000000e+00
   -3.222134e-03    2.027417e-02    0.000000e+00
   -3.402700e-03    2.010577e-02    0.000000e+00
   -2.736229e-03    2.158015e-02    0.000000e+00
   -3.039337e-03    2.021422e-02    0.000000e+00
   -3.073418e-03    2.072154e-02    0.000000e+00
   -3.638637e-03    1.951734e-02    0.000000e+00
   -2.512350e-03    2.232176e-02    0.000000e+00
   -3.851003e-03    1.891132e-02    0.000000e+00
   -2.942538e-03    2.111947e-02    0.000000e+00
   -4.835835e-03    1.942218e-02    0.000000e+00
   -4.263776e-03    2.647045e-02    0.000000e+00
   -2.543881e-03    3.327323e-02    0.000000e+00
   -4.251538e-03    2.801060e-02    0.000000e+00
   -3.014469e-03    3.320839e-02    0.000000e+00
   -4.242872e-03    2.926418e-02    0.000000e+00
   -4.253564e-03    3.082350e-02    0.000000e+00
   -3.471480e-03    3.316719e-02    0.000000e+00
   -4.247905e-03    3.199840e-02    0.000000e+00
   -3.938274e-03    3.312849e-02    0.000000e+00
   -4.287821e-03    2.518175e-02    0.000000e+00
   -4.382039e-03    2.353807e-02    0.000000e+00
   -4.490039e-03    2.223209e-02    0.000000e+00
   -4.689975e-03    2.060952e-02    0.000000e+00
   -2.316296e-03    2.950154e-02    0.000000e+00
   -2.317677e-03    3.062001e-02    0.000000e+00
   -2.304294e-03    3.218299e-02    0.000000e+00
   -2.316052e-03    2.672784e-02    0.000000e+00
   -2.267164e-03    2.278602e-02    0.000000e+00
   -2.245651e-03    2.259679e-02    0.000000e+00
   -2.318317e-03    2.788879e-02    0.000000e+00
   -2.310214e-03    2.522466e-02    0.000000e+00
   -2.295448e-03    2.411893e-02    0.000000e+00
   -3.748391e-03    1.940970e-02    0.000000e+00
   -3.097712e-03    2.095297e-02    0.000000e+00
   -2.985556e-03    2.128826e-02    0.000000e+00
   -2.558170e-03    2.252566e-02    0.000000e+00
   -4.304970e-03    2.557371e-02    0.000000e+00
   -4.275203e-03    2.765347e-02    0.000000e+00
   -4.272490e-03    2.888090e-02    0.000000e+00
   -4.820263e-03    1.974621e-02    0.000000e+00
   -4.666643e-03    2.096293e-02    0.000000e+00
   -4.561923e-03    2.181449e-02    0.000000e+00
   -4.480162e-03    2.262318e-02    0.000000e+00
   -4.379947e-03    2.390287e-02    0.000000e+00
   -4.331509e-03    2.476732e-02    0.000000e+00
   -4.284339e-03    3.048452e-02    0.000000e+00
   -4.269788e-03    3.166423e-02    0.000000e+00
   -4.281765e-03    2.682834e-02    0.000000e+00
   -4.922683e-03    1.888598e-02    0.000000e+00
   -3.119547e-03    3.322656e-02    0.000000e+00
   -3.578447e-03    3.319062e-02    0.000000e+00
   -4.051354e-03    3.312986e-02    0.000000e+00
   -2.292034e-03    2.708687e-02    0.000000e+00
   -2.290014e-03    2.558516e-02    0.000000e+00
   -2.284965e-03    2.488254e-02    0.000000e+00
   -2.276014e-03    2.381956e-02    0.000000e+00
   -2.269479e-03    3.268513e-02    0.000000e+00
   -2.276607e-03    2.896856e-02    0.000000e+00
   -2.292833e-03    2.636017e-02    0.000000e+00
   -2.255501e-03    2.321993e-02    0.000000e+00
   -3.901130e-03    1.827324e-02    0.000000e+00
   -4.063279e-03    1.839956e-02    0.000000e+00
   -4.477403e-03    1.831984e-02    0.000000e+00
   -4.583699e-03    1.830058e-02    0.000000e+00
   -4.814317e-03    1.827453e-02    0.000000e+00
   -2.954295e-03    2.160614e-02    0.000000e+00
   -2.661065e-03    2.240855e-02    0.000000e+00
   -2.504678e-03    2.282704e-02    0.000000e+00
   -3.940525e-03    1.839340e-02    0.000000e+00
   -3.245749e-03    2.082904e-02    0.000000e+00
   -4.376517e-03    1.827811e-02    0.000000e+00
   -2.543255e-03    2.304032e-02    0.000000e+00
   -3.102309e-03    2.154188e-02    0.000000e+00
   -2.648757e-03    2.295119e-02    0.000000e+00
   -4.031202e-03    1.879048e-02    0.000000e+00
   -4.266925e-03    1.887914e-02    0.000000e+00
   -4.587185e-03    1.884831e-02    0.000000e+00
   -4.755157e-03    1.890986e-02    0.000000e+00
   -2.390660e-03    2.317266e-02    0.000000e+00
   -2.524260e-03    2.358196e-02    0.000000e+00
   -4.113735e-03    3.251247e-02    0.000000e+00
   -3.937839e-03    3.251388e-02    0.000000e+00
   -3.660363e-03    3.263570e-02    0.000000e+00
   -3.480774e-03    3.257837e-02    0.000000e+00
   -3.199180e-03    3.265486e-02    0.000000e+00
   -3.020806e-03    3.261892e-02    0.000000e+00
   -2.538181e-03    3.272116e-02    0.000000e+00
   -4.431845e-03    1.892457e-02    0.000000e+00
   -2.307631e-03    3.099273e-02    0.000000e+00
   -2.317537e-03    2.825272e-02    0.000000e+00
   -4.256698e-03    2.969422e-02    0.000000e+00
   -2.288187e-03    3.167050e-02    0.000000e+00
   -4.284418e-03    3.253382e-02    0.000000e+00
   -2.293140e-03    2.981311e-02    0.000000e+00
   -2.468746e-03    2.725562e-02    0.000000e+00
   -4.713606e-03    1.932769e-02    0.000000e+00
   -4.616905e-03    1.993498e-02    0.000000e+00
   -2.444911e-03    2.780201e-02    0.000000e+00
   -2.464131e-03    2.889860e-02    0.000000e+00
   -2.451487e-03    2.945323e-02    0.000000e+00
   -2.449046e-03    3.054440e-02    0.000000e+00
   -2.421831e-03    3.216363e-02    0.000000e+00
   -2.440846e-03    3.275854e-02    0.000000e+00
   -4.437160e-03    2.116610e-02    0.000000e+00
   -4.368771e-03    2.170060e-02    0.000000e+00
   -4.327587e-03    2.228550e-02    0.000000e+00
   -2.425550e-03    2.362013e-02    0.000000e+00
   -4.254873e-03    2.287780e-02    0.000000e+00
   -2.407843e-03    2.415154e-02    0.000000e+00
   -4.237033e-03    2.349609e-02    0.000000e+00
   -2.443515e-03    2.467553e-02    0.000000e+00
   -4.161512e-03    2.410407e-02    0.000000e+00
   -2.437672e-03    2.519234e-02    0.000000e+00
   -4.128472e-03    2.463854e-02    0.000000e+00
   -2.462760e-03    2.571060e-02    0.000000e+00
   -4.126281e-03    2.522092e-02    0.000000e+00
   -2.450319e-03    2.672721e-02    0.000000e+00
   -4.112951e-03    2.641502e-02    0.000000e+00
   -4.071932e-03    2.700576e-02    0.000000e+00
   -4.068280e-03    2.752211e-02    0.000000e+00
   -4.100855e-03    2.809729e-02    0.000000e+00
   -4.068952e-03    2.870732e-02    0.000000e+00
   -4.091383e-03    2.928565e-02    0.000000e+00
   -4.095671e-03    3.022839e-02    0.000000e+00
   -4.070912e-03    3.151009e-02    0.000000e+00
   -4.103639e-03    3.214162e-02    0.000000e+00
   -4.555021e-03    2.055929e-02    0.000000e+00
   -2.466882e-03    2.619161e-02    0.000000e+00
   -4.091639e-03    2.580534e-02    0.000000e+00
   -4.106918e-03    3.089551e-02    0.000000e+00
   -3.827219e-03    3.317377e-02    0.000000e+00
   -3.363632e-03    3.320521e-02    0.000000e+00
   -2.908212e-03    3.325634e-02    0.000000e+00
   -2.459224e-03    3.329407e-02    0.000000e+00
   -2.460711e-03    2.306236e-02    0.000000e+00
   -2.633076e-03    2.351750e-02    0.000000e+00
   -2.444700e-03    2.834589e-02    0.000000e+00
   -2.477545e-03    2.997825e-02    0.000000e+00
   -2.428130e-03    3.118079e-02    0.000000e+00
   -4.136850e-03    2.987832e-02    0.000000e+00
   -4.565275e-03    1.945524e-02    0.000000e+00
   -4.225269e-03    1.945337e-02    0.000000e+00
   -3.920242e-03    1.947869e-02    0.000000e+00
   -2.522918e-03    2.411111e-02    0.000000e+00
   -2.392427e-03    3.155966e-02    0.000000e+00
   -3.941958e-03    3.216975e-02    0.000000e+00
   -3.677702e-03    3.207116e-02    0.000000e+00
   -3.484991e-03    3.206573e-02    0.000000e+00
   -3.205845e-03    3.208924e-02    0.000000e+00
   -3.027068e-03    3.210480e-02    0.000000e+00
   -2.539313e-03    3.213835e-02    0.000000e+00
   -3.299445e-03    3.264610e-02    0.000000e+00
   -2.839396e-03    3.270797e-02    0.000000e+00
   -4.378502e-03    1.941827e-02    0.000000e+00
   -3.756218e-03    3.265089e-02    0.000000e+00
   -4.178381e-03    1.886304e-02    0.000000e+00
   -2.574033e-03    2.671889e-02    0.000000e+00
   -4.502646e-03    1.988803e-02    0.000000e+00
   -2.578302e-03    2.725371e-02    0.000000e+00
   -2.576584e-03    2.779438e-02    0.000000e+00
   -2.586159e-03    2.888578e-02    0.000000e+00
   -2.589560e-03    2.943343e-02    0.000000e+00
   -2.587620e-03    3.054560e-02    0.000000e+00
   -2.736209e-03    3.273157e-02    0.000000e+00
   -4.310571e-03    2.116848e-02    0.000000e+00
   -4.236964e-03    2.174290e-02    0.000000e+00
   -4.179651e-03    2.233102e-02    0.000000e+00
   -4.128437e-03    2.291948e-02    0.000000e+00
   -4.086548e-03    2.352021e-02    0.000000e+00
   -2.542572e-03    2.462717e-02    0.000000e+00
   -4.039134e-03    2.411536e-02    0.000000e+00
   -2.556060e-03    2.514591e-02    0.000000e+00
   -4.003252e-03    2.467826e-02    0.000000e+00
   -2.568432e-03    2.567220e-02    0.000000e+00
   -3.979606e-03    2.526009e-02    0.000000e+00
   -3.960239e-03    2.642646e-02    0.000000e+00
   -3.946757e-03    2.700544e-02    0.000000e+00
   -3.943027e-03    2.755369e-02    0.000000e+00
   -3.947521e-03    2.812599e-02    0.000000e+00
   -3.940313e-03    2.871388e-02    0.000000e+00
   -3.946332e-03    2.933434e-02    0.000000e+00
   -3.953781e-03    3.022776e-02    0.000000e+00
   -3.948144e-03    3.150764e-02    0.000000e+00
   -4.412280e-03    2.054653e-02    0.000000e+00
   -2.573398e-03    2.618569e-02    0.000000e+00
   -3.963533e-03    2.584041e-02    0.000000e+00
   -3.956187e-03    3.090872e-02    0.000000e+00
   -2.655306e-03    2.456434e-02    0.000000e+00
   -3.905481e-03    2.415011e-02    0.000000e+00
   -3.991215e-03    2.295129e-02    0.000000e+00
   -3.941163e-03    2.355457e-02    0.000000e+00
   -2.625749e-03    2.405007e-02    0.000000e+00
   -2.579446e-03    2.834294e-02    0.000000e+00
   -2.594471e-03    2.997668e-02    0.000000e+00
   -2.580009e-03    3.122203e-02    0.000000e+00
   -3.955319e-03    2.992123e-02    0.000000e+00
   -4.077427e-03    1.946167e-02    0.000000e+00
   -4.125200e-03    1.999099e-02    0.000000e+00
   -3.683925e-03    3.143818e-02    0.000000e+00
   -3.480473e-03    3.154930e-02    0.000000e+00
   -3.207782e-03    3.155339e-02    0.000000e+00
   -3.036382e-03    3.159928e-02    0.000000e+00
   -2.574751e-03    3.156033e-02    0.000000e+00
   -3.302398e-03    3.208084e-02    0.000000e+00
   -2.845335e-03    3.211893e-02    0.000000e+00
   -4.343413e-03    2.002626e-02    0.000000e+00
   -3.797128e-03    3.210158e-02    0.000000e+00
   -2.745973e-03    3.212781e-02    0.000000e+00
   -2.699608e-03    2.670159e-02    0.000000e+00
   -2.702725e-03    2.724123e-02    0.000000e+00
   -2.707435e-03    2.778266e-02    0.000000e+00
   -2.721245e-03    2.886782e-02    0.000000e+00
   -2.728170e-03    2.941706e-02    0.000000e+00
   -2.726819e-03    3.053363e-02    0.000000e+00
   -4.164223e-03    2.117938e-02    0.000000e+00
   -4.086480e-03    2.178150e-02    0.000000e+00
   -4.033764e-03    2.237662e-02    0.000000e+00
   -2.676094e-03    2.508081e-02    0.000000e+00
   -3.866558e-03    2.471577e-02    0.000000e+00
   -2.690617e-03    2.562493e-02    0.000000e+00
   -3.834204e-03    2.530232e-02    0.000000e+00
   -3.815515e-03    2.644687e-02    0.000000e+00
   -3.808595e-03    2.701657e-02    0.000000e+00
   -3.805651e-03    2.758024e-02    0.000000e+00
   -3.801919e-03    2.814650e-02    0.000000e+00
   -3.795961e-03    2.872857e-02    0.000000e+00
   -3.796509e-03    2.936343e-02    0.000000e+00
   -3.803239e-03    3.024839e-02    0.000000e+00
   -3.816081e-03    3.149388e-02    0.000000e+00
   -2.696297e-03    2.616289e-02    0.000000e+00
   -4.267307e-03    2.047724e-02    0.000000e+00
   -3.819908e-03    2.587954e-02    0.000000e+00
   -3.814881e-03    3.093147e-02    0.000000e+00
   -2.825685e-03    2.722962e-02    0.000000e+00
   -2.826314e-03    2.667905e-02    0.000000e+00
   -4.098214e-03    2.057394e-02    0.000000e+00
   -2.822786e-03    2.612886e-02    0.000000e+00
   -3.674277e-03    2.760846e-02    0.000000e+00
   -2.817035e-03    2.556457e-02    0.000000e+00
   -3.673290e-03    2.702888e-02    0.000000e+00
   -4.014186e-03    2.119812e-02    0.000000e+00
   -2.802008e-03    2.497243e-02    0.000000e+00
   -3.682601e-03    2.647242e-02    0.000000e+00
   -3.928012e-03    2.183067e-02    0.000000e+00
   -3.677385e-03    2.592885e-02    0.000000e+00
   -3.690145e-03    2.535354e-02    0.000000e+00
   -3.886651e-03    2.244609e-02    0.000000e+00
   -3.732418e-03    2.474420e-02    0.000000e+00
   -4.019466e-03    2.001707e-02    0.000000e+00
   -2.752190e-03    2.453427e-02    0.000000e+00
   -3.878333e-03    2.295144e-02    0.000000e+00
   -3.791962e-03    2.421462e-02    0.000000e+00
   -3.821902e-03    2.358712e-02    0.000000e+00
   -3.668761e-03    3.101444e-02    0.000000e+00
   -3.517358e-03    3.090705e-02    0.000000e+00
   -3.206261e-03    3.101044e-02    0.000000e+00
   -3.001191e-03    3.107847e-02    0.000000e+00
   -3.303280e-03    3.154385e-02    0.000000e+00
   -2.857684e-03    3.151866e-02    0.000000e+00
   -2.713332e-03    2.832700e-02    0.000000e+00
   -2.728986e-03    2.996892e-02    0.000000e+00
   -2.731382e-03    3.119905e-02    0.000000e+00
   -3.800647e-03    2.994669e-02    0.000000e+00
   -2.750094e-03    3.153578e-02    0.000000e+00
   -2.833198e-03    2.776575e-02    0.000000e+00
   -2.853933e-03    2.884282e-02    0.000000e+00
   -2.866878e-03    2.939737e-02    0.000000e+00
   -2.861186e-03    3.050125e-02    0.000000e+00
   -3.666823e-03    2.815682e-02    0.000000e+00
   -3.655182e-03    2.874027e-02    0.000000e+00
   -3.648075e-03    2.937789e-02    0.000000e+00
   -3.653216e-03    3.028664e-02    0.000000e+00
   -2.855529e-03    2.438046e-02    0.000000e+00
   -3.756704e-03    2.309999e-02    0.000000e+00
   -3.687345e-03    2.415151e-02    0.000000e+00
   -3.714851e-03    2.378750e-02    0.000000e+00
   -3.736988e-03    2.345751e-02    0.000000e+00
   -2.976067e-03    2.880414e-02    0.000000e+00
   -3.526249e-03    2.874207e-02    0.000000e+00
   -3.547624e-03    2.814656e-02    0.000000e+00
   -2.950852e-03    2.774299e-02    0.000000e+00
   -2.927018e-03    2.724467e-02    0.000000e+00
   -2.930813e-03    2.665626e-02    0.000000e+00
   -3.995919e-03    2.063829e-02    0.000000e+00
   -3.570855e-03    2.765832e-02    0.000000e+00
   -2.927530e-03    2.609611e-02    0.000000e+00
   -2.923959e-03    2.550569e-02    0.000000e+00
   -3.563242e-03    2.703550e-02    0.000000e+00
   -3.895474e-03    2.120757e-02    0.000000e+00
   -3.599224e-03    2.649364e-02    0.000000e+00
   -2.890875e-03    2.495473e-02    0.000000e+00
   -3.788823e-03    2.190124e-02    0.000000e+00
   -3.561143e-03    2.597548e-02    0.000000e+00
   -3.574198e-03    2.540502e-02    0.000000e+00
   -3.742490e-03    2.258359e-02    0.000000e+00
   -3.610280e-03    2.473636e-02    0.000000e+00
   -2.839825e-03    2.830701e-02    0.000000e+00
   -2.864234e-03    2.996855e-02    0.000000e+00
   -2.872285e-03    3.116544e-02    0.000000e+00
   -3.645618e-03    2.997305e-02    0.000000e+00
   -3.882350e-03    2.072933e-02    0.000000e+00
   -3.492519e-03    3.040775e-02    0.000000e+00
   -3.210567e-03    3.044254e-02    0.000000e+00
   -2.991503e-03    3.042231e-02    0.000000e+00
   -3.300006e-03    3.101126e-02    0.000000e+00
   -3.003724e-03    2.935601e-02    0.000000e+00
   -2.874929e-03    2.388637e-02    0.000000e+00
   -3.507176e-03    2.936616e-02    0.000000e+00
   -3.606074e-03    2.368134e-02    0.000000e+00
   -3.472276e-03    2.758378e-02    0.000000e+00
   -3.027250e-03    2.712547e-02    0.000000e+00
   -3.481328e-03    2.686565e-02    0.000000e+00
   -3.011236e-03    2.648703e-02    0.000000e+00
   -3.010211e-03    2.592040e-02    0.000000e+00
   -3.009941e-03    2.527330e-02    0.000000e+00
   -3.765538e-03    2.136967e-02    0.000000e+00
   -2.985818e-03    2.487858e-02    0.000000e+00
   -3.516393e-03    2.652417e-02    0.000000e+00
   -3.508177e-03    2.585724e-02    0.000000e+00
   -3.706674e-03    2.211099e-02    0.000000e+00
   -3.016468e-03    2.678132e-02    0.000000e+00
   -3.526260e-03    2.529067e-02    0.000000e+00
   -3.009562e-03    2.620476e-02    0.000000e+00
   -3.527842e-03    2.462758e-02    0.000000e+00
   -3.639148e-03    2.280147e-02    0.000000e+00
   -3.011144e-03    2.561326e-02    0.000000e+00
   -3.473713e-03    2.721312e-02    0.000000e+00
   -2.802690e-03    2.468230e-02    0.000000e+00
   -3.709602e-03    2.445664e-02    0.000000e+00
   -3.820713e-03    2.277039e-02    0.000000e+00
   -3.376033e-03    2.931976e-02    0.000000e+00
   -3.147314e-03    2.924389e-02    0.000000e+00
   -3.021362e-03    2.379539e-02    0.000000e+00
   -3.726803e-03    2.077195e-02    0.000000e+00
   -2.943483e-03    2.828649e-02    0.000000e+00
   -3.069048e-03    2.877838e-02    0.000000e+00
   -3.425728e-03    2.875564e-02    0.000000e+00
   -3.459606e-03    2.809527e-02    0.000000e+00
   -3.056949e-03    2.768473e-02    0.000000e+00
   -3.007707e-03    3.002180e-02    0.000000e+00
   -3.467717e-03    3.001424e-02    0.000000e+00
   -3.140620e-03    2.993960e-02    0.000000e+00
   -3.334894e-03    3.037717e-02    0.000000e+00
   -3.805208e-03    2.010251e-02    0.000000e+00
   -3.626314e-03    2.309725e-02    0.000000e+00
   -2.986714e-03    2.444505e-02    0.000000e+00
   -3.118457e-03    2.657937e-02    0.000000e+00
   -3.116335e-03    2.601696e-02    0.000000e+00
   -3.343978e-03    2.859439e-02    0.000000e+00
   -3.142886e-03    2.861467e-02    0.000000e+00
   -3.360375e-03    2.814817e-02    0.000000e+00
   -3.156227e-03    2.758287e-02    0.000000e+00
   -3.849983e-03    2.105786e-02    0.000000e+00
   -3.514933e-03    2.787570e-02    0.000000e+00
   -2.987974e-03    2.744697e-02    0.000000e+00
   -2.865420e-03    2.344716e-02    0.000000e+00
   -3.355948e-03    2.705812e-02    0.000000e+00
   -3.129274e-03    2.539915e-02    0.000000e+00
   -3.547639e-03    2.430802e-02    0.000000e+00
   -3.271939e-03    2.920857e-02    0.000000e+00
   -3.353969e-03    3.000208e-02    0.000000e+00
   -3.163182e-03    2.718402e-02    0.000000e+00
   -3.124034e-03    2.789438e-02    0.000000e+00
   -3.351260e-03    2.896233e-02    0.000000e+00
   -3.128360e-03    2.890876e-02    0.000000e+00
   -3.613555e-03    2.148115e-02    0.000000e+00
   -3.358465e-03    2.772512e-02    0.000000e+00
   -3.258307e-03    2.710791e-02    0.000000e+00
   -3.323549e-03    2.645417e-02    0.000000e+00
   -3.134979e-03    2.822775e-02    0.000000e+00
   -3.379737e-03    2.381992e-02    0.000000e+00
   -3.339294e-03    2.592572e-02    0.000000e+00
   -3.415920e-03    2.328477e-02    0.000000e+00
   -3.346964e-03    2.435449e-02    0.000000e+00
   -3.359577e-03    2.536565e-02    0.000000e+00
   -3.358706e-03    2.150629e-02    0.000000e+00
   -2.120750e-03    1.407634e-02    0.000000e+00
    4.656171e-04    1.738667e-02    0.000000e+00
    2.899019e-04    1.747316e-02    0.000000e+00
    1.147850e-04    1.735356e-02    0.000000e+00
   -2.952324e-05    1.753454e-02    0.000000e+00
   -1.791046e-04    1.730422e-02    0.000000e+00
   -2.896748e-04    1.725380e-02    0.000000e+00
   -3.974406e-04    1.749929e-02    0.000000e+00
   -5.558393e-04    1.737441e-02    0.000000e+00
   -6.333339e-04    1.742677e-02    0.000000e+00
   -7.660978e-04    1.722363e-02    0.000000e+00
   -8.698247e-04    1.703427e-02    0.000000e+00
    4.388291e-04    1.692143e-02    0.000000e+00
    2.255890e-04    1.692979e-02    0.000000e+00
    7.004931e-05    1.683351e-02    0.000000e+00
   -8.949667e-05    1.675859e-02    0.000000e+00
   -2.156757e-04    1.686466e-02    0.000000e+00
   -3.656641e-04    1.679333e-02    0.000000e+00
   -5.421476e-04    1.671866e-02    0.000000e+00
   -6.653327e-04    1.672959e-02    0.000000e+00
   -8.133610e-04    1.673345e-02    0.000000e+00
   -1.057071e-03    1.646471e-02    0.000000e+00
   -1.281746e-03    1.617820e-02    0.000000e+00
    3.159060e-04    1.620696e-02    0.000000e+00
    1.879960e-04    1.617120e-02    0.000000e+00
    4.385365e-07    1.637794e-02    0.000000e+00
   -1.377086e-04    1.633603e-02    0.000000e+00
   -2.988847e-04    1.620090e-02    0.000000e+00
   -4.334732e-04    1.628406e-02    0.000000e+00
   -5.960247e-04    1.620087e-02    0.000000e+00
   -8.229361e-04    1.612356e-02    0.000000e+00
   -1.047454e-03    1.602488e-02    0.000000e+00
   -1.320982e-03    1.572078e-02    0.000000e+00
   -1.582750e-03    1.547255e-02    0.000000e+00
   -1.860746e-03    1.493701e-02    0.000000e+00
    3.320499e-04    1.583786e-02    0.000000e+00
    9.068858e-05    1.577925e-02    0.000000e+00
   -5.913014e-05    1.569672e-02    0.000000e+00
   -2.129184e-04    1.563598e-02    0.000000e+00
   -3.791926e-04    1.558871e-02    0.000000e+00
   -5.381429e-04    1.555237e-02    0.000000e+00
   -7.948258e-04    1.543551e-02    0.000000e+00
   -1.016160e-03    1.532244e-02    0.000000e+00
   -1.197723e-03    1.535980e-02    0.000000e+00
   -1.474101e-03    1.510231e-02    0.000000e+00
   -1.723952e-03    1.484825e-02    0.000000e+00
   -1.969705e-03    1.441674e-02    0.000000e+00
    1.611066e-04    1.512025e-02    0.000000e+00
    1.696683e-05    1.500208e-02    0.000000e+00
   -1.386326e-04    1.499056e-02    0.000000e+00
   -3.097554e-04    1.487607e-02    0.000000e+00
   -4.929010e-04    1.489818e-02    0.000000e+00
   -6.487442e-04    1.489305e-02    0.000000e+00
   -9.829077e-04    1.470779e-02    0.000000e+00
   -1.177223e-03    1.477085e-02    0.000000e+00
   -1.370392e-03    1.456183e-02    0.000000e+00
   -1.569947e-03    1.442813e-02    0.000000e+00
   -1.803964e-03    1.415963e-02    0.000000e+00
   -1.983019e-03    1.393424e-02    0.000000e+00
   -2.106709e-03    1.374225e-02    0.000000e+00
    1.859008e-04    1.457113e-02    0.000000e+00
   -2.668663e-05    1.460845e-02    0.000000e+00
   -2.250425e-04    1.444817e-02    0.000000e+00
   -3.499760e-04    1.439608e-02    0.000000e+00
   -6.002486e-04    1.442672e-02    0.000000e+00
   -7.553289e-04    1.430233e-02    0.000000e+00
   -9.601571e-04    1.418551e-02    0.000000e+00
   -1.212694e-03    1.414590e-02    0.000000e+00
   -1.415791e-03    1.413923e-02    0.000000e+00
   -1.584676e-03    1.393642e-02    0.000000e+00
   -1.806647e-03    1.368783e-02    0.000000e+00
   -1.977402e-03    1.353701e-02    0.000000e+00
   -2.108080e-03    1.341353e-02    0.000000e+00
    5.031587e-06    1.393147e-02    0.000000e+00
   -1.158310e-04    1.393110e-02    0.000000e+00
   -2.580454e-04    1.390295e-02    0.000000e+00
   -4.087826e-04    1.390392e-02    0.000000e+00
   -6.748434e-04    1.376560e-02    0.000000e+00
   -8.355919e-04    1.356368e-02    0.000000e+00
   -1.034608e-03    1.347040e-02    0.000000e+00
   -1.240957e-03    1.354152e-02    0.000000e+00
   -1.448679e-03    1.357677e-02    0.000000e+00
   -1.593146e-03    1.344275e-02    0.000000e+00
   -1.816770e-03    1.302362e-02    0.000000e+00
   -1.997820e-03    1.300906e-02    0.000000e+00
   -2.104651e-03    1.283506e-02    0.000000e+00
   -4.455743e-05    1.326873e-02    0.000000e+00
   -1.997573e-04    1.318835e-02    0.000000e+00
   -3.354016e-04    1.322397e-02    0.000000e+00
   -4.860833e-04    1.315161e-02    0.000000e+00
   -7.317171e-04    1.309149e-02    0.000000e+00
   -8.801167e-04    1.303641e-02    0.000000e+00
   -1.072465e-03    1.289422e-02    0.000000e+00
   -1.265117e-03    1.294202e-02    0.000000e+00
   -1.473089e-03    1.298331e-02    0.000000e+00
   -1.629098e-03    1.281293e-02    0.000000e+00
   -1.841196e-03    1.264351e-02    0.000000e+00
   -1.959652e-03    1.254534e-02    0.000000e+00
   -2.057558e-03    1.250726e-02    0.000000e+00
   -1.037275e-06    1.291245e-02    0.000000e+00
   -2.541329e-04    1.278336e-02    0.000000e+00
   -3.853600e-04    1.268599e-02    0.000000e+00
   -5.256991e-04    1.268159e-02    0.000000e+00
   -7.693609e-04    1.258226e-02    0.000000e+00
   -9.163300e-04    1.248990e-02    0.000000e+00
   -1.079401e-03    1.244657e-02    0.000000e+00
   -1.263058e-03    1.237308e-02    0.000000e+00
   -1.461918e-03    1.241776e-02    0.000000e+00
   -1.625329e-03    1.211071e-02    0.000000e+00
   -1.838213e-03    1.208594e-02    0.000000e+00
   -1.948404e-03    1.200196e-02    0.000000e+00
   -2.040258e-03    1.198645e-02    0.000000e+00
   -9.717497e-05    1.217097e-02    0.000000e+00
   -2.740175e-04    1.203871e-02    0.000000e+00
   -4.233980e-04    1.204714e-02    0.000000e+00
   -5.726510e-04    1.196187e-02    0.000000e+00
   -8.067506e-04    1.191661e-02    0.000000e+00
   -9.429037e-04    1.189951e-02    0.000000e+00
   -1.092409e-03    1.178953e-02    0.000000e+00
   -1.333811e-03    1.182122e-02    0.000000e+00
   -1.486071e-03    1.172294e-02    0.000000e+00
   -1.642467e-03    1.164382e-02    0.000000e+00
   -1.773933e-03    1.159349e-02    0.000000e+00
   -1.942101e-03    1.142476e-02    0.000000e+00
   -2.117245e-03    1.147986e-02    0.000000e+00
   -7.557493e-05    1.156149e-02    0.000000e+00
   -3.233898e-04    1.159110e-02    0.000000e+00
   -4.573889e-04    1.149435e-02    0.000000e+00
   -5.968678e-04    1.149297e-02    0.000000e+00
   -8.302090e-04    1.140793e-02    0.000000e+00
   -9.700807e-04    1.135422e-02    0.000000e+00
   -1.128355e-03    1.140471e-02    0.000000e+00
   -1.359291e-03    1.113273e-02    0.000000e+00
   -1.501974e-03    1.111779e-02    0.000000e+00
   -1.652747e-03    1.111527e-02    0.000000e+00
   -1.799543e-03    1.107021e-02    0.000000e+00
   -1.937371e-03    1.107015e-02    0.000000e+00
   -2.070526e-03    1.096208e-02    0.000000e+00
   -2.002281e-04    1.091227e-02    0.000000e+00
   -3.337563e-04    1.081391e-02    0.000000e+00
   -4.803481e-04    1.082462e-02    0.000000e+00
   -6.244694e-04    1.075289e-02    0.000000e+00
   -8.550392e-04    1.073528e-02    0.000000e+00
   -9.985664e-04    1.074676e-02    0.000000e+00
   -1.167141e-03    1.072078e-02    0.000000e+00
   -1.333139e-03    1.065713e-02    0.000000e+00
   -1.469874e-03    1.059237e-02    0.000000e+00
   -1.678197e-03    1.051014e-02    0.000000e+00
   -1.795933e-03    1.048970e-02    0.000000e+00
   -1.899578e-03    1.040655e-02    0.000000e+00
   -2.099280e-03    1.033659e-02    0.000000e+00
   -1.244778e-04    1.034203e-02    0.000000e+00
   -3.418420e-04    1.042202e-02    0.000000e+00
   -5.195084e-04    1.028853e-02    0.000000e+00
   -6.341804e-04    1.026211e-02    0.000000e+00
   -8.747975e-04    1.020653e-02    0.000000e+00
   -1.011800e-03    1.016231e-02    0.000000e+00
   -1.180681e-03    1.005768e-02    0.000000e+00
   -1.316729e-03    1.019942e-02    0.000000e+00
   -1.527258e-03    1.003811e-02    0.000000e+00
   -1.661485e-03    1.009523e-02    0.000000e+00
   -1.789663e-03    1.001383e-02    0.000000e+00
   -1.912523e-03    1.005473e-02    0.000000e+00
   -2.037031e-03    1.002153e-02    0.000000e+00
   -2.457503e-04    9.732554e-03    0.000000e+00
   -3.659293e-04    9.754621e-03    0.000000e+00
   -5.011560e-04    9.747474e-03    0.000000e+00
   -6.430837e-04    9.770370e-03    0.000000e+00
   -8.707961e-04    9.690053e-03    0.000000e+00
   -1.008022e-03    9.609780e-03    0.000000e+00
   -1.183028e-03    9.545323e-03    0.000000e+00
   -1.313541e-03    9.479860e-03    0.000000e+00
   -1.525563e-03    9.398620e-03    0.000000e+00
   -1.658312e-03    9.408805e-03    0.000000e+00
   -1.786492e-03    9.382414e-03    0.000000e+00
   -1.920880e-03    9.377727e-03    0.000000e+00
   -2.054903e-03    9.406224e-03    0.000000e+00
   -2.353433e-04    9.072531e-03    0.000000e+00
   -3.812964e-04    9.027554e-03    0.000000e+00
   -5.149338e-04    9.086746e-03    0.000000e+00
   -6.506655e-04    9.039205e-03    0.000000e+00
   -8.714811e-04    9.030435e-03    0.000000e+00
   -1.006217e-03    9.035920e-03    0.000000e+00
   -1.177492e-03    9.002389e-03    0.000000e+00
   -1.302661e-03    8.978249e-03    0.000000e+00
   -1.523033e-03    8.930661e-03    0.000000e+00
   -1.626268e-03    8.905467e-03    0.000000e+00
   -1.774673e-03    8.787314e-03    0.000000e+00
   -1.924772e-03    8.770928e-03    0.000000e+00
   -2.108961e-03    8.845137e-03    0.000000e+00
   -1.649594e-04    8.691182e-03    0.000000e+00
   -4.027829e-04    8.632163e-03    0.000000e+00
   -5.204269e-04    8.562552e-03    0.000000e+00
   -6.520954e-04    8.583681e-03    0.000000e+00
   -8.706038e-04    8.529211e-03    0.000000e+00
   -1.003791e-03    8.476872e-03    0.000000e+00
   -1.177458e-03    8.451750e-03    0.000000e+00
   -1.306851e-03    8.472348e-03    0.000000e+00
   -1.517355e-03    8.470453e-03    0.000000e+00
   -1.645546e-03    8.424764e-03    0.000000e+00
   -1.774701e-03    8.468618e-03    0.000000e+00
   -1.914254e-03    8.449284e-03    0.000000e+00
   -2.021962e-03    8.363851e-03    0.000000e+00
   -2.449438e-04    7.991720e-03    0.000000e+00
   -3.688923e-04    7.883797e-03    0.000000e+00
   -5.121623e-04    7.921774e-03    0.000000e+00
   -6.512317e-04    7.872772e-03    0.000000e+00
   -8.645992e-04    7.897338e-03    0.000000e+00
   -9.977883e-04    7.901646e-03    0.000000e+00
   -1.172588e-03    7.877570e-03    0.000000e+00
   -1.301613e-03    7.827834e-03    0.000000e+00
   -1.513262e-03    7.776499e-03    0.000000e+00
   -1.648278e-03    7.811188e-03    0.000000e+00
   -1.774754e-03    7.807699e-03    0.000000e+00
   -1.905221e-03    7.782693e-03    0.000000e+00
   -2.059844e-03    7.691120e-03    0.000000e+00
   -1.691125e-04    7.328339e-03    0.000000e+00
   -3.580529e-04    7.338001e-03    0.000000e+00
   -5.128895e-04    7.335893e-03    0.000000e+00
   -6.659273e-04    7.343832e-03    0.000000e+00
   -8.325028e-04    7.341718e-03    0.000000e+00
   -9.917183e-04    7.337530e-03    0.000000e+00
   -1.167029e-03    7.324576e-03    0.000000e+00
   -1.296583e-03    7.338772e-03    0.000000e+00
   -1.509404e-03    7.330369e-03    0.000000e+00
   -1.643912e-03    7.264256e-03    0.000000e+00
   -1.769459e-03    7.245539e-03    0.000000e+00
   -1.893729e-03    7.249143e-03    0.000000e+00
   -2.013359e-03    7.296282e-03    0.000000e+00
   -1.636979e-04    6.866975e-03    0.000000e+00
   -3.623801e-04    6.845287e-03    0.000000e+00
   -5.420078e-04    6.827501e-03    0.000000e+00
   -6.497482e-04    6.826096e-03    0.000000e+00
   -8.629403e-04    6.796070e-03    0.000000e+00
   -9.918445e-04    6.795792e-03    0.000000e+00
   -1.163146e-03    6.774516e-03    0.000000e+00
   -1.291563e-03    6.730990e-03    0.000000e+00
   -1.496323e-03    6.652710e-03    0.000000e+00
   -1.633871e-03    6.657267e-03    0.000000e+00
   -1.766927e-03    6.636350e-03    0.000000e+00
   -1.906513e-03    6.644763e-03    0.000000e+00
   -2.046708e-03    6.691394e-03    0.000000e+00
   -1.615899e-04    6.321233e-03    0.000000e+00
   -3.581707e-04    6.410363e-03    0.000000e+00
   -5.111391e-04    6.337746e-03    0.000000e+00
   -6.569105e-04    6.364420e-03    0.000000e+00
   -8.188695e-04    6.201162e-03    0.000000e+00
   -9.895724e-04    6.306048e-03    0.000000e+00
   -1.157381e-03    6.259379e-03    0.000000e+00
   -1.309402e-03    6.207979e-03    0.000000e+00
   -1.466954e-03    6.169770e-03    0.000000e+00
   -1.591825e-03    6.145948e-03    0.000000e+00
   -1.755525e-03    6.039654e-03    0.000000e+00
   -1.913007e-03    6.035646e-03    0.000000e+00
   -2.105619e-03    6.126110e-03    0.000000e+00
   -1.929732e-04    5.757566e-03    0.000000e+00
   -3.584946e-04    5.696615e-03    0.000000e+00
   -5.065239e-04    5.682292e-03    0.000000e+00
   -6.464793e-04    5.686079e-03    0.000000e+00
   -7.939706e-04    5.721143e-03    0.000000e+00
   -1.017292e-03    5.663564e-03    0.000000e+00
   -1.150035e-03    5.599507e-03    0.000000e+00
   -1.306787e-03    5.605566e-03    0.000000e+00
   -1.464621e-03    5.641171e-03    0.000000e+00
   -1.615435e-03    5.648531e-03    0.000000e+00
   -1.755120e-03    5.714588e-03    0.000000e+00
   -1.902444e-03    5.707412e-03    0.000000e+00
   -2.015574e-03    5.628171e-03    0.000000e+00
   -1.689226e-04    4.939325e-03    0.000000e+00
   -3.536310e-04    4.956775e-03    0.000000e+00
   -5.114168e-04    4.985939e-03    0.000000e+00
   -6.517863e-04    5.059402e-03    0.000000e+00
   -7.909172e-04    5.040506e-03    0.000000e+00
   -1.006277e-03    5.063406e-03    0.000000e+00
   -1.140149e-03    5.077144e-03    0.000000e+00
   -1.273012e-03    5.070268e-03    0.000000e+00
   -1.488641e-03    5.026329e-03    0.000000e+00
   -1.625366e-03    5.048757e-03    0.000000e+00
   -1.757760e-03    5.048146e-03    0.000000e+00
   -1.896828e-03    5.029839e-03    0.000000e+00
   -2.062874e-03    4.950643e-03    0.000000e+00
   -1.911936e-04    4.549015e-03    0.000000e+00
   -3.827044e-04    4.595154e-03    0.000000e+00
   -5.167488e-04    4.594741e-03    0.000000e+00
   -6.577726e-04    4.538792e-03    0.000000e+00
   -8.057200e-04    4.597600e-03    0.000000e+00
   -9.709595e-04    4.487481e-03    0.000000e+00
   -1.138617e-03    4.580149e-03    0.000000e+00
   -1.301225e-03    4.501354e-03    0.000000e+00
   -1.465079e-03    4.588619e-03    0.000000e+00
   -1.613603e-03    4.502172e-03    0.000000e+00
   -1.750996e-03    4.477416e-03    0.000000e+00
   -1.890391e-03    4.476293e-03    0.000000e+00
   -2.042964e-03    4.512384e-03    0.000000e+00
   -2.218364e-04    3.963523e-03    0.000000e+00
   -3.464022e-04    3.859862e-03    0.000000e+00
   -5.032251e-04    3.823724e-03    0.000000e+00
   -6.600359e-04    3.826168e-03    0.000000e+00
   -8.036309e-04    3.893560e-03    0.000000e+00
   -9.440536e-04    3.884069e-03    0.000000e+00
   -1.171218e-03    3.935322e-03    0.000000e+00
   -1.301877e-03    3.901983e-03    0.000000e+00
   -1.456592e-03    3.892444e-03    0.000000e+00
   -1.599498e-03    3.863859e-03    0.000000e+00
   -1.746893e-03    3.851917e-03    0.000000e+00
   -1.896432e-03    3.865140e-03    0.000000e+00
   -2.043349e-03    3.910115e-03    0.000000e+00
   -1.231995e-04    3.400222e-03    0.000000e+00
   -3.343985e-04    3.498832e-03    0.000000e+00
   -4.998881e-04    3.489853e-03    0.000000e+00
   -6.628737e-04    3.486133e-03    0.000000e+00
   -8.371001e-04    3.388226e-03    0.000000e+00
   -9.671191e-04    3.384063e-03    0.000000e+00
   -1.135949e-03    3.335958e-03    0.000000e+00
   -1.287753e-03    3.433010e-03    0.000000e+00
   -1.413459e-03    3.291957e-03    0.000000e+00
   -1.590825e-03    3.257330e-03    0.000000e+00
   -1.744627e-03    3.252264e-03    0.000000e+00
   -1.904297e-03    3.258039e-03    0.000000e+00
   -2.103503e-03    3.357196e-03    0.000000e+00
   -2.217362e-04    2.839353e-03    0.000000e+00
   -3.444472e-04    2.860344e-03    0.000000e+00
   -4.963137e-04    2.858439e-03    0.000000e+00
   -6.524752e-04    2.856567e-03    0.000000e+00
   -8.002544e-04    2.855379e-03    0.000000e+00
   -9.635499e-04    2.849916e-03    0.000000e+00
   -1.131839e-03    2.901301e-03    0.000000e+00
   -1.282443e-03    2.764576e-03    0.000000e+00
   -1.432471e-03    2.904336e-03    0.000000e+00
   -1.588715e-03    2.924350e-03    0.000000e+00
   -1.743657e-03    2.927535e-03    0.000000e+00
   -1.895503e-03    2.925291e-03    0.000000e+00
   -2.012018e-03    2.850746e-03    0.000000e+00
   -1.505867e-04    2.127716e-03    0.000000e+00
   -3.276305e-04    2.117352e-03    0.000000e+00
   -4.596292e-04    2.192767e-03    0.000000e+00
   -6.813791e-04    2.150164e-03    0.000000e+00
   -8.098581e-04    2.242050e-03    0.000000e+00
   -9.649791e-04    2.275447e-03    0.000000e+00
   -1.122365e-03    2.274822e-03    0.000000e+00
   -1.275789e-03    2.245201e-03    0.000000e+00
   -1.438965e-03    2.168808e-03    0.000000e+00
   -1.564438e-03    2.238528e-03    0.000000e+00
   -1.776109e-03    2.236771e-03    0.000000e+00
   -1.901564e-03    2.223849e-03    0.000000e+00
   -2.065852e-03    2.164867e-03    0.000000e+00
   -1.641756e-04    1.728804e-03    0.000000e+00
   -3.320809e-04    1.729498e-03    0.000000e+00
   -5.227345e-04    1.679644e-03    0.000000e+00
   -6.617237e-04    1.685157e-03    0.000000e+00
   -8.111492e-04    1.703301e-03    0.000000e+00
   -9.640974e-04    1.716364e-03    0.000000e+00
   -1.118523e-03    1.716192e-03    0.000000e+00
   -1.269474e-03    1.705219e-03    0.000000e+00
   -1.440874e-03    1.687638e-03    0.000000e+00
   -1.589229e-03    1.685967e-03    0.000000e+00
   -1.717375e-03    1.607332e-03    0.000000e+00
   -1.932057e-03    1.689650e-03    0.000000e+00
   -2.054158e-03    1.723657e-03    0.000000e+00
   -1.274601e-04    1.096077e-03    0.000000e+00
   -3.198309e-04    1.048768e-03    0.000000e+00
   -5.140865e-04    1.062398e-03    0.000000e+00
   -6.584415e-04    1.118328e-03    0.000000e+00
   -8.077460e-04    1.148406e-03    0.000000e+00
   -9.611247e-04    1.161117e-03    0.000000e+00
   -1.116174e-03    1.152369e-03    0.000000e+00
   -1.268189e-03    1.159732e-03    0.000000e+00
   -1.440792e-03    1.150963e-03    0.000000e+00
   -1.590125e-03    1.151006e-03    0.000000e+00
   -1.741180e-03    1.153856e-03    0.000000e+00
   -1.902706e-03    1.133036e-03    0.000000e+00
   -2.049811e-03    1.046350e-03    0.000000e+00
   -1.297109e-04    6.228127e-04    0.000000e+00
   -3.088980e-04    5.327199e-04    0.000000e+00
   -4.865009e-04    6.418191e-04    0.000000e+00
   -6.531213e-04    5.138399e-04    0.000000e+00
   -8.127324e-04    5.814437e-04    0.000000e+00
   -9.545782e-04    6.450981e-04    0.000000e+00
   -1.114598e-03    4.461373e-04    0.000000e+00
   -1.272325e-03    6.467688e-04    0.000000e+00
   -1.436630e-03    5.896554e-04    0.000000e+00
   -1.600168e-03    5.983214e-04    0.000000e+00
   -1.745962e-03    6.726313e-04    0.000000e+00
   -1.891588e-03    5.722009e-04    0.000000e+00
   -2.067127e-03    4.793137e-04    0.000000e+00
   -2.183707e-03    1.409515e-02    0.000000e+00
   -6.348635e-04    1.793424e-02    0.000000e+00
   -6.473887e-04    1.793113e-02    0.000000e+00
   -6.580337e-04    1.792730e-02    0.000000e+00
   -2.193721e-03    1.406476e-02    0.000000e+00
   -6.309565e-04    1.793637e-02    0.000000e+00
   -6.388506e-04    1.793299e-02    0.000000e+00
   -6.429970e-04    1.793187e-02    0.000000e+00
   -6.520543e-04    1.792930e-02    0.000000e+00
   -6.649920e-04    1.792424e-02    0.000000e+00
   -6.726801e-04    1.792134e-02    0.000000e+00
   -6.816102e-04    1.791791e-02    0.000000e+00
   -6.923198e-04    1.791413e-02    0.000000e+00
   -7.052413e-04    1.790846e-02    0.000000e+00
   -7.215701e-04    1.789853e-02    0.000000e+00
   -7.406481e-04    1.788238e-02    0.000000e+00
   -7.679350e-04    1.786518e-02    0.000000e+00
   -2.188866e-03    1.408385e-02    0.000000e+00
   -2.190865e-03    1.407810e-02    0.000000e+00
   -2.192462e-03    1.407183e-02    0.000000e+00
   -2.194760e-03    1.405677e-02    0.000000e+00
   -2.195518e-03    1.404765e-02    0.000000e+00
   -2.196339e-03    1.403764e-02    0.000000e+00
   -2.196829e-03    1.402679e-02    0.000000e+00
   -2.197105e-03    1.401506e-02    0.000000e+00
   -2.197394e-03    1.400203e-02    0.000000e+00
   -2.197562e-03    1.398787e-02    0.000000e+00
   -2.197681e-03    1.397246e-02    0.000000e+00
   -2.197687e-03    1.395553e-02    0.000000e+00
   -2.186321e-03    1.408937e-02    0.000000e+00
   -8.958936e-04    1.689867e-02    0.000000e+00
   -1.031682e-03    1.620366e-02    0.000000e+00
   -1.100811e-03    1.594000e-02    0.000000e+00
   -1.431320e-03    1.500837e-02    0.000000e+00
   -8.410269e-04    1.734236e-02    0.000000e+00
   -1.755267e-03    1.442805e-02    0.000000e+00
   -1.615094e-03    1.464480e-02    0.000000e+00
   -1.257841e-03    1.544451e-02    0.000000e+00
   -1.849887e-03    1.431384e-02    0.000000e+00
   -8.578367e-04    1.719086e-02    0.000000e+00
   -2.047866e-03    1.415965e-02    0.000000e+00
   -1.000072e-03    1.633841e-02    0.000000e+00
   -8.280543e-04    1.749530e-02    0.000000e+00
   -1.568755e-03    1.472818e-02    0.000000e+00
   -1.946666e-03    1.422491e-02    0.000000e+00
   -9.433376e-04    1.661516e-02    0.000000e+00
   -1.342757e-03    1.521808e-02    0.000000e+00
   -1.897676e-03    1.426623e-02    0.000000e+00
   -1.522601e-03    1.481673e-02    0.000000e+00
   -2.099045e-03    1.413744e-02    0.000000e+00
   -8.205487e-04    1.764425e-02    0.000000e+00
   -1.299793e-03    1.532919e-02    0.000000e+00
   -1.997361e-03    1.418835e-02    0.000000e+00
   -1.708229e-03    1.449446e-02    0.000000e+00
   -9.706913e-04    1.647532e-02    0.000000e+00
   -1.176773e-03    1.568645e-02    0.000000e+00
   -2.151672e-03    1.412383e-02    0.000000e+00
   -1.661552e-03    1.456676e-02    0.000000e+00
   -1.802442e-03    1.436776e-02    0.000000e+00
   -1.476719e-03    1.491016e-02    0.000000e+00
   -1.386526e-03    1.511095e-02    0.000000e+00
   -1.138036e-03    1.581179e-02    0.000000e+00
   -8.043388e-04    1.782252e-02    0.000000e+00
   -9.182538e-04    1.675589e-02    0.000000e+00
   -1.065327e-03    1.607062e-02    0.000000e+00
   -8.756359e-04    1.704329e-02    0.000000e+00
   -2.195967e-03    1.392188e-02    0.000000e+00
   -6.161917e-04    1.791404e-02    0.000000e+00
   -2.192639e-03    1.388876e-02    0.000000e+00
   -6.100790e-04    1.787720e-02    0.000000e+00
   -2.187071e-03    1.382448e-02    0.000000e+00
   -5.979170e-04    1.782644e-02    0.000000e+00
   -2.185395e-03    1.406660e-02    0.000000e+00
   -2.190310e-03    1.402698e-02    0.000000e+00
   -2.160383e-03    1.410384e-02    0.000000e+00
   -2.180294e-03    1.408111e-02    0.000000e+00
   -2.191323e-03    1.400012e-02    0.000000e+00
   -2.191415e-03    1.396888e-02    0.000000e+00
   -6.357075e-04    1.787494e-02    0.000000e+00
   -6.267695e-04    1.789219e-02    0.000000e+00
   -6.443724e-04    1.786986e-02    0.000000e+00
   -6.489041e-04    1.786849e-02    0.000000e+00
   -6.399648e-04    1.787130e-02    0.000000e+00
   -6.723552e-04    1.785235e-02    0.000000e+00
   -6.803671e-04    1.784582e-02    0.000000e+00
   -6.900898e-04    1.783811e-02    0.000000e+00
   -7.019595e-04    1.782871e-02    0.000000e+00
   -7.163740e-04    1.781360e-02    0.000000e+00
   -2.166637e-03    1.409867e-02    0.000000e+00
   -2.172224e-03    1.409314e-02    0.000000e+00
   -2.176709e-03    1.408735e-02    0.000000e+00
   -2.191474e-03    1.398536e-02    0.000000e+00
   -2.183113e-03    1.407424e-02    0.000000e+00
   -2.187351e-03    1.405814e-02    0.000000e+00
   -2.190797e-03    1.401412e-02    0.000000e+00
   -2.190775e-03    1.394831e-02    0.000000e+00
   -6.234600e-04    1.787040e-02    0.000000e+00
   -1.216730e-03    1.556355e-02    0.000000e+00
   -8.253591e-04    1.730584e-02    0.000000e+00
   -1.506524e-03    1.500462e-02    0.000000e+00
   -8.954339e-04    1.687538e-02    0.000000e+00
   -1.646430e-03    1.471767e-02    0.000000e+00
   -8.041977e-04    1.746005e-02    0.000000e+00
   -1.023686e-03    1.633409e-02    0.000000e+00
   -1.956252e-03    1.424503e-02    0.000000e+00
   -9.880071e-04    1.646693e-02    0.000000e+00
   -1.691706e-03    1.463177e-02    0.000000e+00
   -1.824428e-03    1.440952e-02    0.000000e+00
   -1.186637e-03    1.581448e-02    0.000000e+00
   -1.061656e-03    1.620221e-02    0.000000e+00
   -1.320822e-03    1.544600e-02    0.000000e+00
   -1.366777e-03    1.533092e-02    0.000000e+00
   -8.700095e-04    1.701462e-02    0.000000e+00
   -9.237112e-04    1.673791e-02    0.000000e+00
   -2.048850e-03    1.416564e-02    0.000000e+00
   -1.412999e-03    1.521904e-02    0.000000e+00
   -1.780363e-03    1.447737e-02    0.000000e+00
   -1.143576e-03    1.594223e-02    0.000000e+00
   -1.868029e-03    1.434813e-02    0.000000e+00
   -1.911792e-03    1.429334e-02    0.000000e+00
   -2.003356e-03    1.420320e-02    0.000000e+00
   -1.600303e-03    1.480874e-02    0.000000e+00
   -1.736222e-03    1.455149e-02    0.000000e+00
   -9.545884e-04    1.660177e-02    0.000000e+00
   -1.553555e-03    1.490449e-02    0.000000e+00
   -1.101735e-03    1.607163e-02    0.000000e+00
   -1.459567e-03    1.510991e-02    0.000000e+00
   -8.468432e-04    1.715740e-02    0.000000e+00
   -2.185347e-03    1.392638e-02    0.000000e+00
   -6.224324e-04    1.780803e-02    0.000000e+00
   -2.177566e-03    1.389327e-02    0.000000e+00
   -6.210933e-04    1.773282e-02    0.000000e+00
   -2.173746e-03    1.371400e-02    0.000000e+00
   -5.777978e-04    1.774502e-02    0.000000e+00
   -2.141280e-03    1.411427e-02    0.000000e+00
   -7.151875e-04    1.773632e-02    0.000000e+00
   -2.170993e-03    1.408765e-02    0.000000e+00
   -2.181269e-03    1.405955e-02    0.000000e+00
   -2.174831e-03    1.407971e-02    0.000000e+00
   -6.659786e-04    1.780021e-02    0.000000e+00
   -6.729971e-04    1.778860e-02    0.000000e+00
   -6.811263e-04    1.777762e-02    0.000000e+00
   -6.905554e-04    1.776600e-02    0.000000e+00
   -7.016826e-04    1.775206e-02    0.000000e+00
   -2.160194e-03    1.410122e-02    0.000000e+00
   -2.166260e-03    1.409472e-02    0.000000e+00
   -2.178120e-03    1.407013e-02    0.000000e+00
   -2.151794e-03    1.410793e-02    0.000000e+00
   -7.294786e-04    1.771530e-02    0.000000e+00
   -6.318653e-04    1.782961e-02    0.000000e+00
   -6.376972e-04    1.781501e-02    0.000000e+00
   -6.558298e-04    1.780808e-02    0.000000e+00
   -2.185290e-03    1.398688e-02    0.000000e+00
   -6.429153e-04    1.780867e-02    0.000000e+00
   -2.184595e-03    1.401616e-02    0.000000e+00
   -2.183659e-03    1.403994e-02    0.000000e+00
   -6.520824e-04    1.780657e-02    0.000000e+00
   -6.476242e-04    1.780641e-02    0.000000e+00
   -2.183951e-03    1.402931e-02    0.000000e+00
   -1.275364e-03    1.556534e-02    0.000000e+00
   -1.230573e-03    1.568850e-02    0.000000e+00
   -2.120629e-03    1.412505e-02    0.000000e+00
   -8.186197e-04    1.725869e-02    0.000000e+00
   -2.003619e-03    1.422379e-02    0.000000e+00
   -9.019091e-04    1.685002e-02    0.000000e+00
   -8.713704e-04    1.698437e-02    0.000000e+00
   -8.437121e-04    1.712039e-02    0.000000e+00
   -9.354594e-04    1.671709e-02    0.000000e+00
   -1.924199e-03    1.432563e-02    0.000000e+00
   -1.884010e-03    1.438719e-02    0.000000e+00
   -1.963988e-03    1.427134e-02    0.000000e+00
   -1.843396e-03    1.445543e-02    0.000000e+00
   -1.802261e-03    1.453034e-02    0.000000e+00
   -9.716619e-04    1.658552e-02    0.000000e+00
   -1.760277e-03    1.461186e-02    0.000000e+00
   -1.716805e-03    1.469970e-02    0.000000e+00
   -1.010490e-03    1.645472e-02    0.000000e+00
   -1.671535e-03    1.479315e-02    0.000000e+00
   -1.624634e-03    1.489118e-02    0.000000e+00
   -1.576622e-03    1.499343e-02    0.000000e+00
   -1.432162e-03    1.532796e-02    0.000000e+00
   -1.382499e-03    1.544270e-02    0.000000e+00
   -1.528375e-03    1.510082e-02    0.000000e+00
   -1.480676e-03    1.521398e-02    0.000000e+00
   -1.051963e-03    1.632500e-02    0.000000e+00
   -1.095757e-03    1.619490e-02    0.000000e+00
   -1.188685e-03    1.593562e-02    0.000000e+00
   -1.141610e-03    1.606528e-02    0.000000e+00
   -2.152236e-03    1.411290e-02    0.000000e+00
   -7.709896e-04    1.767295e-02    0.000000e+00
   -2.180166e-03    1.396229e-02    0.000000e+00
   -6.333834e-04    1.776989e-02    0.000000e+00
   -2.172026e-03    1.394909e-02    0.000000e+00
   -6.379969e-04    1.768962e-02    0.000000e+00
   -2.163502e-03    1.384345e-02    0.000000e+00
   -6.218950e-04    1.762278e-02    0.000000e+00
   -7.597922e-04    1.760204e-02    0.000000e+00
   -2.168184e-03    1.408725e-02    0.000000e+00
   -2.157171e-03    1.410548e-02    0.000000e+00
   -6.935621e-04    1.769627e-02    0.000000e+00
   -2.139527e-03    1.412149e-02    0.000000e+00
   -6.837951e-04    1.771433e-02    0.000000e+00
   -7.043213e-04    1.767762e-02    0.000000e+00
   -2.125008e-03    1.413038e-02    0.000000e+00
   -2.149766e-03    1.411339e-02    0.000000e+00
   -2.163042e-03    1.409704e-02    0.000000e+00
   -7.174748e-04    1.765519e-02    0.000000e+00
   -6.417850e-04    1.775015e-02    0.000000e+00
   -6.580810e-04    1.774076e-02    0.000000e+00
   -2.178422e-03    1.402033e-02    0.000000e+00
   -6.481645e-04    1.774223e-02    0.000000e+00
   -6.534028e-04    1.773969e-02    0.000000e+00
   -2.177558e-03    1.403608e-02    0.000000e+00
   -2.099424e-03    1.414198e-02    0.000000e+00
   -1.333051e-03    1.555974e-02    0.000000e+00
   -1.236569e-03    1.580705e-02    0.000000e+00
   -1.037049e-03    1.643895e-02    0.000000e+00
   -1.083746e-03    1.631080e-02    0.000000e+00
   -9.141009e-04    1.682339e-02    0.000000e+00
   -9.521020e-04    1.669452e-02    0.000000e+00
   -9.930445e-04    1.656665e-02    0.000000e+00
   -8.469296e-04    1.708407e-02    0.000000e+00
   -8.788658e-04    1.695310e-02    0.000000e+00
   -1.898033e-03    1.442966e-02    0.000000e+00
   -1.935311e-03    1.436191e-02    0.000000e+00
   -1.971775e-03    1.430126e-02    0.000000e+00
   -8.185814e-04    1.721532e-02    0.000000e+00
   -1.860219e-03    1.450406e-02    0.000000e+00
   -1.780134e-03    1.467458e-02    0.000000e+00
   -1.444078e-03    1.543723e-02    0.000000e+00
   -1.497386e-03    1.531957e-02    0.000000e+00
   -7.746968e-04    1.745563e-02    0.000000e+00
   -2.007080e-03    1.424929e-02    0.000000e+00
   -1.821181e-03    1.458567e-02    0.000000e+00
   -1.544578e-03    1.519786e-02    0.000000e+00
   -1.592475e-03    1.508424e-02    0.000000e+00
   -1.736472e-03    1.477003e-02    0.000000e+00
   -1.641834e-03    1.497564e-02    0.000000e+00
   -1.690207e-03    1.487083e-02    0.000000e+00
   -1.183908e-03    1.605081e-02    0.000000e+00
   -1.132991e-03    1.618131e-02    0.000000e+00
   -1.284706e-03    1.568136e-02    0.000000e+00
   -2.176851e-03    1.399394e-02    0.000000e+00
   -2.168665e-03    1.399133e-02    0.000000e+00
   -6.491074e-04    1.767293e-02    0.000000e+00
   -2.158597e-03    1.393502e-02    0.000000e+00
   -6.483256e-04    1.758135e-02    0.000000e+00
   -2.138062e-03    1.378018e-02    0.000000e+00
   -6.565781e-04    1.766789e-02    0.000000e+00
   -6.748189e-04    1.769058e-02    0.000000e+00
   -2.169669e-03    1.407238e-02    0.000000e+00
   -2.169459e-03    1.405996e-02    0.000000e+00
   -7.373517e-04    1.754288e-02    0.000000e+00
   -7.226588e-04    1.757561e-02    0.000000e+00
   -6.874771e-04    1.765636e-02    0.000000e+00
   -2.141181e-03    1.412820e-02    0.000000e+00
   -6.985181e-04    1.763074e-02    0.000000e+00
   -7.100824e-04    1.760308e-02    0.000000e+00
   -2.129695e-03    1.413888e-02    0.000000e+00
   -2.149337e-03    1.411892e-02    0.000000e+00
   -2.113464e-03    1.415078e-02    0.000000e+00
   -2.163222e-03    1.409257e-02    0.000000e+00
   -2.156764e-03    1.410739e-02    0.000000e+00
   -6.707791e-04    1.767502e-02    0.000000e+00
   -6.666998e-04    1.766992e-02    0.000000e+00
   -6.621148e-04    1.766759e-02    0.000000e+00
   -2.172917e-03    1.402216e-02    0.000000e+00
   -2.170817e-03    1.404330e-02    0.000000e+00
   -1.388807e-03    1.554903e-02    0.000000e+00
   -1.235616e-03    1.591975e-02    0.000000e+00
   -1.017882e-03    1.654560e-02    0.000000e+00
   -1.066538e-03    1.641981e-02    0.000000e+00
   -1.836835e-03    1.464262e-02    0.000000e+00
   -1.945343e-03    1.440082e-02    0.000000e+00
   -1.600437e-03    1.517111e-02    0.000000e+00
   -1.910760e-03    1.447372e-02    0.000000e+00
   -1.287168e-03    1.579064e-02    0.000000e+00
   -9.724863e-04    1.667045e-02    0.000000e+00
   -1.651585e-03    1.506019e-02    0.000000e+00
   -8.910196e-04    1.692131e-02    0.000000e+00
   -8.548086e-04    1.704923e-02    0.000000e+00
   -9.301446e-04    1.679540e-02    0.000000e+00
   -8.222073e-04    1.717791e-02    0.000000e+00
   -1.979403e-03    1.433431e-02    0.000000e+00
   -2.067472e-03    1.418909e-02    0.000000e+00
   -1.874945e-03    1.455405e-02    0.000000e+00
   -2.012824e-03    1.427466e-02    0.000000e+00
   -7.941251e-04    1.730386e-02    0.000000e+00
   -1.338228e-03    1.566676e-02    0.000000e+00
   -1.702039e-03    1.495017e-02    0.000000e+00
   -1.795369e-03    1.473918e-02    0.000000e+00
   -1.750264e-03    1.484236e-02    0.000000e+00
   -1.118351e-03    1.629156e-02    0.000000e+00
   -1.172655e-03    1.616025e-02    0.000000e+00
   -2.157459e-03    1.399338e-02    0.000000e+00
   -6.623575e-04    1.757505e-02    0.000000e+00
   -2.133724e-03    1.392938e-02    0.000000e+00
   -2.101044e-03    1.389126e-02    0.000000e+00
   -6.716907e-04    1.742282e-02    0.000000e+00
   -2.158645e-03    1.409966e-02    0.000000e+00
   -6.941336e-04    1.759537e-02    0.000000e+00
   -2.159806e-03    1.408967e-02    0.000000e+00
   -6.869398e-04    1.760417e-02    0.000000e+00
   -2.133675e-03    1.414631e-02    0.000000e+00
   -2.143356e-03    1.413391e-02    0.000000e+00
   -7.471399e-04    1.745954e-02    0.000000e+00
   -7.324931e-04    1.749554e-02    0.000000e+00
   -7.185509e-04    1.753385e-02    0.000000e+00
   -7.049012e-04    1.757104e-02    0.000000e+00
   -2.151647e-03    1.411789e-02    0.000000e+00
   -6.830652e-04    1.759868e-02    0.000000e+00
   -2.161591e-03    1.407334e-02    0.000000e+00
   -6.792923e-04    1.759320e-02    0.000000e+00
   -2.163711e-03    1.405154e-02    0.000000e+00
   -1.436994e-03    1.553603e-02    0.000000e+00
   -1.228184e-03    1.602716e-02    0.000000e+00
   -9.954131e-04    1.664517e-02    0.000000e+00
   -1.921935e-03    1.451813e-02    0.000000e+00
   -1.044867e-03    1.652269e-02    0.000000e+00
   -1.283437e-03    1.589484e-02    0.000000e+00
   -1.654404e-03    1.514481e-02    0.000000e+00
   -1.954462e-03    1.444034e-02    0.000000e+00
   -9.494415e-04    1.676685e-02    0.000000e+00
   -1.887208e-03    1.460448e-02    0.000000e+00
   -1.986144e-03    1.436950e-02    0.000000e+00
   -1.337393e-03    1.576645e-02    0.000000e+00
   -1.389963e-03    1.564473e-02    0.000000e+00
   -8.657991e-04    1.701665e-02    0.000000e+00
   -9.061939e-04    1.689063e-02    0.000000e+00
   -1.604436e-03    1.525130e-02    0.000000e+00
   -8.295650e-04    1.714196e-02    0.000000e+00
   -2.017654e-03    1.430505e-02    0.000000e+00
   -7.977745e-04    1.726488e-02    0.000000e+00
   -2.080831e-03    1.419279e-02    0.000000e+00
   -2.049120e-03    1.424719e-02    0.000000e+00
   -7.672149e-04    1.740149e-02    0.000000e+00
   -1.707013e-03    1.503114e-02    0.000000e+00
   -1.848576e-03    1.470071e-02    0.000000e+00
   -1.098245e-03    1.639654e-02    0.000000e+00
   -2.166254e-03    1.402428e-02    0.000000e+00
   -1.757923e-03    1.491688e-02    0.000000e+00
   -1.805404e-03    1.480568e-02    0.000000e+00
   -1.155265e-03    1.626534e-02    0.000000e+00
   -6.699915e-04    1.758059e-02    0.000000e+00
   -2.157050e-03    1.403102e-02    0.000000e+00
   -6.751561e-04    1.758702e-02    0.000000e+00
   -2.139348e-03    1.401190e-02    0.000000e+00
   -6.868261e-04    1.744482e-02    0.000000e+00
   -2.055438e-03    1.384976e-02    0.000000e+00
   -7.220818e-04    1.719777e-02    0.000000e+00
   -2.095433e-03    1.403269e-02    0.000000e+00
   -7.034633e-04    1.753942e-02    0.000000e+00
   -7.135187e-04    1.751407e-02    0.000000e+00
   -2.147632e-03    1.412645e-02    0.000000e+00
   -2.150377e-03    1.411027e-02    0.000000e+00
   -2.138144e-03    1.414938e-02    0.000000e+00
   -7.237663e-04    1.749152e-02    0.000000e+00
   -2.128387e-03    1.416498e-02    0.000000e+00
   -7.591761e-04    1.738746e-02    0.000000e+00
   -2.106203e-03    1.418561e-02    0.000000e+00
   -7.019993e-04    1.752744e-02    0.000000e+00
   -6.994745e-04    1.751850e-02    0.000000e+00
   -2.152934e-03    1.408866e-02    0.000000e+00
   -2.155572e-03    1.406126e-02    0.000000e+00
   -1.962671e-03    1.447897e-02    0.000000e+00
   -1.931488e-03    1.456152e-02    0.000000e+00
   -1.019690e-03    1.661979e-02    0.000000e+00
   -9.701845e-04    1.673945e-02    0.000000e+00
   -9.237491e-04    1.685964e-02    0.000000e+00
   -1.442744e-03    1.560955e-02    0.000000e+00
   -1.992363e-03    1.440481e-02    0.000000e+00
   -1.647517e-03    1.523113e-02    0.000000e+00
   -1.589289e-03    1.533866e-02    0.000000e+00
   -1.386524e-03    1.573475e-02    0.000000e+00
   -1.214497e-03    1.613008e-02    0.000000e+00
   -1.331798e-03    1.586110e-02    0.000000e+00
   -8.797197e-04    1.698379e-02    0.000000e+00
   -2.021522e-03    1.433755e-02    0.000000e+00
   -8.375414e-04    1.711459e-02    0.000000e+00
   -8.074531e-04    1.721989e-02    0.000000e+00
   -2.050379e-03    1.427664e-02    0.000000e+00
   -1.703872e-03    1.511452e-02    0.000000e+00
   -1.273884e-03    1.599413e-02    0.000000e+00
   -1.073355e-03    1.649701e-02    0.000000e+00
   -1.896276e-03    1.465520e-02    0.000000e+00
   -1.758399e-03    1.499397e-02    0.000000e+00
   -1.132029e-03    1.636659e-02    0.000000e+00
   -1.855602e-03    1.476030e-02    0.000000e+00
   -1.809350e-03    1.487441e-02    0.000000e+00
   -6.967264e-04    1.750845e-02    0.000000e+00
   -6.940028e-04    1.749531e-02    0.000000e+00
   -2.081303e-03    1.421890e-02    0.000000e+00
   -7.775634e-04    1.732890e-02    0.000000e+00
   -6.911966e-04    1.747482e-02    0.000000e+00
   -2.144978e-03    1.404843e-02    0.000000e+00
   -2.118870e-03    1.403598e-02    0.000000e+00
   -7.365917e-04    1.725587e-02    0.000000e+00
   -2.054444e-03    1.403353e-02    0.000000e+00
   -7.060020e-04    1.710062e-02    0.000000e+00
   -2.082616e-03    1.362779e-02    0.000000e+00
   -2.131734e-03    1.416888e-02    0.000000e+00
   -7.378941e-04    1.742684e-02    0.000000e+00
   -7.247601e-04    1.745422e-02    0.000000e+00
   -2.122983e-03    1.418492e-02    0.000000e+00
   -2.111366e-03    1.420018e-02    0.000000e+00
   -7.502746e-04    1.740253e-02    0.000000e+00
   -2.139668e-03    1.413439e-02    0.000000e+00
   -7.227240e-04    1.744247e-02    0.000000e+00
   -1.513344e-03    1.543778e-02    0.000000e+00
   -1.969876e-03    1.451524e-02    0.000000e+00
   -1.998330e-03    1.443795e-02    0.000000e+00
   -9.910457e-04    1.671410e-02    0.000000e+00
   -9.414819e-04    1.683213e-02    0.000000e+00
   -1.427471e-03    1.570360e-02    0.000000e+00
   -8.963187e-04    1.694794e-02    0.000000e+00
   -2.026540e-03    1.436788e-02    0.000000e+00
   -1.629129e-03    1.532874e-02    0.000000e+00
   -7.199105e-04    1.741531e-02    0.000000e+00
   -1.379805e-03    1.581716e-02    0.000000e+00
   -8.530124e-04    1.707071e-02    0.000000e+00
   -1.044369e-03    1.659373e-02    0.000000e+00
   -7.211654e-04    1.743021e-02    0.000000e+00
   -1.938518e-03    1.460392e-02    0.000000e+00
   -1.691243e-03    1.520387e-02    0.000000e+00
   -2.052182e-03    1.430677e-02    0.000000e+00
   -1.321299e-03    1.595055e-02    0.000000e+00
   -1.194525e-03    1.622971e-02    0.000000e+00
   -1.750785e-03    1.507530e-02    0.000000e+00
   -1.258415e-03    1.608977e-02    0.000000e+00
   -1.103575e-03    1.646526e-02    0.000000e+00
   -1.901203e-03    1.470663e-02    0.000000e+00
   -1.806577e-03    1.494648e-02    0.000000e+00
   -1.856997e-03    1.482202e-02    0.000000e+00
   -1.563699e-03    1.545077e-02    0.000000e+00
   -2.136943e-03    1.415304e-02    0.000000e+00
   -2.095695e-03    1.413619e-02    0.000000e+00
   -2.143112e-03    1.410486e-02    0.000000e+00
   -2.147000e-03    1.407055e-02    0.000000e+00
   -7.195065e-04    1.739357e-02    0.000000e+00
   -7.232465e-04    1.735019e-02    0.000000e+00
   -2.131108e-03    1.407545e-02    0.000000e+00
   -2.047629e-03    1.420362e-02    0.000000e+00
   -6.205975e-04    1.730119e-02    0.000000e+00
   -8.050668e-04    1.692812e-02    0.000000e+00
   -8.001686e-04    1.704201e-02    0.000000e+00
   -2.117988e-03    1.420411e-02    0.000000e+00
   -2.106507e-03    1.422417e-02    0.000000e+00
   -7.681891e-04    1.732556e-02    0.000000e+00
   -2.092619e-03    1.423936e-02    0.000000e+00
   -7.495300e-04    1.736154e-02    0.000000e+00
   -7.991045e-04    1.723949e-02    0.000000e+00
   -7.479214e-04    1.733685e-02    0.000000e+00
   -2.075310e-03    1.425454e-02    0.000000e+00
   -2.003785e-03    1.446639e-02    0.000000e+00
   -2.121666e-03    1.419902e-02    0.000000e+00
   -7.469856e-04    1.735537e-02    0.000000e+00
   -2.029665e-03    1.439673e-02    0.000000e+00
   -9.588654e-04    1.680753e-02    0.000000e+00
   -9.099698e-04    1.692461e-02    0.000000e+00
   -1.011953e-03    1.668813e-02    0.000000e+00
   -1.975950e-03    1.454808e-02    0.000000e+00
   -8.732629e-04    1.701884e-02    0.000000e+00
   -1.431536e-03    1.575314e-02    0.000000e+00
   -2.058050e-03    1.432849e-02    0.000000e+00
   -8.401130e-04    1.711306e-02    0.000000e+00
   -1.668416e-03    1.530341e-02    0.000000e+00
   -1.370680e-03    1.589368e-02    0.000000e+00
   -1.489464e-03    1.560056e-02    0.000000e+00
   -2.124578e-03    1.418705e-02    0.000000e+00
   -1.168446e-03    1.632747e-02    0.000000e+00
   -1.070803e-03    1.656168e-02    0.000000e+00
   -1.304882e-03    1.603793e-02    0.000000e+00
   -7.469198e-04    1.730023e-02    0.000000e+00
   -1.734113e-03    1.516360e-02    0.000000e+00
   -1.942297e-03    1.464559e-02    0.000000e+00
   -7.491088e-04    1.731431e-02    0.000000e+00
   -1.236450e-03    1.618367e-02    0.000000e+00
   -1.796011e-03    1.502334e-02    0.000000e+00
   -1.901079e-03    1.475973e-02    0.000000e+00
   -1.600342e-03    1.543931e-02    0.000000e+00
   -1.852072e-03    1.488718e-02    0.000000e+00
   -2.115191e-03    1.413308e-02    0.000000e+00
   -7.562530e-04    1.735348e-02    0.000000e+00
   -2.125080e-03    1.416806e-02    0.000000e+00
   -2.132491e-03    1.411117e-02    0.000000e+00
   -8.052943e-04    1.709334e-02    0.000000e+00
   -2.061408e-03    1.427118e-02    0.000000e+00
   -1.995954e-03    1.420987e-02    0.000000e+00
   -9.361710e-04    1.662675e-02    0.000000e+00
   -7.809368e-04    1.729211e-02    0.000000e+00
   -2.102243e-03    1.425056e-02    0.000000e+00
   -2.085697e-03    1.427357e-02    0.000000e+00
   -7.714666e-04    1.727733e-02    0.000000e+00
   -7.811292e-04    1.727174e-02    0.000000e+00
   -2.031776e-03    1.441908e-02    0.000000e+00
   -7.762244e-04    1.727530e-02    0.000000e+00
   -2.008909e-03    1.448917e-02    0.000000e+00
   -2.107320e-03    1.424311e-02    0.000000e+00
   -7.861073e-04    1.726533e-02    0.000000e+00
   -9.770220e-04    1.678049e-02    0.000000e+00
   -1.423245e-03    1.582411e-02    0.000000e+00
   -7.810619e-04    1.721166e-02    0.000000e+00
   -1.034635e-03    1.665615e-02    0.000000e+00
   -1.136549e-03    1.642443e-02    0.000000e+00
   -1.354028e-03    1.597424e-02    0.000000e+00
   -1.540794e-03    1.555016e-02    0.000000e+00
   -1.979429e-03    1.457842e-02    0.000000e+00
   -1.707390e-03    1.526167e-02    0.000000e+00
   -1.281044e-03    1.612742e-02    0.000000e+00
   -1.633969e-03    1.541618e-02    0.000000e+00
   -9.238612e-04    1.690164e-02    0.000000e+00
   -1.207473e-03    1.627856e-02    0.000000e+00
   -1.776560e-03    1.510783e-02    0.000000e+00
   -1.941988e-03    1.468762e-02    0.000000e+00
   -1.840045e-03    1.495717e-02    0.000000e+00
   -1.895553e-03    1.481522e-02    0.000000e+00
   -2.108264e-03    1.423382e-02    0.000000e+00
   -1.487831e-03    1.567733e-02    0.000000e+00
   -2.111271e-03    1.418675e-02    0.000000e+00
   -8.087230e-04    1.712104e-02    0.000000e+00
   -2.091018e-03    1.421955e-02    0.000000e+00
   -8.700469e-04    1.691664e-02    0.000000e+00
   -2.008147e-03    1.404131e-02    0.000000e+00
   -1.926974e-03    1.437902e-02    0.000000e+00
   -9.851352e-04    1.635734e-02    0.000000e+00
   -8.498008e-04    1.709040e-02    0.000000e+00
   -8.119162e-04    1.719365e-02    0.000000e+00
   -2.073174e-03    1.432281e-02    0.000000e+00
   -8.123067e-04    1.718163e-02    0.000000e+00
   -8.200066e-04    1.716812e-02    0.000000e+00
   -8.046913e-04    1.719030e-02    0.000000e+00
   -2.037023e-03    1.443026e-02    0.000000e+00
   -2.051785e-03    1.438101e-02    0.000000e+00
   -1.552915e-03    1.557853e-02    0.000000e+00
   -9.950332e-04    1.675136e-02    0.000000e+00
   -2.012753e-03    1.450689e-02    0.000000e+00
   -1.099455e-03    1.652157e-02    0.000000e+00
   -1.405322e-03    1.589911e-02    0.000000e+00
   -9.401094e-04    1.687199e-02    0.000000e+00
   -8.909903e-04    1.698677e-02    0.000000e+00
   -1.327798e-03    1.606114e-02    0.000000e+00
   -2.085689e-03    1.430499e-02    0.000000e+00
   -1.669611e-03    1.537049e-02    0.000000e+00
   -2.089930e-03    1.429604e-02    0.000000e+00
   -1.979979e-03    1.460616e-02    0.000000e+00
   -8.354698e-04    1.708084e-02    0.000000e+00
   -1.745390e-03    1.520359e-02    0.000000e+00
   -1.170765e-03    1.637705e-02    0.000000e+00
   -1.247348e-03    1.622393e-02    0.000000e+00
   -1.476744e-03    1.574520e-02    0.000000e+00
   -1.937746e-03    1.472746e-02    0.000000e+00
   -1.817819e-03    1.503572e-02    0.000000e+00
   -1.883834e-03    1.487258e-02    0.000000e+00
   -7.873752e-04    1.721917e-02    0.000000e+00
   -2.105071e-03    1.422899e-02    0.000000e+00
   -8.601062e-04    1.698903e-02    0.000000e+00
   -2.062504e-03    1.432720e-02    0.000000e+00
   -8.721561e-04    1.684715e-02    0.000000e+00
   -1.935673e-03    1.419081e-02    0.000000e+00
   -1.865883e-03    1.460969e-02    0.000000e+00
   -1.091263e-03    1.628914e-02    0.000000e+00
   -8.822496e-04    1.639919e-02    0.000000e+00
   -8.447550e-04    1.710053e-02    0.000000e+00
   -2.061165e-03    1.437055e-02    0.000000e+00
   -8.573479e-04    1.706242e-02    0.000000e+00
   -2.042150e-03    1.443357e-02    0.000000e+00
   -9.524021e-04    1.684872e-02    0.000000e+00
   -1.522771e-03    1.567254e-02    0.000000e+00
   -1.057196e-03    1.662139e-02    0.000000e+00
   -8.634035e-04    1.705604e-02    0.000000e+00
   -9.043175e-04    1.695757e-02    0.000000e+00
   -2.067774e-03    1.436245e-02    0.000000e+00
   -1.378990e-03    1.597567e-02    0.000000e+00
   -2.015076e-03    1.451772e-02    0.000000e+00
   -1.458598e-03    1.581167e-02    0.000000e+00
   -1.589959e-03    1.553757e-02    0.000000e+00
   -1.126423e-03    1.648092e-02    0.000000e+00
   -1.288836e-03    1.616073e-02    0.000000e+00
   -1.702220e-03    1.531028e-02    0.000000e+00
   -8.326438e-04    1.710988e-02    0.000000e+00
   -1.201203e-03    1.633193e-02    0.000000e+00
   -1.978254e-03    1.462556e-02    0.000000e+00
   -1.779777e-03    1.513286e-02    0.000000e+00
   -2.087863e-03    1.429313e-02    0.000000e+00
   -9.386797e-04    1.680362e-02    0.000000e+00
   -2.029791e-03    1.439838e-02    0.000000e+00
   -1.929578e-03    1.475936e-02    0.000000e+00
   -9.106671e-04    1.690342e-02    0.000000e+00
   -1.900135e-03    1.467256e-02    0.000000e+00
   -1.845923e-03    1.447239e-02    0.000000e+00
   -1.901987e-03    1.402846e-02    0.000000e+00
   -1.155769e-03    1.602378e-02    0.000000e+00
   -1.010064e-03    1.672483e-02    0.000000e+00
   -9.091276e-04    1.694503e-02    0.000000e+00
   -8.832746e-04    1.698745e-02    0.000000e+00
   -1.526671e-03    1.568530e-02    0.000000e+00
   -8.754773e-04    1.702538e-02    0.000000e+00
   -2.071070e-03    1.435264e-02    0.000000e+00
   -2.087689e-03    1.427242e-02    0.000000e+00
   -1.076512e-03    1.658764e-02    0.000000e+00
   -1.431559e-03    1.587983e-02    0.000000e+00
   -1.353657e-03    1.603545e-02    0.000000e+00
   -1.620183e-03    1.548979e-02    0.000000e+00
   -2.016847e-03    1.451460e-02    0.000000e+00
   -2.046690e-03    1.442756e-02    0.000000e+00
   -1.149579e-03    1.644048e-02    0.000000e+00
   -1.730863e-03    1.523408e-02    0.000000e+00
   -1.921854e-03    1.476417e-02    0.000000e+00
   -1.800624e-03    1.506955e-02    0.000000e+00
   -1.974643e-03    1.462975e-02    0.000000e+00
   -2.035419e-03    1.442281e-02    0.000000e+00
   -2.020420e-03    1.436272e-02    0.000000e+00
   -9.533500e-04    1.670875e-02    0.000000e+00
   -9.982360e-04    1.671497e-02    0.000000e+00
   -1.800717e-03    1.486169e-02    0.000000e+00
   -1.978001e-03    1.452533e-02    0.000000e+00
   -1.846540e-03    1.427592e-02    0.000000e+00
   -1.953595e-03    1.380195e-02    0.000000e+00
   -6.620996e-04    1.700556e-02    0.000000e+00
   -5.601581e-04    1.759326e-02    0.000000e+00
   -2.142207e-03    1.358742e-02    0.000000e+00
   -2.020126e-03    1.370575e-02    0.000000e+00
   -9.600929e-04    1.683068e-02    0.000000e+00
   -2.055944e-03    1.438781e-02    0.000000e+00
   -1.021554e-03    1.669868e-02    0.000000e+00
   -1.475881e-03    1.578960e-02    0.000000e+00
   -9.590122e-04    1.682193e-02    0.000000e+00
   -1.093899e-03    1.654893e-02    0.000000e+00
   -1.382782e-03    1.597649e-02    0.000000e+00
   -1.853801e-03    1.491978e-02    0.000000e+00
   -1.647499e-03    1.542315e-02    0.000000e+00
   -9.130964e-04    1.693073e-02    0.000000e+00
   -2.012406e-03    1.450836e-02    0.000000e+00
   -1.764310e-03    1.511446e-02    0.000000e+00
   -1.220044e-03    1.630033e-02    0.000000e+00
   -1.971188e-03    1.460858e-02    0.000000e+00
   -1.050936e-03    1.656484e-02    0.000000e+00
   -1.562667e-03    1.560859e-02    0.000000e+00
   -1.914746e-03    1.473069e-02    0.000000e+00
   -1.834328e-03    1.489681e-02    0.000000e+00
   -1.731787e-03    1.452856e-02    0.000000e+00
   -2.007330e-03    1.449303e-02    0.000000e+00
   -1.176871e-03    1.638213e-02    0.000000e+00
   -1.505449e-03    1.571293e-02    0.000000e+00
   -1.034910e-03    1.666121e-02    0.000000e+00
   -1.668284e-03    1.534371e-02    0.000000e+00
   -1.576053e-03    1.555256e-02    0.000000e+00
   -1.318976e-03    1.608549e-02    0.000000e+00
   -1.421087e-03    1.588206e-02    0.000000e+00
   -1.102749e-03    1.651230e-02    0.000000e+00
   -1.158914e-03    1.632215e-02    0.000000e+00
   -1.742461e-03    1.507391e-02    0.000000e+00
   -1.472985e-03    1.573908e-02    0.000000e+00
   -1.213796e-03    1.629268e-02    0.000000e+00
   -1.154278e-03    1.638000e-02    0.000000e+00
   -1.168122e-03    1.623126e-02    0.000000e+00
   -1.355053e-03    1.597729e-02    0.000000e+00
   -1.683131e-03    1.525351e-02    0.000000e+00
   -1.246839e-03    1.619236e-02    0.000000e+00
   -1.646331e-03    1.525460e-02    0.000000e+00
   -1.457386e-03    1.568874e-02    0.000000e+00
   -1.276319e-03    1.607003e-02    0.000000e+00
   -1.532244e-03    1.546391e-02    0.000000e+00
   -1.384045e-03    1.587135e-02    0.000000e+00
   -1.706934e-03    1.504966e-02    0.000000e+00
   -1.254073e-03    1.599264e-02    0.000000e+00
   -1.401067e-03    1.570070e-02    0.000000e+00
   -1.611438e-03    1.520377e-02    0.000000e+00
   -1.472567e-03    1.544863e-02    0.000000e+00
   -1.355392e-03    1.586832e-02    0.000000e+00
   -1.552124e-03    1.515461e-02    0.000000e+00
   -1.396907e-03    1.542583e-02    0.000000e+00
   -1.310955e-03    1.538774e-02    0.000000e+00
   -7.601099e-04    1.666125e-02    0.000000e+00
   -1.613459e-03    1.487236e-02    0.000000e+00
   -1.682558e-03    1.432138e-02    0.000000e+00
   -1.233238e-03    1.571407e-02    0.000000e+00
   -1.383930e-03    1.503111e-02    0.000000e+00
   -1.875405e-03    1.380637e-02    0.000000e+00
   -5.539979e-04    1.709997e-02    0.000000e+00
   -9.112619e-04    1.615838e-02    0.000000e+00
   -2.049369e-03    1.350192e-02    0.000000e+00
   -1.811162e-03    3.038394e-04    0.000000e+00
   -1.682707e-03    3.039577e-04    0.000000e+00
   -1.328530e-03    3.035326e-04    0.000000e+00
   -8.827935e-04    2.982130e-04    0.000000e+00
   -5.253188e-04    2.902038e-04    0.000000e+00
   -4.287715e-04    2.929142e-04    0.000000e+00
   -1.523744e-04    8.228824e-03    0.000000e+00
   -1.344856e-04    5.370182e-03    0.000000e+00
   -1.336847e-04    4.227509e-03    0.000000e+00
   -1.263827e-04    2.612120e-03    0.000000e+00
   -1.018147e-04    1.469939e-03    0.000000e+00
    4.292830e-04    1.654041e-02    0.000000e+00
    7.295836e-05    1.368329e-02    0.000000e+00
   -9.349878e-05    1.115239e-02    0.000000e+00
   -1.543947e-04    9.462586e-03    0.000000e+00
   -1.117587e-05    1.251788e-02    0.000000e+00
    2.862487e-04    1.538293e-02    0.000000e+00
   -2.111088e-03    1.219060e-02    0.000000e+00
   -2.161365e-03    1.338429e-02    0.000000e+00
   -2.116726e-03    1.067913e-02    0.000000e+00
   -2.103523e-03    9.730808e-03    0.000000e+00
   -2.095720e-03    5.401652e-03    0.000000e+00
   -2.094745e-03    4.195033e-03    0.000000e+00
   -2.095281e-03    2.624641e-03    0.000000e+00
   -2.101580e-03    1.395106e-03    0.000000e+00
   -2.094228e-03    7.026202e-03    0.000000e+00
   -2.097492e-03    8.135700e-03    0.000000e+00
   -2.141917e-03    1.317288e-02    0.000000e+00
   -2.288792e-04    1.763850e-02    0.000000e+00
   -3.214268e-04    1.759274e-02    0.000000e+00
    8.876319e-05    1.771713e-02    0.000000e+00
    1.801857e-04    1.770831e-02    0.000000e+00
    4.076477e-04    1.771485e-02    0.000000e+00
   -5.044646e-04    1.770275e-02    0.000000e+00
   -1.976112e-04    2.887797e-04    0.000000e+00
   -1.563941e-03    1.471089e-02    0.000000e+00
   -2.053172e-03    1.324194e-02    0.000000e+00
   -1.756924e-03    1.397768e-02    0.000000e+00
   -4.602763e-04    1.755613e-02    0.000000e+00
   -1.016300e-03    1.579842e-02    0.000000e+00
   -7.888941e-04    1.642557e-02    0.000000e+00
   -1.291528e-03    1.493118e-02    0.000000e+00
   -1.162648e-03    1.566110e-02    0.000000e+00
   -1.547807e-03    2.486822e-04    0.000000e+00
   -1.236116e-03    2.792359e-04    0.000000e+00
   -7.757118e-04    2.786770e-04    0.000000e+00
   -9.917258e-05    5.922227e-03    0.000000e+00
   -1.038849e-04    4.580955e-03    0.000000e+00
   -1.221754e-04    3.006260e-03    0.000000e+00
   -1.476948e-04    7.819339e-03    0.000000e+00
   -8.263395e-05    1.782665e-03    0.000000e+00
    4.183487e-04    1.621778e-02    0.000000e+00
    2.422816e-04    1.498268e-02    0.000000e+00
    7.400992e-05    1.331066e-02    0.000000e+00
   -4.116609e-05    1.192099e-02    0.000000e+00
   -1.367497e-04    9.919817e-03    0.000000e+00
   -1.207512e-04    9.081523e-03    0.000000e+00
   -1.047765e-04    1.075309e-02    0.000000e+00
    1.337404e-04    1.414784e-02    0.000000e+00
    5.149683e-04    1.709550e-02    0.000000e+00
   -2.127253e-03    1.118584e-02    0.000000e+00
   -2.136954e-03    1.249797e-02    0.000000e+00
   -2.107249e-03    5.766328e-03    0.000000e+00
   -2.131991e-03    4.652893e-03    0.000000e+00
   -2.135430e-03    8.800448e-04    0.000000e+00
   -2.115778e-03    9.153541e-03    0.000000e+00
   -2.131113e-03    1.001456e-02    0.000000e+00
   -2.115858e-03    1.182139e-02    0.000000e+00
   -2.109913e-03    8.493328e-03    0.000000e+00
   -1.379942e-04    1.769454e-02    0.000000e+00
   -1.888795e-03    1.347995e-02    0.000000e+00
   -2.613727e-04    1.705555e-02    0.000000e+00
   -8.583264e-04    8.782964e-04    0.000000e+00
   -1.644002e-03    8.906382e-04    0.000000e+00
   -1.846657e-03    8.710924e-04    0.000000e+00
   -4.669768e-06    1.711798e-02    0.000000e+00
    1.763522e-04    1.714859e-02    0.000000e+00
    3.469815e-04    1.706384e-02    0.000000e+00
   -2.254022e-04    9.433111e-04    0.000000e+00
   -4.085882e-04    9.379608e-04    0.000000e+00
   -5.780415e-04    8.341141e-04    0.000000e+00
   -3.911976e-04    1.717997e-02    0.000000e+00
   -1.354533e-03    8.867811e-04    0.000000e+00
   -2.105780e-03    2.994055e-03    0.000000e+00
   -1.209673e-04    3.798514e-03    0.000000e+00
   -2.112311e-03    6.442474e-03    0.000000e+00
   -6.289237e-05    9.279106e-04    0.000000e+00
   -2.110502e-03    3.674536e-03    0.000000e+00
   -2.136084e-03    1.869380e-03    0.000000e+00
   -2.117265e-03    7.330414e-03    0.000000e+00
    3.014997e-04    1.661592e-02    0.000000e+00
   -1.973387e-03    8.087771e-03    0.000000e+00
   -1.964771e-03    6.977264e-03    0.000000e+00
   -1.966797e-03    5.345426e-03    0.000000e+00
   -1.964517e-03    4.190255e-03    0.000000e+00
   -1.965430e-03    2.557960e-03    0.000000e+00
    1.570019e-04    1.548287e-02    0.000000e+00
   -2.005102e-03    1.225327e-02    0.000000e+00
   -1.582867e-04    1.253690e-02    0.000000e+00
   -1.997770e-03    1.063805e-02    0.000000e+00
   -2.300527e-04    1.128369e-02    0.000000e+00
   -1.980490e-03    9.715698e-03    0.000000e+00
   -3.046354e-04    9.409608e-03    0.000000e+00
   -2.972360e-04    8.350921e-03    0.000000e+00
   -2.735438e-04    5.343935e-03    0.000000e+00
   -2.833924e-04    4.301814e-03    0.000000e+00
   -2.635240e-04    2.510698e-03    0.000000e+00
   -1.981482e-03    1.411843e-03    0.000000e+00
   -2.408506e-04    1.407101e-03    0.000000e+00
   -8.566526e-05    1.359351e-02    0.000000e+00
   -9.901340e-04    2.779317e-04    0.000000e+00
   -1.924190e-03    2.710847e-04    0.000000e+00
   -1.788805e-03    1.341503e-02    0.000000e+00
   -1.639080e-03    1.412375e-02    0.000000e+00
   -1.451510e-03    1.466403e-02    0.000000e+00
   -6.977563e-04    1.646239e-02    0.000000e+00
   -1.149235e-03    1.517697e-02    0.000000e+00
   -1.964745e-03    1.328424e-02    0.000000e+00
   -1.902341e-03    1.231388e-02    0.000000e+00
   -4.652018e-04    1.721143e-02    0.000000e+00
   -3.034619e-04    1.653510e-02    0.000000e+00
   -8.602757e-04    1.431198e-03    0.000000e+00
   -1.635412e-03    1.403835e-03    0.000000e+00
   -1.850165e-03    1.480734e-03    0.000000e+00
   -1.167008e-03    8.521714e-04    0.000000e+00
   -1.542417e-03    8.761259e-04    0.000000e+00
    2.176376e-04    1.589476e-02    0.000000e+00
    9.997553e-05    1.476566e-02    0.000000e+00
   -1.321373e-04    1.293796e-02    0.000000e+00
   -1.748902e-04    1.176144e-02    0.000000e+00
   -2.299752e-04    1.056089e-02    0.000000e+00
   -2.967272e-04    8.755422e-03    0.000000e+00
   -2.581009e-04    7.672426e-03    0.000000e+00
   -2.759959e-04    4.668469e-03    0.000000e+00
   -2.337545e-04    3.620788e-03    0.000000e+00
   -2.430015e-04    1.822086e-03    0.000000e+00
    1.410729e-04    1.649982e-02    0.000000e+00
   -3.775605e-05    1.657706e-02    0.000000e+00
    1.937684e-05    1.432000e-02    0.000000e+00
   -2.688051e-04    1.012250e-02    0.000000e+00
   -3.020425e-04    6.040837e-03    0.000000e+00
   -2.568514e-04    3.209698e-03    0.000000e+00
   -4.154675e-04    1.392612e-03    0.000000e+00
   -5.545241e-04    1.387674e-03    0.000000e+00
   -4.826875e-04    1.650096e-02    0.000000e+00
   -7.580877e-04    8.480827e-04    0.000000e+00
   -1.062738e-03    8.513903e-04    0.000000e+00
   -1.940870e-03    7.506600e-03    0.000000e+00
   -1.989462e-03    6.306730e-03    0.000000e+00
   -1.942631e-03    4.743985e-03    0.000000e+00
   -1.983036e-03    3.531270e-03    0.000000e+00
   -1.955959e-03    1.938179e-03    0.000000e+00
   -1.951598e-03    8.203833e-04    0.000000e+00
   -1.989465e-03    1.029048e-02    0.000000e+00
   -2.034694e-03    1.129789e-02    0.000000e+00
   -2.010032e-03    1.274648e-02    0.000000e+00
   -2.011907e-03    1.167159e-02    0.000000e+00
   -2.013051e-03    8.659504e-03    0.000000e+00
   -2.005615e-03    5.928228e-03    0.000000e+00
   -2.000716e-03    3.152722e-03    0.000000e+00
   -1.354862e-03    1.425887e-03    0.000000e+00
   -1.011350e-04    1.711700e-02    0.000000e+00
   -1.842260e-03    8.117532e-03    0.000000e+00
   -1.834004e-03    6.952355e-03    0.000000e+00
   -1.828026e-03    5.365686e-03    0.000000e+00
   -1.820745e-03    4.174871e-03    0.000000e+00
   -1.824743e-03    2.560620e-03    0.000000e+00
   -1.724111e-05    1.537724e-02    0.000000e+00
   -3.287946e-04    1.240670e-02    0.000000e+00
   -1.863383e-03    1.074123e-02    0.000000e+00
   -3.945323e-04    1.119347e-02    0.000000e+00
   -1.852773e-03    9.710848e-03    0.000000e+00
   -1.998853e-03    9.031489e-03    0.000000e+00
   -4.410483e-04    9.405470e-03    0.000000e+00
   -4.472944e-04    8.266190e-03    0.000000e+00
   -4.306667e-04    5.337003e-03    0.000000e+00
   -4.360275e-04    4.231395e-03    0.000000e+00
   -4.103178e-04    2.498064e-03    0.000000e+00
   -2.279688e-04    1.356349e-02    0.000000e+00
   -1.710877e-03    1.378218e-02    0.000000e+00
   -1.508915e-03    1.430970e-02    0.000000e+00
   -1.060605e-03    1.548035e-02    0.000000e+00
   -1.742876e-03    1.078547e-02    0.000000e+00
   -3.683534e-04    1.354283e-02    0.000000e+00
   -5.788114e-04    8.239592e-03    0.000000e+00
   -4.717513e-04    1.234857e-02    0.000000e+00
   -5.732460e-04    9.407118e-03    0.000000e+00
   -5.347309e-04    1.114650e-02    0.000000e+00
   -1.924265e-03    1.285315e-02    0.000000e+00
   -2.077878e-04    1.653994e-02    0.000000e+00
   -1.808810e-03    1.236890e-02    0.000000e+00
   -1.852666e-03    9.012931e-03    0.000000e+00
   -1.830445e-03    1.024603e-02    0.000000e+00
   -1.832353e-03    7.519501e-03    0.000000e+00
   -1.836479e-03    6.273992e-03    0.000000e+00
   -1.821125e-03    4.756343e-03    0.000000e+00
   -1.823839e-03    3.489385e-03    0.000000e+00
   -1.828512e-03    1.885288e-03    0.000000e+00
   -1.847220e-03    1.136921e-02    0.000000e+00
   -4.244325e-04    1.590166e-02    0.000000e+00
   -1.875209e-03    1.171647e-02    0.000000e+00
   -1.848413e-03    8.697682e-03    0.000000e+00
   -1.832595e-03    5.954227e-03    0.000000e+00
   -1.822416e-03    3.170511e-03    0.000000e+00
   -8.629553e-04    1.980112e-03    0.000000e+00
   -1.668652e-03    2.016036e-03    0.000000e+00
   -1.167843e-03    1.434724e-03    0.000000e+00
   -1.539358e-03    1.415880e-03    0.000000e+00
   -1.244784e-04    1.467108e-02    0.000000e+00
    4.564086e-05    1.608761e-02    0.000000e+00
   -3.172422e-04    1.296437e-02    0.000000e+00
   -3.942735e-04    1.178498e-02    0.000000e+00
   -4.417955e-04    1.049944e-02    0.000000e+00
   -4.768278e-04    8.825731e-03    0.000000e+00
   -4.628764e-04    7.621188e-03    0.000000e+00
   -2.632655e-04    7.011402e-03    0.000000e+00
   -4.411861e-04    4.783098e-03    0.000000e+00
   -4.204311e-04    3.582513e-03    0.000000e+00
   -4.353152e-04    1.855026e-03    0.000000e+00
   -9.964206e-05    1.601272e-02    0.000000e+00
   -1.441825e-04    1.429559e-02    0.000000e+00
   -4.274026e-04    1.012468e-02    0.000000e+00
   -2.620009e-04    6.691116e-03    0.000000e+00
   -4.362966e-04    6.028780e-03    0.000000e+00
   -4.187220e-04    3.248965e-03    0.000000e+00
   -5.552174e-04    2.001847e-03    0.000000e+00
   -7.599236e-04    1.417293e-03    0.000000e+00
   -1.065635e-03    1.436160e-03    0.000000e+00
   -1.356335e-03    1.951731e-03    0.000000e+00
   -1.724718e-03    9.724260e-03    0.000000e+00
   -1.772188e-04    1.530820e-02    0.000000e+00
   -1.711862e-03    8.123145e-03    0.000000e+00
   -1.703790e-03    6.955763e-03    0.000000e+00
   -1.690091e-03    5.359488e-03    0.000000e+00
   -1.677318e-03    4.180555e-03    0.000000e+00
   -1.668439e-03    2.492449e-03    0.000000e+00
   -5.774151e-04    5.353773e-03    0.000000e+00
   -5.840467e-04    4.205943e-03    0.000000e+00
   -5.692879e-04    2.439858e-03    0.000000e+00
   -9.222555e-04    1.571359e-02    0.000000e+00
   -1.657590e-03    1.358488e-02    0.000000e+00
   -1.726245e-03    1.257661e-02    0.000000e+00
   -1.729612e-03    1.225561e-02    0.000000e+00
   -1.559417e-03    5.339294e-03    0.000000e+00
   -1.576251e-03    6.976245e-03    0.000000e+00
   -7.146664e-04    5.372888e-03    0.000000e+00
   -1.586460e-03    8.121141e-03    0.000000e+00
   -3.332028e-04    1.526126e-02    0.000000e+00
   -1.599085e-03    9.735983e-03    0.000000e+00
   -1.751795e-03    1.027068e-02    0.000000e+00
   -2.291151e-04    1.467627e-02    0.000000e+00
   -2.427893e-04    1.594749e-02    0.000000e+00
   -1.744723e-03    1.135737e-02    0.000000e+00
   -5.613742e-04    7.619186e-03    0.000000e+00
   -4.101739e-04    1.294142e-02    0.000000e+00
   -5.634114e-04    8.819657e-03    0.000000e+00
   -4.894164e-04    1.175621e-02    0.000000e+00
   -5.406324e-04    1.052559e-02    0.000000e+00
   -5.612334e-04    1.587016e-02    0.000000e+00
   -1.749880e-03    1.189927e-02    0.000000e+00
   -5.454444e-04    1.003879e-02    0.000000e+00
   -2.768728e-04    1.418947e-02    0.000000e+00
   -3.364293e-04    1.590980e-02    0.000000e+00
   -1.660457e-03    1.079415e-02    0.000000e+00
   -4.896668e-04    1.351227e-02    0.000000e+00
   -6.861456e-04    8.228816e-03    0.000000e+00
   -5.886766e-04    1.231075e-02    0.000000e+00
   -6.832083e-04    9.394929e-03    0.000000e+00
   -6.485017e-04    1.111675e-02    0.000000e+00
   -1.714076e-03    9.050013e-03    0.000000e+00
   -1.712034e-03    7.531012e-03    0.000000e+00
   -1.689429e-03    6.299534e-03    0.000000e+00
   -1.690557e-03    4.768948e-03    0.000000e+00
   -1.670464e-03    3.486453e-03    0.000000e+00
   -5.253411e-04    1.523270e-02    0.000000e+00
   -1.689449e-03    8.719795e-03    0.000000e+00
   -1.661699e-03    5.959410e-03    0.000000e+00
   -1.667692e-03    3.169599e-03    0.000000e+00
   -8.537392e-04    2.548641e-03    0.000000e+00
   -1.171113e-03    1.988044e-03    0.000000e+00
   -1.540495e-03    1.959407e-03    0.000000e+00
   -4.681656e-04    7.011484e-03    0.000000e+00
   -6.082514e-04    4.797368e-03    0.000000e+00
   -5.809220e-04    3.573457e-03    0.000000e+00
   -4.679594e-04    6.670799e-03    0.000000e+00
   -5.765516e-04    6.014858e-03    0.000000e+00
   -5.783039e-04    3.247628e-03    0.000000e+00
   -7.654584e-04    1.952201e-03    0.000000e+00
   -1.068311e-03    1.994186e-03    0.000000e+00
   -1.388486e-03    2.525355e-03    0.000000e+00
   -1.534108e-03    4.208326e-03    0.000000e+00
   -1.513706e-03    2.542278e-03    0.000000e+00
   -7.300155e-04    4.213388e-03    0.000000e+00
   -7.279014e-04    2.515565e-03    0.000000e+00
   -9.711587e-05    7.061301e-03    0.000000e+00
   -7.619514e-04    1.595035e-02    0.000000e+00
   -7.750141e-04    8.398796e-03    0.000000e+00
   -6.099968e-04    1.328633e-02    0.000000e+00
   -7.732932e-04    9.565156e-03    0.000000e+00
   -6.965330e-04    1.209797e-02    0.000000e+00
   -7.495224e-04    1.090636e-02    0.000000e+00
   -7.358571e-04    1.128052e-02    0.000000e+00
   -6.739222e-04    1.246540e-02    0.000000e+00
   -7.752383e-04    9.196507e-03    0.000000e+00
   -5.738713e-04    1.366702e-02    0.000000e+00
   -7.731999e-04    8.050011e-03    0.000000e+00
   -8.562738e-04    1.556410e-02    0.000000e+00
   -1.543208e-03    1.373504e-02    0.000000e+00
   -1.722641e-03    1.290104e-02    0.000000e+00
   -8.693757e-04    4.210990e-03    0.000000e+00
   -1.393485e-03    4.217770e-03    0.000000e+00
   -5.680816e-04    7.069131e-03    0.000000e+00
   -1.560312e-03    5.912924e-03    0.000000e+00
   -7.030279e-04    4.806784e-03    0.000000e+00
   -1.600705e-03    8.690058e-03    0.000000e+00
   -6.661229e-04    1.518969e-02    0.000000e+00
   -1.610064e-03    9.138286e-03    0.000000e+00
   -1.605707e-03    7.542439e-03    0.000000e+00
   -1.575968e-03    6.384961e-03    0.000000e+00
   -1.576775e-03    4.786924e-03    0.000000e+00
   -6.988294e-04    5.997756e-03    0.000000e+00
   -5.657198e-04    6.605403e-03    0.000000e+00
   -4.332241e-04    1.524532e-02    0.000000e+00
   -1.471598e-03    5.317000e-03    0.000000e+00
   -8.256547e-04    5.374801e-03    0.000000e+00
   -1.470581e-03    6.997846e-03    0.000000e+00
   -1.482288e-03    8.127436e-03    0.000000e+00
   -1.495369e-03    9.746256e-03    0.000000e+00
   -1.611951e-03    1.252434e-02    0.000000e+00
   -1.900379e-03    1.317443e-02    0.000000e+00
   -1.519725e-03    3.512138e-03    0.000000e+00
   -6.510508e-04    1.462057e-02    0.000000e+00
   -1.558157e-03    1.038375e-02    0.000000e+00
   -8.610285e-04    3.139270e-03    0.000000e+00
   -1.509078e-03    3.177997e-03    0.000000e+00
   -1.177200e-03    2.551851e-03    0.000000e+00
   -7.602998e-04    3.573508e-03    0.000000e+00
   -4.584168e-04    1.454268e-02    0.000000e+00
   -7.361260e-04    3.221083e-03    0.000000e+00
   -1.072065e-03    2.570710e-03    0.000000e+00
   -1.330414e-03    3.100642e-03    0.000000e+00
   -7.182506e-04    1.340237e-02    0.000000e+00
   -8.017194e-04    1.224204e-02    0.000000e+00
   -8.573915e-04    1.107187e-02    0.000000e+00
   -9.176027e-04    5.535204e-03    0.000000e+00
   -1.387393e-03    7.185772e-03    0.000000e+00
   -1.397793e-03    8.316853e-03    0.000000e+00
   -1.415678e-03    9.950104e-03    0.000000e+00
   -1.395297e-03    7.960840e-03    0.000000e+00
   -1.408592e-03    9.596301e-03    0.000000e+00
   -1.383163e-03    6.851359e-03    0.000000e+00
   -9.140412e-04    5.206390e-03    0.000000e+00
   -6.813016e-04    1.629469e-02    0.000000e+00
   -9.391375e-04    1.516266e-02    0.000000e+00
   -1.700296e-03    1.324934e-02    0.000000e+00
   -1.233760e-03    3.107101e-03    0.000000e+00
   -8.625687e-04    3.624709e-03    0.000000e+00
   -1.437994e-03    1.030287e-02    0.000000e+00
   -7.631130e-04    1.456083e-02    0.000000e+00
   -1.395994e-03    3.606268e-03    0.000000e+00
   -9.629063e-04    4.182678e-03    0.000000e+00
   -1.302221e-03    4.209257e-03    0.000000e+00
   -8.849766e-04    9.354720e-03    0.000000e+00
   -8.814664e-04    8.209101e-03    0.000000e+00
   -7.111182e-04    1.401775e-02    0.000000e+00
   -1.529680e-03    1.198935e-02    0.000000e+00
   -1.568351e-03    1.076578e-02    0.000000e+00
   -9.206316e-04    4.868365e-03    0.000000e+00
   -6.562936e-04    1.286964e-02    0.000000e+00
   -7.289817e-04    1.168754e-02    0.000000e+00
   -7.753808e-04    1.047444e-02    0.000000e+00
   -7.867049e-04    8.793258e-03    0.000000e+00
   -7.804260e-04    7.690153e-03    0.000000e+00
   -5.397118e-04    1.410430e-02    0.000000e+00
   -7.837439e-04    9.986302e-03    0.000000e+00
   -7.753915e-04    6.619650e-03    0.000000e+00
   -1.049708e-03    3.117885e-03    0.000000e+00
   -1.357603e-03    4.877684e-03    0.000000e+00
   -1.543754e-03    1.140788e-02    0.000000e+00
   -1.281952e-03    7.034250e-03    0.000000e+00
   -1.292569e-03    8.151052e-03    0.000000e+00
   -1.303877e-03    9.804646e-03    0.000000e+00
   -1.425616e-03    1.144586e-02    0.000000e+00
   -1.242293e-03    4.821340e-03    0.000000e+00
   -8.938379e-04    7.633795e-03    0.000000e+00
   -9.082841e-04    8.773234e-03    0.000000e+00
   -7.911446e-04    1.281423e-02    0.000000e+00
   -8.562420e-04    1.165332e-02    0.000000e+00
   -9.037247e-04    1.046513e-02    0.000000e+00
   -8.596873e-04    1.390842e-02    0.000000e+00
   -1.416418e-03    1.206308e-02    0.000000e+00
   -9.104591e-04    9.931037e-03    0.000000e+00
   -8.880250e-04    6.543816e-03    0.000000e+00
   -1.035542e-03    4.815340e-03    0.000000e+00
   -1.447512e-03    1.085291e-02    0.000000e+00
   -1.599591e-03    1.315960e-02    0.000000e+00
   -7.068135e-04    1.575723e-02    0.000000e+00
   -1.024534e-03    5.357588e-03    0.000000e+00
   -9.340710e-04    5.894325e-03    0.000000e+00
   -1.195324e-03    3.667263e-03    0.000000e+00
   -7.797068e-04    6.996409e-03    0.000000e+00
   -1.080309e-03    3.725870e-03    0.000000e+00
   -1.392209e-03    9.192573e-03    0.000000e+00
   -1.381684e-03    7.572107e-03    0.000000e+00
   -1.368043e-03    6.517171e-03    0.000000e+00
   -1.388313e-03    8.726328e-03    0.000000e+00
   -1.373395e-03    5.265497e-03    0.000000e+00
   -1.357828e-03    5.907527e-03    0.000000e+00
   -1.213911e-03    4.212753e-03    0.000000e+00
   -1.069004e-03    4.144137e-03    0.000000e+00
   -6.782956e-04    1.549409e-02    0.000000e+00
   -1.239341e-03    5.917537e-03    0.000000e+00
   -8.921723e-04    7.053597e-03    0.000000e+00
   -1.271078e-03    8.726078e-03    0.000000e+00
   -1.274405e-03    9.239495e-03    0.000000e+00
   -1.264330e-03    7.588087e-03    0.000000e+00
   -1.258205e-03    6.497957e-03    0.000000e+00
   -1.067193e-03    5.941417e-03    0.000000e+00
   -1.248955e-03    5.323585e-03    0.000000e+00
   -1.318310e-03    1.147683e-02    0.000000e+00
   -1.223735e-03    1.041092e-02    0.000000e+00
   -1.042098e-03    1.213325e-02    0.000000e+00
   -1.098645e-03    1.105423e-02    0.000000e+00
   -1.094358e-03    9.298292e-03    0.000000e+00
   -1.088438e-03    8.176972e-03    0.000000e+00
   -9.566374e-04    1.324059e-02    0.000000e+00
   -1.217785e-03    1.164532e-02    0.000000e+00
   -8.105203e-04    1.513340e-02    0.000000e+00
   -1.224546e-03    1.105110e-02    0.000000e+00
   -1.172940e-03    1.203464e-02    0.000000e+00
   -1.117370e-03    1.041938e-02    0.000000e+00
   -1.153424e-03    5.929442e-03    0.000000e+00
   -1.033843e-03    1.161142e-02    0.000000e+00
   -1.091782e-03    8.741700e-03    0.000000e+00
   -1.082672e-03    7.610368e-03    0.000000e+00
   -1.096689e-03    9.843543e-03    0.000000e+00
   -1.075781e-03    6.533953e-03    0.000000e+00
   -1.078787e-03    7.058108e-03    0.000000e+00
   -9.880599e-04    1.271648e-02    0.000000e+00
   -1.250234e-03    1.134184e-02    0.000000e+00
   -8.072403e-04    1.478134e-02    0.000000e+00
   -1.102895e-03    1.386152e-02    0.000000e+00
   -1.850215e-03    2.103255e-02    0.000000e+00
   -1.552236e-03    2.047649e-02    0.000000e+00
   -1.263151e-03    2.010766e-02    0.000000e+00
   -1.020800e-03    1.991619e-02    0.000000e+00
   -8.496862e-04    1.993322e-02    0.000000e+00
   -6.723789e-04    1.989630e-02    0.000000e+00
   -4.582510e-04    1.982240e-02    0.000000e+00
   -2.472113e-04    1.977155e-02    0.000000e+00
   -1.179357e-04    1.965807e-02    0.000000e+00
    4.890862e-07    1.976419e-02    0.000000e+00
    1.847919e-04    1.975467e-02    0.000000e+00
    3.477268e-04    1.971542e-02    0.000000e+00
    4.357667e-04    1.906868e-02    0.000000e+00
    2.203432e-04    1.914596e-02    0.000000e+00
    1.252209e-04    1.907000e-02    0.000000e+00
   -9.499316e-05    1.917967e-02    0.000000e+00
   -2.339575e-04    1.922851e-02    0.000000e+00
   -3.435721e-04    1.912702e-02    0.000000e+00
   -5.145150e-04    1.914525e-02    0.000000e+00
   -6.672347e-04    1.918116e-02    0.000000e+00
   -8.312676e-04    1.926700e-02    0.000000e+00
   -1.004355e-03    1.939303e-02    0.000000e+00
   -1.256517e-03    1.976392e-02    0.000000e+00
   -1.492646e-03    2.048437e-02    0.000000e+00
   -2.124575e-03    2.190849e-02    0.000000e+00
   -1.963299e-03    2.154677e-02    0.000000e+00
   -1.723336e-03    2.114931e-02    0.000000e+00
   -1.475458e-03    2.088138e-02    0.000000e+00
   -1.223478e-03    2.062358e-02    0.000000e+00
   -9.637527e-04    2.049237e-02    0.000000e+00
   -7.684500e-04    2.044934e-02    0.000000e+00
   -5.652037e-04    2.043089e-02    0.000000e+00
   -4.045678e-04    2.035663e-02    0.000000e+00
   -1.665956e-04    2.031852e-02    0.000000e+00
   -1.730719e-05    2.017562e-02    0.000000e+00
    1.477357e-04    2.011772e-02    0.000000e+00
    3.230040e-04    2.010141e-02    0.000000e+00
   -2.118077e-03    2.222669e-02    0.000000e+00
   -1.967602e-03    2.194295e-02    0.000000e+00
   -1.774168e-03    2.170230e-02    0.000000e+00
   -1.541308e-03    2.146103e-02    0.000000e+00
   -1.278545e-03    2.117337e-02    0.000000e+00
   -1.099334e-03    2.121854e-02    0.000000e+00
   -8.978943e-04    2.106705e-02    0.000000e+00
   -6.584025e-04    2.100247e-02    0.000000e+00
   -4.584914e-04    2.095954e-02    0.000000e+00
   -3.095389e-04    2.094132e-02    0.000000e+00
   -8.768772e-05    2.090288e-02    0.000000e+00
    4.841986e-05    2.088183e-02    0.000000e+00
    1.688407e-04    2.083980e-02    0.000000e+00
   -2.100754e-03    2.252922e-02    0.000000e+00
   -1.970079e-03    2.244413e-02    0.000000e+00
   -1.814359e-03    2.227382e-02    0.000000e+00
   -1.626818e-03    2.200597e-02    0.000000e+00
   -1.384719e-03    2.191106e-02    0.000000e+00
   -1.180475e-03    2.182331e-02    0.000000e+00
   -9.578268e-04    2.167401e-02    0.000000e+00
   -7.388162e-04    2.159663e-02    0.000000e+00
   -5.367063e-04    2.155421e-02    0.000000e+00
   -3.844374e-04    2.151825e-02    0.000000e+00
   -1.933363e-04    2.147156e-02    0.000000e+00
   -2.914248e-05    2.154296e-02    0.000000e+00
    1.993324e-04    2.139437e-02    0.000000e+00
   -2.112656e-03    2.308787e-02    0.000000e+00
   -1.968746e-03    2.297227e-02    0.000000e+00
   -1.802595e-03    2.278593e-02    0.000000e+00
   -1.633264e-03    2.263438e-02    0.000000e+00
   -1.448372e-03    2.245824e-02    0.000000e+00
   -1.208315e-03    2.240125e-02    0.000000e+00
   -1.015224e-03    2.224441e-02    0.000000e+00
   -8.093281e-04    2.219304e-02    0.000000e+00
   -6.173428e-04    2.217449e-02    0.000000e+00
   -4.378128e-04    2.217487e-02    0.000000e+00
   -2.270588e-04    2.200000e-02    0.000000e+00
   -8.108093e-05    2.193454e-02    0.000000e+00
    3.431283e-05    2.200242e-02    0.000000e+00
   -2.102469e-03    2.341164e-02    0.000000e+00
   -1.972856e-03    2.330004e-02    0.000000e+00
   -1.813805e-03    2.340398e-02    0.000000e+00
   -1.633328e-03    2.320333e-02    0.000000e+00
   -1.446848e-03    2.310238e-02    0.000000e+00
   -1.264297e-03    2.300074e-02    0.000000e+00
   -1.058936e-03    2.288109e-02    0.000000e+00
   -8.723103e-04    2.278079e-02    0.000000e+00
   -6.580859e-04    2.267713e-02    0.000000e+00
   -4.987447e-04    2.278289e-02    0.000000e+00
   -3.071078e-04    2.271982e-02    0.000000e+00
   -1.798104e-04    2.262076e-02    0.000000e+00
    2.417713e-06    2.261678e-02    0.000000e+00
   -2.033845e-03    2.394358e-02    0.000000e+00
   -1.950152e-03    2.387354e-02    0.000000e+00
   -1.802798e-03    2.382998e-02    0.000000e+00
   -1.636788e-03    2.376297e-02    0.000000e+00
   -1.487248e-03    2.374577e-02    0.000000e+00
   -1.293355e-03    2.364266e-02    0.000000e+00
   -1.116822e-03    2.348088e-02    0.000000e+00
   -9.074667e-04    2.338949e-02    0.000000e+00
   -7.359915e-04    2.334183e-02    0.000000e+00
   -5.482741e-04    2.325844e-02    0.000000e+00
   -3.300217e-04    2.316698e-02    0.000000e+00
   -1.808611e-04    2.314275e-02    0.000000e+00
   -6.959963e-06    2.303077e-02    0.000000e+00
   -2.030958e-03    2.446513e-02    0.000000e+00
   -1.927509e-03    2.440906e-02    0.000000e+00
   -1.804312e-03    2.442275e-02    0.000000e+00
   -1.655729e-03    2.431528e-02    0.000000e+00
   -1.466234e-03    2.417674e-02    0.000000e+00
   -1.299608e-03    2.417101e-02    0.000000e+00
   -1.132424e-03    2.402952e-02    0.000000e+00
   -9.494747e-04    2.398156e-02    0.000000e+00
   -7.565378e-04    2.396563e-02    0.000000e+00
   -6.004709e-04    2.397713e-02    0.000000e+00
   -3.781576e-04    2.386846e-02    0.000000e+00
   -2.333981e-04    2.381107e-02    0.000000e+00
   -1.193205e-04    2.377233e-02    0.000000e+00
   -2.067424e-03    2.484550e-02    0.000000e+00
   -1.928742e-03    2.488733e-02    0.000000e+00
   -1.798718e-03    2.481785e-02    0.000000e+00
   -1.632772e-03    2.485943e-02    0.000000e+00
   -1.450201e-03    2.479315e-02    0.000000e+00
   -1.298216e-03    2.462143e-02    0.000000e+00
   -1.165907e-03    2.461373e-02    0.000000e+00
   -9.746230e-04    2.451311e-02    0.000000e+00
   -7.581091e-04    2.450085e-02    0.000000e+00
   -6.046654e-04    2.443468e-02    0.000000e+00
   -4.288144e-04    2.432399e-02    0.000000e+00
   -3.015949e-04    2.445089e-02    0.000000e+00
   -5.707376e-05    2.433410e-02    0.000000e+00
   -2.021116e-03    2.547468e-02    0.000000e+00
   -1.915551e-03    2.552311e-02    0.000000e+00
   -1.790372e-03    2.544823e-02    0.000000e+00
   -1.656739e-03    2.542476e-02    0.000000e+00
   -1.494358e-03    2.531781e-02    0.000000e+00
   -1.342555e-03    2.509055e-02    0.000000e+00
   -1.154645e-03    2.516404e-02    0.000000e+00
   -9.796584e-04    2.515921e-02    0.000000e+00
   -7.760440e-04    2.516952e-02    0.000000e+00
   -6.055688e-04    2.498665e-02    0.000000e+00
   -4.578173e-04    2.497588e-02    0.000000e+00
   -3.108057e-04    2.489571e-02    0.000000e+00
   -1.810356e-04    2.493863e-02    0.000000e+00
   -2.098524e-03    2.597319e-02    0.000000e+00
   -1.914574e-03    2.585848e-02    0.000000e+00
   -1.753004e-03    2.591310e-02    0.000000e+00
   -1.636062e-03    2.589881e-02    0.000000e+00
   -1.462108e-03    2.590196e-02    0.000000e+00
   -1.313538e-03    2.588644e-02    0.000000e+00
   -1.155438e-03    2.578415e-02    0.000000e+00
   -9.627181e-04    2.570007e-02    0.000000e+00
   -8.304145e-04    2.568951e-02    0.000000e+00
   -6.463442e-04    2.557170e-02    0.000000e+00
   -5.103188e-04    2.555607e-02    0.000000e+00
   -3.334773e-04    2.563143e-02    0.000000e+00
   -1.210581e-04    2.562687e-02    0.000000e+00
   -2.004990e-03    2.649904e-02    0.000000e+00
   -1.898889e-03    2.645425e-02    0.000000e+00
   -1.773406e-03    2.642295e-02    0.000000e+00
   -1.637751e-03    2.636002e-02    0.000000e+00
   -1.483515e-03    2.648585e-02    0.000000e+00
   -1.304871e-03    2.632762e-02    0.000000e+00
   -1.169023e-03    2.629749e-02    0.000000e+00
   -9.422614e-04    2.626778e-02    0.000000e+00
   -8.398299e-04    2.610341e-02    0.000000e+00
   -6.276842e-04    2.608800e-02    0.000000e+00
   -4.868582e-04    2.608191e-02    0.000000e+00
   -3.433837e-04    2.599605e-02    0.000000e+00
   -2.028909e-04    2.601855e-02    0.000000e+00
   -2.020108e-03    2.710321e-02    0.000000e+00
   -1.893888e-03    2.714077e-02    0.000000e+00
   -1.752594e-03    2.710033e-02    0.000000e+00
   -1.631736e-03    2.700198e-02    0.000000e+00
   -1.504607e-03    2.700949e-02    0.000000e+00
   -1.337095e-03    2.694387e-02    0.000000e+00
   -1.146361e-03    2.675805e-02    0.000000e+00
   -9.602325e-04    2.670038e-02    0.000000e+00
   -8.415082e-04    2.675391e-02    0.000000e+00
   -6.343164e-04    2.679654e-02    0.000000e+00
   -4.889047e-04    2.675089e-02    0.000000e+00
   -3.519561e-04    2.672609e-02    0.000000e+00
   -2.326041e-04    2.667637e-02    0.000000e+00
   -2.082172e-03    2.745662e-02    0.000000e+00
   -1.896205e-03    2.747655e-02    0.000000e+00
   -1.726982e-03    2.745775e-02    0.000000e+00
   -1.620014e-03    2.748954e-02    0.000000e+00
   -1.505818e-03    2.743845e-02    0.000000e+00
   -1.323445e-03    2.737446e-02    0.000000e+00
   -1.192045e-03    2.737643e-02    0.000000e+00
   -9.989631e-04    2.727939e-02    0.000000e+00
   -8.248893e-04    2.730467e-02    0.000000e+00
   -6.603667e-04    2.729459e-02    0.000000e+00
   -5.299652e-04    2.729413e-02    0.000000e+00
   -3.494124e-04    2.737937e-02    0.000000e+00
   -1.326344e-04    2.724983e-02    0.000000e+00
   -2.009578e-03    2.810132e-02    0.000000e+00
   -1.895648e-03    2.816525e-02    0.000000e+00
   -1.752936e-03    2.817715e-02    0.000000e+00
   -1.612810e-03    2.815510e-02    0.000000e+00
   -1.492167e-03    2.803306e-02    0.000000e+00
   -1.295744e-03    2.810578e-02    0.000000e+00
   -1.161756e-03    2.794183e-02    0.000000e+00
   -1.016384e-03    2.779213e-02    0.000000e+00
   -7.948508e-04    2.793347e-02    0.000000e+00
   -6.573166e-04    2.780781e-02    0.000000e+00
   -5.085593e-04    2.784742e-02    0.000000e+00
   -3.561173e-04    2.777945e-02    0.000000e+00
   -2.278447e-04    2.783114e-02    0.000000e+00
   -2.088780e-03    2.869253e-02    0.000000e+00
   -1.897258e-03    2.851192e-02    0.000000e+00
   -1.749868e-03    2.850523e-02    0.000000e+00
   -1.601389e-03    2.848652e-02    0.000000e+00
   -1.431737e-03    2.853741e-02    0.000000e+00
   -1.306704e-03    2.852535e-02    0.000000e+00
   -1.145661e-03    2.848843e-02    0.000000e+00
   -9.906330e-04    2.844134e-02    0.000000e+00
   -7.926323e-04    2.851689e-02    0.000000e+00
   -6.866336e-04    2.845725e-02    0.000000e+00
   -5.173087e-04    2.851704e-02    0.000000e+00
   -3.539710e-04    2.849708e-02    0.000000e+00
   -1.486447e-04    2.850358e-02    0.000000e+00
   -2.044444e-03    2.911083e-02    0.000000e+00
   -1.889023e-03    2.911916e-02    0.000000e+00
   -1.743591e-03    2.911015e-02    0.000000e+00
   -1.598665e-03    2.909884e-02    0.000000e+00
   -1.457377e-03    2.907931e-02    0.000000e+00
   -1.311599e-03    2.898413e-02    0.000000e+00
   -1.167475e-03    2.897988e-02    0.000000e+00
   -9.474293e-04    2.904937e-02    0.000000e+00
   -8.051629e-04    2.892874e-02    0.000000e+00
   -6.620754e-04    2.894373e-02    0.000000e+00
   -5.166227e-04    2.886082e-02    0.000000e+00
   -3.604105e-04    2.884336e-02    0.000000e+00
   -2.194231e-04    2.888465e-02    0.000000e+00
   -2.015407e-03    2.981970e-02    0.000000e+00
   -1.885023e-03    2.985573e-02    0.000000e+00
   -1.739562e-03    2.985415e-02    0.000000e+00
   -1.592579e-03    2.984171e-02    0.000000e+00
   -1.443928e-03    2.982259e-02    0.000000e+00
   -1.287472e-03    2.976700e-02    0.000000e+00
   -1.107450e-03    2.961186e-02    0.000000e+00
   -9.463985e-04    2.961644e-02    0.000000e+00
   -8.104140e-04    2.961977e-02    0.000000e+00
   -6.649852e-04    2.961909e-02    0.000000e+00
   -5.145364e-04    2.960981e-02    0.000000e+00
   -3.661556e-04    2.960192e-02    0.000000e+00
   -2.242585e-04    2.961597e-02    0.000000e+00
   -2.077535e-03    3.017293e-02    0.000000e+00
   -1.887833e-03    3.019085e-02    0.000000e+00
   -1.739491e-03    3.017989e-02    0.000000e+00
   -1.592237e-03    3.016662e-02    0.000000e+00
   -1.441352e-03    3.016676e-02    0.000000e+00
   -1.281514e-03    3.012959e-02    0.000000e+00
   -1.091635e-03    3.008544e-02    0.000000e+00
   -9.703628e-04    3.024485e-02    0.000000e+00
   -8.485820e-04    3.025549e-02    0.000000e+00
   -6.706560e-04    3.023267e-02    0.000000e+00
   -5.126526e-04    3.022310e-02    0.000000e+00
   -3.532553e-04    3.021517e-02    0.000000e+00
   -1.493157e-04    3.001280e-02    0.000000e+00
   -2.002974e-03    3.082617e-02    0.000000e+00
   -1.885746e-03    3.088486e-02    0.000000e+00
   -1.735548e-03    3.087527e-02    0.000000e+00
   -1.596443e-03    3.081183e-02    0.000000e+00
   -1.467539e-03    3.084756e-02    0.000000e+00
   -1.246518e-03    3.079405e-02    0.000000e+00
   -1.123936e-03    3.071234e-02    0.000000e+00
   -9.778240e-04    3.070484e-02    0.000000e+00
   -8.237939e-04    3.060188e-02    0.000000e+00
   -6.698606e-04    3.056103e-02    0.000000e+00
   -5.132487e-04    3.056164e-02    0.000000e+00
   -3.553576e-04    3.057606e-02    0.000000e+00
   -2.297171e-04    3.063732e-02    0.000000e+00
   -2.085462e-03    3.142466e-02    0.000000e+00
   -1.888828e-03    3.123896e-02    0.000000e+00
   -1.733672e-03    3.123048e-02    0.000000e+00
   -1.600703e-03    3.131914e-02    0.000000e+00
   -1.426306e-03    3.129914e-02    0.000000e+00
   -1.266368e-03    3.127801e-02    0.000000e+00
   -1.124608e-03    3.126808e-02    0.000000e+00
   -9.784324e-04    3.126841e-02    0.000000e+00
   -8.164460e-04    3.134225e-02    0.000000e+00
   -6.757237e-04    3.129690e-02    0.000000e+00
   -5.448329e-04    3.134920e-02    0.000000e+00
   -3.525170e-04    3.130680e-02    0.000000e+00
   -1.493456e-04    3.130270e-02    0.000000e+00
   -2.044201e-03    3.182884e-02    0.000000e+00
   -1.888130e-03    3.184865e-02    0.000000e+00
   -1.741176e-03    3.184086e-02    0.000000e+00
   -1.602876e-03    3.182108e-02    0.000000e+00
   -1.446558e-03    3.182447e-02    0.000000e+00
   -1.275487e-03    3.182013e-02    0.000000e+00
   -1.130701e-03    3.181235e-02    0.000000e+00
   -9.859196e-04    3.181076e-02    0.000000e+00
   -8.234563e-04    3.181455e-02    0.000000e+00
   -7.061358e-04    3.180523e-02    0.000000e+00
   -4.995683e-04    3.177723e-02    0.000000e+00
   -3.492493e-04    3.167855e-02    0.000000e+00
   -2.143288e-04    3.168638e-02    0.000000e+00
   -2.048325e-03    3.244283e-02    0.000000e+00
   -1.927118e-03    3.252294e-02    0.000000e+00
   -1.713005e-03    3.251374e-02    0.000000e+00
   -1.594196e-03    3.243505e-02    0.000000e+00
   -1.449821e-03    3.237930e-02    0.000000e+00
   -1.282593e-03    3.236514e-02    0.000000e+00
   -1.135469e-03    3.237476e-02    0.000000e+00
   -9.868630e-04    3.235557e-02    0.000000e+00
   -8.204696e-04    3.233776e-02    0.000000e+00
   -6.713718e-04    3.233090e-02    0.000000e+00
   -5.171378e-04    3.234562e-02    0.000000e+00
   -3.746725e-04    3.244057e-02    0.000000e+00
   -1.633287e-04    3.237126e-02    0.000000e+00
   -2.066804e-03    3.313579e-02    0.000000e+00
   -1.902586e-03    3.292168e-02    0.000000e+00
   -1.744391e-03    3.291243e-02    0.000000e+00
   -1.596901e-03    3.309872e-02    0.000000e+00
   -1.444683e-03    3.287399e-02    0.000000e+00
   -1.295710e-03    3.286979e-02    0.000000e+00
   -1.139070e-03    3.310552e-02    0.000000e+00
   -9.737115e-04    3.289327e-02    0.000000e+00
   -8.267019e-04    3.284817e-02    0.000000e+00
   -6.732129e-04    3.307910e-02    0.000000e+00
   -5.079726e-04    3.290236e-02    0.000000e+00
   -3.471726e-04    3.295618e-02    0.000000e+00
   -1.693090e-04    3.283444e-02    0.000000e+00
    4.637543e-04    1.858185e-02    0.000000e+00
    2.928053e-04    1.839703e-02    0.000000e+00
    1.225576e-04    1.860835e-02    0.000000e+00
   -2.904711e-05    1.867354e-02    0.000000e+00
   -1.494014e-04    1.846194e-02    0.000000e+00
   -2.835477e-04    1.867553e-02    0.000000e+00
   -4.349416e-04    1.865647e-02    0.000000e+00
   -5.371619e-04    1.860953e-02    0.000000e+00
   -6.541692e-04    1.865534e-02    0.000000e+00
   -7.476415e-04    1.871118e-02    0.000000e+00
   -2.194744e-03    2.193119e-02    0.000000e+00
   -2.197288e-03    2.203270e-02    0.000000e+00
   -2.196686e-03    2.197297e-02    0.000000e+00
   -2.196443e-03    2.196097e-02    0.000000e+00
   -2.193783e-03    2.192315e-02    0.000000e+00
   -2.189112e-03    2.190377e-02    0.000000e+00
   -2.186548e-03    2.189809e-02    0.000000e+00
   -2.169122e-03    2.187784e-02    0.000000e+00
   -6.346966e-04    1.805425e-02    0.000000e+00
   -6.472447e-04    1.805719e-02    0.000000e+00
   -6.428827e-04    1.805644e-02    0.000000e+00
   -6.648973e-04    1.806415e-02    0.000000e+00
   -6.226085e-04    1.804971e-02    0.000000e+00
   -6.307621e-04    1.805200e-02    0.000000e+00
   -6.387050e-04    1.805546e-02    0.000000e+00
   -6.519281e-04    1.805916e-02    0.000000e+00
   -6.579595e-04    1.806107e-02    0.000000e+00
   -6.725800e-04    1.806715e-02    0.000000e+00
   -6.815332e-04    1.807025e-02    0.000000e+00
   -6.922710e-04    1.807433e-02    0.000000e+00
   -7.048970e-04    1.808118e-02    0.000000e+00
   -7.209508e-04    1.809172e-02    0.000000e+00
   -7.400142e-04    1.811029e-02    0.000000e+00
   -7.688699e-04    1.813779e-02    0.000000e+00
   -2.196925e-03    2.200035e-02    0.000000e+00
   -2.196820e-03    2.198612e-02    0.000000e+00
   -2.196097e-03    2.195011e-02    0.000000e+00
   -2.195449e-03    2.194014e-02    0.000000e+00
   -2.192621e-03    2.191605e-02    0.000000e+00
   -2.191048e-03    2.190961e-02    0.000000e+00
   -2.182690e-03    2.189232e-02    0.000000e+00
   -2.176213e-03    2.188668e-02    0.000000e+00
   -1.099548e-03    2.004822e-02    0.000000e+00
   -1.385834e-03    2.087708e-02    0.000000e+00
   -1.030348e-03    1.978458e-02    0.000000e+00
   -1.755344e-03    2.156094e-02    0.000000e+00
   -8.738628e-04    1.894480e-02    0.000000e+00
   -1.614940e-03    2.134448e-02    0.000000e+00
   -9.986218e-04    1.964954e-02    0.000000e+00
   -1.256519e-03    2.054377e-02    0.000000e+00
   -8.567102e-04    1.879896e-02    0.000000e+00
   -1.946965e-03    2.176361e-02    0.000000e+00
   -9.417406e-04    1.937290e-02    0.000000e+00
   -1.341780e-03    2.077034e-02    0.000000e+00
   -1.522433e-03    2.117207e-02    0.000000e+00
   -2.046280e-03    2.182730e-02    0.000000e+00
   -1.802730e-03    2.162112e-02    0.000000e+00
   -2.093920e-03    2.184695e-02    0.000000e+00
   -1.850226e-03    2.167503e-02    0.000000e+00
   -1.997222e-03    2.179933e-02    0.000000e+00
   -9.689103e-04    1.951233e-02    0.000000e+00
   -1.175393e-03    2.030153e-02    0.000000e+00
   -8.940301e-04    1.908874e-02    0.000000e+00
   -1.136595e-03    2.017633e-02    0.000000e+00
   -2.150782e-03    2.186611e-02    0.000000e+00
   -1.568591e-03    2.126094e-02    0.000000e+00
   -1.661474e-03    2.142249e-02    0.000000e+00
   -1.430768e-03    2.097983e-02    0.000000e+00
   -1.898197e-03    2.172256e-02    0.000000e+00
   -1.708248e-03    2.149469e-02    0.000000e+00
   -9.166971e-04    1.923203e-02    0.000000e+00
   -1.063909e-03    1.991759e-02    0.000000e+00
   -8.432788e-04    1.865336e-02    0.000000e+00
   -1.298717e-03    2.065919e-02    0.000000e+00
   -2.194963e-03    2.206576e-02    0.000000e+00
   -6.159215e-04    1.807486e-02    0.000000e+00
   -2.191038e-03    2.209799e-02    0.000000e+00
   -6.099278e-04    1.811407e-02    0.000000e+00
   -2.184083e-03    2.215843e-02    0.000000e+00
   -5.973699e-04    1.817437e-02    0.000000e+00
   -2.189869e-03    2.196189e-02    0.000000e+00
   -2.185338e-03    2.192154e-02    0.000000e+00
   -2.172147e-03    2.189433e-02    0.000000e+00
   -2.190784e-03    2.198863e-02    0.000000e+00
   -2.188240e-03    2.193984e-02    0.000000e+00
   -2.180335e-03    2.190678e-02    0.000000e+00
   -6.355023e-04    1.811371e-02    0.000000e+00
   -6.486709e-04    1.811996e-02    0.000000e+00
   -6.441753e-04    1.811880e-02    0.000000e+00
   -6.310847e-04    1.810727e-02    0.000000e+00
   -6.398162e-04    1.811731e-02    0.000000e+00
   -6.721498e-04    1.813633e-02    0.000000e+00
   -6.801683e-04    1.814289e-02    0.000000e+00
   -6.900046e-04    1.815061e-02    0.000000e+00
   -7.018619e-04    1.816062e-02    0.000000e+00
   -7.156144e-04    1.817867e-02    0.000000e+00
   -2.189375e-03    2.195045e-02    0.000000e+00
   -2.190984e-03    2.200422e-02    0.000000e+00
   -2.190368e-03    2.197456e-02    0.000000e+00
   -2.186834e-03    2.193027e-02    0.000000e+00
   -2.183097e-03    2.191379e-02    0.000000e+00
   -2.176763e-03    2.190042e-02    0.000000e+00
   -2.165844e-03    2.188772e-02    0.000000e+00
   -2.189937e-03    2.203759e-02    0.000000e+00
   -6.237770e-04    1.811867e-02    0.000000e+00
   -8.068410e-04    1.815104e-02    0.000000e+00
   -1.476360e-03    2.107827e-02    0.000000e+00
   -1.215363e-03    2.042445e-02    0.000000e+00
   -1.458764e-03    2.087844e-02    0.000000e+00
   -1.912322e-03    2.169559e-02    0.000000e+00
   -2.050367e-03    2.182291e-02    0.000000e+00
   -1.824765e-03    2.157941e-02    0.000000e+00
   -1.691455e-03    2.135761e-02    0.000000e+00
   -9.865275e-04    1.952056e-02    0.000000e+00
   -1.022256e-03    1.965426e-02    0.000000e+00
   -8.272419e-04    1.869127e-02    0.000000e+00
   -1.184971e-03    2.017347e-02    0.000000e+00
   -1.600241e-03    2.118044e-02    0.000000e+00
   -2.003957e-03    2.178599e-02    0.000000e+00
   -1.060362e-03    1.978610e-02    0.000000e+00
   -8.682491e-04    1.897291e-02    0.000000e+00
   -1.141915e-03    2.004608e-02    0.000000e+00
   -1.319659e-03    2.054253e-02    0.000000e+00
   -8.936549e-04    1.911187e-02    0.000000e+00
   -1.411847e-03    2.077039e-02    0.000000e+00
   -9.222196e-04    1.924941e-02    0.000000e+00
   -1.646259e-03    2.127184e-02    0.000000e+00
   -1.736086e-03    2.143773e-02    0.000000e+00
   -8.115459e-04    1.854256e-02    0.000000e+00
   -8.458860e-04    1.883314e-02    0.000000e+00
   -1.868467e-03    2.164078e-02    0.000000e+00
   -9.530321e-04    1.938580e-02    0.000000e+00
   -1.365487e-03    2.065860e-02    0.000000e+00
   -1.100366e-03    1.991683e-02    0.000000e+00
   -1.957147e-03    2.174440e-02    0.000000e+00
   -1.780426e-03    2.151169e-02    0.000000e+00
   -2.183908e-03    2.205950e-02    0.000000e+00
   -6.224894e-04    1.818216e-02    0.000000e+00
   -2.175181e-03    2.208939e-02    0.000000e+00
   -6.215194e-04    1.826272e-02    0.000000e+00
   -2.165099e-03    2.226161e-02    0.000000e+00
   -5.705845e-04    1.828878e-02    0.000000e+00
   -2.174686e-03    2.190796e-02    0.000000e+00
   -2.160143e-03    2.188673e-02    0.000000e+00
   -6.656381e-04    1.818894e-02    0.000000e+00
   -6.727200e-04    1.820054e-02    0.000000e+00
   -6.808806e-04    1.821161e-02    0.000000e+00
   -6.901877e-04    1.822303e-02    0.000000e+00
   -7.009686e-04    1.823763e-02    0.000000e+00
   -2.166234e-03    2.189329e-02    0.000000e+00
   -2.170873e-03    2.190025e-02    0.000000e+00
   -7.274174e-04    1.827383e-02    0.000000e+00
   -2.151924e-03    2.188004e-02    0.000000e+00
   -2.184558e-03    2.198908e-02    0.000000e+00
   -2.184035e-03    2.197335e-02    0.000000e+00
   -2.141982e-03    2.187386e-02    0.000000e+00
   -2.184634e-03    2.200864e-02    0.000000e+00
   -2.177611e-03    2.191637e-02    0.000000e+00
   -6.315914e-04    1.815928e-02    0.000000e+00
   -6.377420e-04    1.817421e-02    0.000000e+00
   -6.555200e-04    1.818078e-02    0.000000e+00
   -6.428680e-04    1.818046e-02    0.000000e+00
   -2.183253e-03    2.195929e-02    0.000000e+00
   -6.518512e-04    1.818229e-02    0.000000e+00
   -6.474340e-04    1.818279e-02    0.000000e+00
   -2.182252e-03    2.194677e-02    0.000000e+00
   -7.705825e-04    1.835216e-02    0.000000e+00
   -1.506045e-03    2.098324e-02    0.000000e+00
   -1.229039e-03    2.029929e-02    0.000000e+00
   -1.273976e-03    2.042267e-02    0.000000e+00
   -1.553342e-03    2.108407e-02    0.000000e+00
   -7.998434e-04    1.859396e-02    0.000000e+00
   -2.006634e-03    2.176798e-02    0.000000e+00
   -8.187147e-04    1.873058e-02    0.000000e+00
   -1.884474e-03    2.160165e-02    0.000000e+00
   -8.423284e-04    1.886731e-02    0.000000e+00
   -9.003626e-04    1.913647e-02    0.000000e+00
   -9.338567e-04    1.926993e-02    0.000000e+00
   -1.924967e-03    2.166344e-02    0.000000e+00
   -8.696304e-04    1.900252e-02    0.000000e+00
   -1.965683e-03    2.171916e-02    0.000000e+00
   -9.701928e-04    1.940198e-02    0.000000e+00
   -1.843475e-03    2.153349e-02    0.000000e+00
   -1.009161e-03    1.953310e-02    0.000000e+00
   -1.801873e-03    2.145870e-02    0.000000e+00
   -1.759671e-03    2.137759e-02    0.000000e+00
   -1.050761e-03    1.966366e-02    0.000000e+00
   -1.429513e-03    2.066621e-02    0.000000e+00
   -1.380911e-03    2.055013e-02    0.000000e+00
   -1.478217e-03    2.077874e-02    0.000000e+00
   -1.716335e-03    2.129025e-02    0.000000e+00
   -1.671335e-03    2.119687e-02    0.000000e+00
   -1.094379e-03    1.979393e-02    0.000000e+00
   -1.186967e-03    2.005217e-02    0.000000e+00
   -1.139875e-03    1.992361e-02    0.000000e+00
   -2.118198e-03    2.186162e-02    0.000000e+00
   -2.179075e-03    2.202285e-02    0.000000e+00
   -6.333881e-04    1.821966e-02    0.000000e+00
   -2.170643e-03    2.203601e-02    0.000000e+00
   -6.382064e-04    1.830115e-02    0.000000e+00
   -2.159493e-03    2.212792e-02    0.000000e+00
   -6.245269e-04    1.839248e-02    0.000000e+00
   -2.106062e-03    2.185180e-02    0.000000e+00
   -2.167260e-03    2.189984e-02    0.000000e+00
   -2.157059e-03    2.188243e-02    0.000000e+00
   -6.834337e-04    1.827473e-02    0.000000e+00
   -6.930712e-04    1.829151e-02    0.000000e+00
   -2.149648e-03    2.187470e-02    0.000000e+00
   -2.162677e-03    2.189061e-02    0.000000e+00
   -7.040811e-04    1.831130e-02    0.000000e+00
   -7.174434e-04    1.833808e-02    0.000000e+00
   -6.419184e-04    1.823964e-02    0.000000e+00
   -7.527817e-04    1.836534e-02    0.000000e+00
   -7.339567e-04    1.836394e-02    0.000000e+00
   -2.177707e-03    2.196985e-02    0.000000e+00
   -2.173835e-03    2.192102e-02    0.000000e+00
   -6.579100e-04    1.824891e-02    0.000000e+00
   -2.139138e-03    2.186610e-02    0.000000e+00
   -2.124549e-03    2.185690e-02    0.000000e+00
   -2.175566e-03    2.194009e-02    0.000000e+00
   -6.482365e-04    1.824779e-02    0.000000e+00
   -6.533616e-04    1.825005e-02    0.000000e+00
   -8.013663e-04    1.834866e-02    0.000000e+00
   -2.176507e-03    2.195380e-02    0.000000e+00
   -1.332013e-03    2.043019e-02    0.000000e+00
   -1.527228e-03    2.088844e-02    0.000000e+00
   -1.624433e-03    2.109823e-02    0.000000e+00
   -1.234776e-03    2.018032e-02    0.000000e+00
   -1.035974e-03    1.954970e-02    0.000000e+00
   -1.082603e-03    1.967877e-02    0.000000e+00
   -7.760873e-04    1.850994e-02    0.000000e+00
   -1.898246e-03    2.155902e-02    0.000000e+00
   -1.859662e-03    2.148456e-02    0.000000e+00
   -9.123505e-04    1.916348e-02    0.000000e+00
   -9.506898e-04    1.929249e-02    0.000000e+00
   -8.449844e-04    1.890214e-02    0.000000e+00
   -1.936033e-03    2.162711e-02    0.000000e+00
   -9.919330e-04    1.942093e-02    0.000000e+00
   -1.489632e-03    2.068115e-02    0.000000e+00
   -1.973725e-03    2.168910e-02    0.000000e+00
   -8.770552e-04    1.903331e-02    0.000000e+00
   -1.820186e-03    2.140345e-02    0.000000e+00
   -1.439027e-03    2.056419e-02    0.000000e+00
   -2.047388e-03    2.179128e-02    0.000000e+00
   -8.163359e-04    1.876719e-02    0.000000e+00
   -7.917028e-04    1.862894e-02    0.000000e+00
   -2.011196e-03    2.174430e-02    0.000000e+00
   -1.779284e-03    2.131545e-02    0.000000e+00
   -1.735922e-03    2.122077e-02    0.000000e+00
   -1.182005e-03    1.993786e-02    0.000000e+00
   -1.131468e-03    1.980805e-02    0.000000e+00
   -1.576136e-03    2.099515e-02    0.000000e+00
   -1.283158e-03    2.030668e-02    0.000000e+00
   -2.174938e-03    2.199268e-02    0.000000e+00
   -2.168190e-03    2.199676e-02    0.000000e+00
   -6.493559e-04    1.831750e-02    0.000000e+00
   -2.156839e-03    2.204706e-02    0.000000e+00
   -6.488916e-04    1.841145e-02    0.000000e+00
   -6.746612e-04    1.829953e-02    0.000000e+00
   -2.161623e-03    2.189252e-02    0.000000e+00
   -2.167673e-03    2.191799e-02    0.000000e+00
   -2.155682e-03    2.187941e-02    0.000000e+00
   -6.872076e-04    1.833311e-02    0.000000e+00
   -6.981040e-04    1.835631e-02    0.000000e+00
   -2.149046e-03    2.186870e-02    0.000000e+00
   -2.140720e-03    2.185885e-02    0.000000e+00
   -7.381857e-04    1.844919e-02    0.000000e+00
   -7.097886e-04    1.838123e-02    0.000000e+00
   -7.227394e-04    1.841037e-02    0.000000e+00
   -6.707830e-04    1.831555e-02    0.000000e+00
   -2.128721e-03    2.184826e-02    0.000000e+00
   -2.111875e-03    2.183581e-02    0.000000e+00
   -6.668570e-04    1.832097e-02    0.000000e+00
   -2.171487e-03    2.196814e-02    0.000000e+00
   -2.168245e-03    2.192987e-02    0.000000e+00
   -6.569205e-04    1.832330e-02    0.000000e+00
   -6.624412e-04    1.832391e-02    0.000000e+00
   -2.169388e-03    2.194670e-02    0.000000e+00
   -1.388199e-03    2.044444e-02    0.000000e+00
   -1.540191e-03    2.079435e-02    0.000000e+00
   -1.689714e-03    2.112007e-02    0.000000e+00
   -1.233317e-03    2.006790e-02    0.000000e+00
   -1.017021e-03    1.944333e-02    0.000000e+00
   -9.714213e-04    1.931715e-02    0.000000e+00
   -1.285051e-03    2.019646e-02    0.000000e+00
   -1.910036e-03    2.151433e-02    0.000000e+00
   -1.945571e-03    2.158793e-02    0.000000e+00
   -1.835340e-03    2.134693e-02    0.000000e+00
   -9.288541e-04    1.919149e-02    0.000000e+00
   -8.892363e-04    1.906474e-02    0.000000e+00
   -8.526923e-04    1.893622e-02    0.000000e+00
   -1.065818e-03    1.957044e-02    0.000000e+00
   -1.873584e-03    2.143429e-02    0.000000e+00
   -1.590932e-03    2.090560e-02    0.000000e+00
   -1.794180e-03    2.125187e-02    0.000000e+00
   -1.492985e-03    2.058526e-02    0.000000e+00
   -7.604363e-04    1.850775e-02    0.000000e+00
   -1.980628e-03    2.165540e-02    0.000000e+00
   -8.189405e-04    1.880370e-02    0.000000e+00
   -2.050044e-03    2.177091e-02    0.000000e+00
   -2.015379e-03    2.171652e-02    0.000000e+00
   -1.641076e-03    2.101468e-02    0.000000e+00
   -7.887892e-04    1.866471e-02    0.000000e+00
   -1.336534e-03    2.032193e-02    0.000000e+00
   -1.117306e-03    1.969906e-02    0.000000e+00
   -1.170877e-03    1.982936e-02    0.000000e+00
   -2.085709e-03    2.181990e-02    0.000000e+00
   -2.157160e-03    2.199443e-02    0.000000e+00
   -6.622306e-04    1.841388e-02    0.000000e+00
   -2.133344e-03    2.204155e-02    0.000000e+00
   -6.944630e-04    1.839511e-02    0.000000e+00
   -2.159166e-03    2.189184e-02    0.000000e+00
   -2.150296e-03    2.186831e-02    0.000000e+00
   -6.872977e-04    1.838708e-02    0.000000e+00
   -2.142247e-03    2.185321e-02    0.000000e+00
   -2.132662e-03    2.184028e-02    0.000000e+00
   -7.053729e-04    1.841891e-02    0.000000e+00
   -7.177480e-04    1.844825e-02    0.000000e+00
   -7.315565e-04    1.848317e-02    0.000000e+00
   -2.159514e-03    2.190185e-02    0.000000e+00
   -7.423888e-04    1.850544e-02    0.000000e+00
   -2.121122e-03    2.182794e-02    0.000000e+00
   -6.835064e-04    1.839304e-02    0.000000e+00
   -6.799711e-04    1.839967e-02    0.000000e+00
   -2.159769e-03    2.191555e-02    0.000000e+00
   -6.761385e-04    1.840686e-02    0.000000e+00
   -2.160614e-03    2.193875e-02    0.000000e+00
   -1.438996e-03    2.046615e-02    0.000000e+00
   -1.544801e-03    2.070249e-02    0.000000e+00
   -1.749393e-03    2.114959e-02    0.000000e+00
   -9.948150e-04    1.934404e-02    0.000000e+00
   -1.280352e-03    2.009230e-02    0.000000e+00
   -1.225572e-03    1.996108e-02    0.000000e+00
   -9.484753e-04    1.922085e-02    0.000000e+00
   -1.597360e-03    2.081529e-02    0.000000e+00
   -1.920185e-03    2.146914e-02    0.000000e+00
   -1.953792e-03    2.154732e-02    0.000000e+00
   -1.885056e-03    2.138385e-02    0.000000e+00
   -1.986568e-03    2.161943e-02    0.000000e+00
   -9.050313e-04    1.909668e-02    0.000000e+00
   -8.639171e-04    1.896865e-02    0.000000e+00
   -1.044698e-03    1.946848e-02    0.000000e+00
   -1.333585e-03    2.022289e-02    0.000000e+00
   -1.846583e-03    2.128977e-02    0.000000e+00
   -8.256242e-04    1.883736e-02    0.000000e+00
   -2.081671e-03    2.179438e-02    0.000000e+00
   -1.701162e-03    2.104153e-02    0.000000e+00
   -2.050765e-03    2.174460e-02    0.000000e+00
   -2.019137e-03    2.168586e-02    0.000000e+00
   -7.918441e-04    1.870608e-02    0.000000e+00
   -7.619306e-04    1.857411e-02    0.000000e+00
   -1.650054e-03    2.092936e-02    0.000000e+00
   -1.097973e-03    1.959575e-02    0.000000e+00
   -1.154149e-03    1.972609e-02    0.000000e+00
   -2.166748e-03    2.197150e-02    0.000000e+00
   -2.157680e-03    2.195916e-02    0.000000e+00
   -6.705399e-04    1.841186e-02    0.000000e+00
   -2.140800e-03    2.198213e-02    0.000000e+00
   -6.841009e-04    1.853440e-02    0.000000e+00
   -2.137614e-03    2.214733e-02    0.000000e+00
   -7.043391e-04    1.845307e-02    0.000000e+00
   -7.151088e-04    1.848093e-02    0.000000e+00
   -2.144501e-03    2.185429e-02    0.000000e+00
   -2.150419e-03    2.187340e-02    0.000000e+00
   -2.136425e-03    2.183650e-02    0.000000e+00
   -2.126425e-03    2.182082e-02    0.000000e+00
   -7.281264e-04    1.851290e-02    0.000000e+00
   -7.426407e-04    1.855130e-02    0.000000e+00
   -2.113291e-03    2.180507e-02    0.000000e+00
   -2.101346e-03    2.179631e-02    0.000000e+00
   -7.027123e-04    1.846510e-02    0.000000e+00
   -2.149362e-03    2.187840e-02    0.000000e+00
   -6.998145e-04    1.847266e-02    0.000000e+00
   -6.982900e-04    1.848686e-02    0.000000e+00
   -2.148546e-03    2.189116e-02    0.000000e+00
   -9.700945e-04    1.925106e-02    0.000000e+00
   -1.960657e-03    2.150720e-02    0.000000e+00
   -1.430166e-03    2.037582e-02    0.000000e+00
   -1.928589e-03    2.142507e-02    0.000000e+00
   -1.593946e-03    2.072035e-02    0.000000e+00
   -1.803719e-03    2.118668e-02    0.000000e+00
   -9.235633e-04    1.912971e-02    0.000000e+00
   -1.020023e-03    1.937230e-02    0.000000e+00
   -1.991597e-03    2.158275e-02    0.000000e+00
   -1.212223e-03    1.985925e-02    0.000000e+00
   -1.329429e-03    2.012894e-02    0.000000e+00
   -8.783779e-04    1.900279e-02    0.000000e+00
   -1.385716e-03    2.026164e-02    0.000000e+00
   -1.650869e-03    2.084121e-02    0.000000e+00
   -1.271029e-03    1.999432e-02    0.000000e+00
   -1.893195e-03    2.133345e-02    0.000000e+00
   -2.022706e-03    2.165335e-02    0.000000e+00
   -8.341770e-04    1.886800e-02    0.000000e+00
   -2.080005e-03    2.177214e-02    0.000000e+00
   -2.053690e-03    2.171833e-02    0.000000e+00
   -7.626972e-04    1.860978e-02    0.000000e+00
   -1.705252e-03    2.096044e-02    0.000000e+00
   -1.074110e-03    1.949717e-02    0.000000e+00
   -1.756334e-03    2.107622e-02    0.000000e+00
   -1.132105e-03    1.962717e-02    0.000000e+00
   -1.540983e-03    2.061776e-02    0.000000e+00
   -6.958327e-04    1.850247e-02    0.000000e+00
   -2.143265e-03    2.193771e-02    0.000000e+00
   -6.899295e-04    1.851240e-02    0.000000e+00
   -2.145722e-03    2.190876e-02    0.000000e+00
   -6.733370e-04    1.856861e-02    0.000000e+00
   -2.121661e-03    2.195347e-02    0.000000e+00
   -2.100862e-03    2.205876e-02    0.000000e+00
   -7.263850e-04    1.854168e-02    0.000000e+00
   -2.129398e-03    2.181457e-02    0.000000e+00
   -2.122510e-03    2.180448e-02    0.000000e+00
   -2.137291e-03    2.183601e-02    0.000000e+00
   -7.416325e-04    1.857708e-02    0.000000e+00
   -2.108430e-03    2.178059e-02    0.000000e+00
   -7.568547e-04    1.861735e-02    0.000000e+00
   -7.232075e-04    1.855006e-02    0.000000e+00
   -2.136353e-03    2.184282e-02    0.000000e+00
   -7.184168e-04    1.854918e-02    0.000000e+00
   -1.966464e-03    2.146912e-02    0.000000e+00
   -1.572643e-03    2.059644e-02    0.000000e+00
   -1.995733e-03    2.154659e-02    0.000000e+00
   -9.437516e-04    1.916411e-02    0.000000e+00
   -1.442015e-03    2.032993e-02    0.000000e+00
   -8.975448e-04    1.904231e-02    0.000000e+00
   -9.923960e-04    1.928058e-02    0.000000e+00
   -1.643235e-03    2.074768e-02    0.000000e+00
   -1.852957e-03    2.123111e-02    0.000000e+00
   -1.934529e-03    2.138199e-02    0.000000e+00
   -1.382730e-03    2.018350e-02    0.000000e+00
   -8.505392e-04    1.891141e-02    0.000000e+00
   -1.193084e-03    1.976170e-02    0.000000e+00
   -2.025566e-03    2.161875e-02    0.000000e+00
   -1.319041e-03    2.003941e-02    0.000000e+00
   -2.056520e-03    2.168853e-02    0.000000e+00
   -2.087388e-03    2.175663e-02    0.000000e+00
   -1.702118e-03    2.087678e-02    0.000000e+00
   -1.046320e-03    1.940268e-02    0.000000e+00
   -1.255719e-03    1.989972e-02    0.000000e+00
   -1.756735e-03    2.100038e-02    0.000000e+00
   -1.807180e-03    2.111920e-02    0.000000e+00
   -1.105248e-03    1.953152e-02    0.000000e+00
   -2.133048e-03    2.185145e-02    0.000000e+00
   -7.203557e-04    1.860532e-02    0.000000e+00
   -2.125842e-03    2.186228e-02    0.000000e+00
   -2.101669e-03    2.187616e-02    0.000000e+00
   -7.248516e-04    1.869387e-02    0.000000e+00
   -2.102093e-03    2.195280e-02    0.000000e+00
   -2.070271e-03    2.212746e-02    0.000000e+00
   -2.086064e-03    2.172335e-02    0.000000e+00
   -2.110200e-03    2.176766e-02    0.000000e+00
   -7.740550e-04    1.868200e-02    0.000000e+00
   -2.122504e-03    2.179406e-02    0.000000e+00
   -7.482586e-04    1.864390e-02    0.000000e+00
   -7.805098e-04    1.868626e-02    0.000000e+00
   -1.509664e-03    2.042682e-02    0.000000e+00
   -1.998656e-03    2.151380e-02    0.000000e+00
   -9.202324e-04    1.909264e-02    0.000000e+00
   -1.971102e-03    2.143476e-02    0.000000e+00
   -9.627804e-04    1.919323e-02    0.000000e+00
   -2.025632e-03    2.158310e-02    0.000000e+00
   -1.445382e-03    2.025827e-02    0.000000e+00
   -8.744624e-04    1.897010e-02    0.000000e+00
   -1.897351e-03    2.128242e-02    0.000000e+00
   -1.168453e-03    1.966672e-02    0.000000e+00
   -1.015322e-03    1.931124e-02    0.000000e+00
   -1.369359e-03    2.009518e-02    0.000000e+00
   -2.055320e-03    2.165180e-02    0.000000e+00
   -1.693140e-03    2.079304e-02    0.000000e+00
   -1.301276e-03    1.994897e-02    0.000000e+00
   -1.750676e-03    2.092255e-02    0.000000e+00
   -1.074253e-03    1.943852e-02    0.000000e+00
   -1.234289e-03    1.980664e-02    0.000000e+00
   -1.853914e-03    2.117049e-02    0.000000e+00
   -1.804661e-03    2.104951e-02    0.000000e+00
   -7.600399e-04    1.864939e-02    0.000000e+00
   -2.119353e-03    2.178375e-02    0.000000e+00
   -1.633603e-03    2.066095e-02    0.000000e+00
   -7.126288e-04    1.861076e-02    0.000000e+00
   -7.268955e-04    1.859705e-02    0.000000e+00
   -7.526472e-04    1.863953e-02    0.000000e+00
   -2.114190e-03    2.179778e-02    0.000000e+00
   -2.104043e-03    2.182492e-02    0.000000e+00
   -7.141819e-04    1.873633e-02    0.000000e+00
   -2.074356e-03    2.192807e-02    0.000000e+00
   -2.052859e-03    2.196815e-02    0.000000e+00
   -2.085980e-03    2.231309e-02    0.000000e+00
   -2.094544e-03    2.172706e-02    0.000000e+00
   -1.471497e-03    2.026390e-02    0.000000e+00
   -2.106295e-03    2.174491e-02    0.000000e+00
   -8.069391e-04    1.878213e-02    0.000000e+00
   -7.980198e-04    1.875177e-02    0.000000e+00
   -2.002916e-03    2.148996e-02    0.000000e+00
   -2.108209e-03    2.174944e-02    0.000000e+00
   -2.022475e-03    2.155045e-02    0.000000e+00
   -7.918282e-04    1.874413e-02    0.000000e+00
   -2.100501e-03    2.173336e-02    0.000000e+00
   -1.576306e-03    2.052238e-02    0.000000e+00
   -9.814391e-04    1.922146e-02    0.000000e+00
   -2.047246e-03    2.160661e-02    0.000000e+00
   -1.937513e-03    2.133992e-02    0.000000e+00
   -1.414682e-03    2.014713e-02    0.000000e+00
   -1.138738e-03    1.957387e-02    0.000000e+00
   -1.346878e-03    2.000500e-02    0.000000e+00
   -1.039860e-03    1.934740e-02    0.000000e+00
   -1.738238e-03    2.084337e-02    0.000000e+00
   -8.358746e-04    1.886358e-02    0.000000e+00
   -1.277046e-03    1.985991e-02    0.000000e+00
   -1.678974e-03    2.071228e-02    0.000000e+00
   -1.896799e-03    2.122998e-02    0.000000e+00
   -1.796016e-03    2.097758e-02    0.000000e+00
   -7.817118e-04    1.873272e-02    0.000000e+00
   -1.207032e-03    1.971530e-02    0.000000e+00
   -1.849269e-03    2.110793e-02    0.000000e+00
   -7.851935e-04    1.873164e-02    0.000000e+00
   -9.292872e-04    1.910317e-02    0.000000e+00
   -1.519356e-03    2.038047e-02    0.000000e+00
   -2.105050e-03    2.179237e-02    0.000000e+00
   -7.610149e-04    1.869801e-02    0.000000e+00
   -2.120138e-03    2.179629e-02    0.000000e+00
   -7.555131e-04    1.870300e-02    0.000000e+00
   -2.035266e-03    2.181096e-02    0.000000e+00
   -2.073347e-03    2.176203e-02    0.000000e+00
   -7.727527e-04    1.887149e-02    0.000000e+00
   -7.843138e-04    1.884122e-02    0.000000e+00
   -2.073146e-03    2.184295e-02    0.000000e+00
   -2.141751e-03    2.240928e-02    0.000000e+00
   -2.027894e-03    2.216374e-02    0.000000e+00
   -2.077877e-03    2.167825e-02    0.000000e+00
   -1.457872e-03    2.020543e-02    0.000000e+00
   -2.085813e-03    2.168143e-02    0.000000e+00
   -8.520689e-04    1.890709e-02    0.000000e+00
   -1.626563e-03    2.059978e-02    0.000000e+00
   -7.914624e-04    1.879134e-02    0.000000e+00
   -1.974021e-03    2.140400e-02    0.000000e+00
   -2.101399e-03    2.174032e-02    0.000000e+00
   -8.180873e-04    1.881873e-02    0.000000e+00
   -1.105237e-03    1.948335e-02    0.000000e+00
   -1.002910e-03    1.925757e-02    0.000000e+00
   -1.391194e-03    2.006625e-02    0.000000e+00
   -1.719340e-03    2.076296e-02    0.000000e+00
   -1.319547e-03    1.991918e-02    0.000000e+00
   -8.155724e-04    1.881969e-02    0.000000e+00
   -1.936597e-03    2.129818e-02    0.000000e+00
   -1.781519e-03    2.090479e-02    0.000000e+00
   -1.246970e-03    1.977189e-02    0.000000e+00
   -7.855963e-04    1.875720e-02    0.000000e+00
   -1.175432e-03    1.962683e-02    0.000000e+00
   -8.985028e-04    1.902328e-02    0.000000e+00
   -2.031252e-03    2.154932e-02    0.000000e+00
   -9.478678e-04    1.913741e-02    0.000000e+00
   -2.083721e-03    2.173624e-02    0.000000e+00
   -1.839502e-03    2.104472e-02    0.000000e+00
   -1.891344e-03    2.117703e-02    0.000000e+00
   -1.518199e-03    2.033629e-02    0.000000e+00
   -7.912248e-04    1.881807e-02    0.000000e+00
   -8.390856e-04    1.900689e-02    0.000000e+00
   -7.523389e-04    1.890519e-02    0.000000e+00
   -2.003092e-03    2.185705e-02    0.000000e+00
   -2.040912e-03    2.172278e-02    0.000000e+00
   -1.957889e-03    2.217075e-02    0.000000e+00
   -2.035084e-03    2.238200e-02    0.000000e+00
   -2.059451e-03    2.160401e-02    0.000000e+00
   -2.058146e-03    2.161264e-02    0.000000e+00
   -8.116581e-04    1.881858e-02    0.000000e+00
   -2.088568e-03    2.169111e-02    0.000000e+00
   -2.007574e-03    2.147341e-02    0.000000e+00
   -1.436196e-03    2.013670e-02    0.000000e+00
   -1.655540e-03    2.062590e-02    0.000000e+00
   -8.511104e-04    1.890662e-02    0.000000e+00
   -1.068486e-03    1.939441e-02    0.000000e+00
   -1.584793e-03    2.048392e-02    0.000000e+00
   -9.663908e-04    1.917405e-02    0.000000e+00
   -1.973805e-03    2.137385e-02    0.000000e+00
   -1.360680e-03    1.998315e-02    0.000000e+00
   -1.506470e-03    2.028386e-02    0.000000e+00
   -1.761902e-03    2.083208e-02    0.000000e+00
   -1.286221e-03    1.983424e-02    0.000000e+00
   -1.141943e-03    1.954364e-02    0.000000e+00
   -1.215321e-03    1.969201e-02    0.000000e+00
   -1.930649e-03    2.125450e-02    0.000000e+00
   -1.825259e-03    2.098297e-02    0.000000e+00
   -8.249506e-04    1.886490e-02    0.000000e+00
   -1.881341e-03    2.112403e-02    0.000000e+00
   -9.187013e-04    1.906754e-02    0.000000e+00
   -8.350938e-04    1.891252e-02    0.000000e+00
   -2.053765e-03    2.165926e-02    0.000000e+00
   -2.091977e-03    2.173093e-02    0.000000e+00
   -8.393641e-04    1.895709e-02    0.000000e+00
   -8.311922e-04    1.905984e-02    0.000000e+00
   -2.025625e-03    2.201317e-02    0.000000e+00
   -1.981132e-03    2.168979e-02    0.000000e+00
   -2.006902e-03    2.167137e-02    0.000000e+00
   -1.896654e-03    2.191770e-02    0.000000e+00
   -8.553550e-04    1.892631e-02    0.000000e+00
   -2.036334e-03    2.154353e-02    0.000000e+00
   -2.077241e-03    2.166587e-02    0.000000e+00
   -1.693371e-03    2.067906e-02    0.000000e+00
   -1.026141e-03    1.930126e-02    0.000000e+00
   -1.403772e-03    2.005794e-02    0.000000e+00
   -2.009624e-03    2.145880e-02    0.000000e+00
   -1.561317e-03    2.040540e-02    0.000000e+00
   -1.485372e-03    2.022457e-02    0.000000e+00
   -2.060843e-03    2.163802e-02    0.000000e+00
   -1.320553e-03    1.989220e-02    0.000000e+00
   -1.104043e-03    1.946042e-02    0.000000e+00
   -9.353437e-04    1.910560e-02    0.000000e+00
   -1.966563e-03    2.133738e-02    0.000000e+00
   -1.253531e-03    1.976082e-02    0.000000e+00
   -1.807256e-03    2.092667e-02    0.000000e+00
   -1.189415e-03    1.963184e-02    0.000000e+00
   -8.818451e-04    1.898102e-02    0.000000e+00
   -1.621780e-03    2.052794e-02    0.000000e+00
   -2.063146e-03    2.161144e-02    0.000000e+00
   -1.867566e-03    2.107492e-02    0.000000e+00
   -2.004858e-03    2.158550e-02    0.000000e+00
   -1.920636e-03    2.121203e-02    0.000000e+00
   -2.040406e-03    2.166455e-02    0.000000e+00
   -8.780318e-04    1.899735e-02    0.000000e+00
   -9.004469e-04    1.911644e-02    0.000000e+00
   -8.917003e-04    1.905645e-02    0.000000e+00
   -9.133746e-04    1.920654e-02    0.000000e+00
   -1.943579e-03    2.171639e-02    0.000000e+00
   -1.924066e-03    2.154118e-02    0.000000e+00
   -8.224864e-04    1.913160e-02    0.000000e+00
   -1.879503e-03    2.205548e-02    0.000000e+00
   -1.570501e-03    2.040268e-02    0.000000e+00
   -2.040622e-03    2.154576e-02    0.000000e+00
   -1.906226e-03    2.117294e-02    0.000000e+00
   -9.806395e-04    1.920585e-02    0.000000e+00
   -1.733862e-03    2.075387e-02    0.000000e+00
   -2.045067e-03    2.156712e-02    0.000000e+00
   -1.451574e-03    2.015291e-02    0.000000e+00
   -1.359624e-03    1.996923e-02    0.000000e+00
   -1.044415e-03    1.934118e-02    0.000000e+00
   -1.993678e-03    2.140926e-02    0.000000e+00
   -8.936278e-04    1.901069e-02    0.000000e+00
   -9.247416e-04    1.908919e-02    0.000000e+00
   -2.028237e-03    2.156178e-02    0.000000e+00
   -1.654492e-03    2.058008e-02    0.000000e+00
   -1.957047e-03    2.130657e-02    0.000000e+00
   -1.789437e-03    2.088723e-02    0.000000e+00
   -1.166678e-03    1.958783e-02    0.000000e+00
   -9.582937e-04    1.921482e-02    0.000000e+00
   -9.431201e-04    1.915008e-02    0.000000e+00
   -9.626050e-04    1.926442e-02    0.000000e+00
   -1.950468e-03    2.143012e-02    0.000000e+00
   -1.907460e-03    2.139512e-02    0.000000e+00
   -8.972056e-04    1.925320e-02    0.000000e+00
   -1.892651e-03    2.224952e-02    0.000000e+00
   -1.825077e-03    2.187701e-02    0.000000e+00
   -1.876603e-03    2.153939e-02    0.000000e+00
   -2.026908e-03    2.150481e-02    0.000000e+00
   -1.613552e-03    2.048919e-02    0.000000e+00
   -1.102763e-03    1.946215e-02    0.000000e+00
   -1.533343e-03    2.031995e-02    0.000000e+00
   -1.886296e-03    2.113595e-02    0.000000e+00
   -9.947941e-04    1.924601e-02    0.000000e+00
   -1.831238e-03    2.100285e-02    0.000000e+00
   -1.998605e-03    2.143071e-02    0.000000e+00
   -2.028968e-03    2.153498e-02    0.000000e+00
   -1.678521e-03    2.063163e-02    0.000000e+00
   -1.940186e-03    2.127358e-02    0.000000e+00
   -1.292860e-03    1.984807e-02    0.000000e+00
   -1.422199e-03    2.010384e-02    0.000000e+00
   -1.213351e-03    1.968952e-02    0.000000e+00
   -1.039056e-03    1.940135e-02    0.000000e+00
   -1.989768e-03    2.147506e-02    0.000000e+00
   -1.015540e-03    1.931132e-02    0.000000e+00
   -1.725961e-03    2.074382e-02    0.000000e+00
   -1.859280e-03    2.137039e-02    0.000000e+00
   -1.891777e-03    2.127225e-02    0.000000e+00
   -9.650587e-04    1.936836e-02    0.000000e+00
   -8.895805e-04    1.931841e-02    0.000000e+00
   -1.892756e-03    2.172938e-02    0.000000e+00
   -1.816606e-03    2.205378e-02    0.000000e+00
   -1.894673e-03    2.249179e-02    0.000000e+00
   -1.656001e-03    2.059387e-02    0.000000e+00
   -1.864628e-03    2.110559e-02    0.000000e+00
   -1.136757e-03    1.953941e-02    0.000000e+00
   -2.003634e-03    2.147394e-02    0.000000e+00
   -1.571871e-03    2.041109e-02    0.000000e+00
   -1.494973e-03    2.025031e-02    0.000000e+00
   -1.358870e-03    1.998313e-02    0.000000e+00
   -1.770658e-03    2.086329e-02    0.000000e+00
   -1.246679e-03    1.977298e-02    0.000000e+00
   -1.912969e-03    2.122784e-02    0.000000e+00
   -1.064888e-03    1.939460e-02    0.000000e+00
   -1.048685e-03    1.955563e-02    0.000000e+00
   -1.933592e-03    2.132343e-02    0.000000e+00
   -2.024845e-03    2.158992e-02    0.000000e+00
   -1.843027e-03    2.122471e-02    0.000000e+00
   -1.097108e-03    1.957126e-02    0.000000e+00
   -9.369677e-04    1.950792e-02    0.000000e+00
   -1.095734e-03    1.947844e-02    0.000000e+00
   -9.627625e-04    1.944011e-02    0.000000e+00
   -1.821133e-03    2.153394e-02    0.000000e+00
   -1.804506e-03    2.135125e-02    0.000000e+00
   -1.732857e-03    2.204437e-02    0.000000e+00
   -7.388137e-04    1.899846e-02    0.000000e+00
   -1.972382e-03    2.270162e-02    0.000000e+00
   -1.398894e-03    2.007921e-02    0.000000e+00
   -1.521565e-03    2.032644e-02    0.000000e+00
   -1.713522e-03    2.073545e-02    0.000000e+00
   -1.177599e-03    1.963988e-02    0.000000e+00
   -1.965678e-03    2.136673e-02    0.000000e+00
   -1.459426e-03    2.019464e-02    0.000000e+00
   -1.876332e-03    2.117081e-02    0.000000e+00
   -1.139502e-03    1.960005e-02    0.000000e+00
   -1.597098e-03    2.049133e-02    0.000000e+00
   -1.315706e-03    1.992057e-02    0.000000e+00
   -1.827802e-03    2.110253e-02    0.000000e+00
   -1.786058e-03    2.118107e-02    0.000000e+00
   -1.041509e-03    1.965317e-02    0.000000e+00
   -1.812535e-03    2.099697e-02    0.000000e+00
   -8.586551e-04    1.946031e-02    0.000000e+00
   -1.744039e-03    2.133936e-02    0.000000e+00
   -1.153372e-03    1.974175e-02    0.000000e+00
   -7.515823e-04    1.919906e-02    0.000000e+00
   -1.721258e-03    2.228220e-02    0.000000e+00
   -1.454549e-03    2.021663e-02    0.000000e+00
   -1.537886e-03    2.039860e-02    0.000000e+00
   -1.736694e-03    2.081859e-02    0.000000e+00
   -1.195837e-03    1.975540e-02    0.000000e+00
   -1.668430e-03    2.065654e-02    0.000000e+00
   -1.230023e-03    1.977030e-02    0.000000e+00
   -1.756730e-03    2.092074e-02    0.000000e+00
   -1.770280e-03    2.103666e-02    0.000000e+00
   -1.697459e-03    2.096095e-02    0.000000e+00
   -1.761477e-03    2.153273e-02    0.000000e+00
   -1.658276e-03    2.113587e-02    0.000000e+00
   -9.504436e-04    1.966739e-02    0.000000e+00
   -1.119646e-03    1.975239e-02    0.000000e+00
   -6.391320e-04    1.885926e-02    0.000000e+00
   -1.038024e-03    1.977735e-02    0.000000e+00
   -1.809738e-03    2.252309e-02    0.000000e+00
   -7.920481e-04    1.945843e-02    0.000000e+00
   -1.681563e-03    2.073827e-02    0.000000e+00
   -1.301060e-03    1.994645e-02    0.000000e+00
   -1.207806e-03    1.991692e-02    0.000000e+00
   -1.694229e-03    2.084365e-02    0.000000e+00
   -1.479191e-03    2.032328e-02    0.000000e+00
   -1.146125e-03    1.990550e-02    0.000000e+00
   -1.637136e-03    2.095323e-02    0.000000e+00
   -1.251404e-03    1.991842e-02    0.000000e+00
   -1.678141e-03    2.134003e-02    0.000000e+00
   -1.831386e-03    2.171606e-02    0.000000e+00
   -1.702157e-03    2.156172e-02    0.000000e+00
   -9.000358e-04    1.968456e-02    0.000000e+00
   -7.457051e-04    1.955143e-02    0.000000e+00
   -1.132335e-03    2.003003e-02    0.000000e+00
   -1.718693e-03    2.255436e-02    0.000000e+00
   -1.609657e-03    2.056492e-02    0.000000e+00
   -1.511899e-03    2.045592e-02    0.000000e+00
   -1.394318e-03    2.014457e-02    0.000000e+00
   -1.607248e-03    2.063637e-02    0.000000e+00
   -1.334607e-03    2.007103e-02    0.000000e+00
   -1.615374e-03    2.081181e-02    0.000000e+00
   -1.565811e-03    2.092460e-02    0.000000e+00
   -1.585013e-03    2.112275e-02    0.000000e+00
   -1.740178e-03    2.181584e-02    0.000000e+00
   -1.307603e-03    2.009070e-02    0.000000e+00
   -1.219127e-03    2.012673e-02    0.000000e+00
   -1.136423e-03    2.019451e-02    0.000000e+00
   -1.596605e-03    2.134580e-02    0.000000e+00
   -6.250531e-04    1.935061e-02    0.000000e+00
   -1.409997e-03    2.025431e-02    0.000000e+00
   -1.634428e-03    2.077425e-02    0.000000e+00
   -1.373528e-03    2.005981e-02    0.000000e+00
   -1.550439e-03    2.075628e-02    0.000000e+00
   -1.321946e-03    2.033012e-02    0.000000e+00
   -1.370328e-03    2.028605e-02    0.000000e+00
   -1.050666e-03    2.015292e-02    0.000000e+00
   -1.228503e-03    2.026526e-02    0.000000e+00
   -1.640802e-03    2.162379e-02    0.000000e+00
   -1.515914e-03    2.110486e-02    0.000000e+00
   -1.474600e-03    2.071255e-02    0.000000e+00
   -1.549042e-03    2.062261e-02    0.000000e+00
   -1.459153e-03    2.042657e-02    0.000000e+00
   -1.447777e-03    2.052116e-02    0.000000e+00
   -1.234711e-03    2.043718e-02    0.000000e+00
   -1.322496e-03    2.048663e-02    0.000000e+00
   -1.146154e-03    2.036019e-02    0.000000e+00
   -9.402481e-04    1.991848e-02    0.000000e+00
   -1.666384e-03    2.184122e-02    0.000000e+00
   -1.581258e-03    2.171703e-02    0.000000e+00
   -1.425487e-03    2.096957e-02    0.000000e+00
   -1.486431e-03    2.120907e-02    0.000000e+00
   -1.395273e-03    2.054127e-02    0.000000e+00
   -1.439460e-03    2.130840e-02    0.000000e+00
   -1.346575e-03    2.069875e-02    0.000000e+00
   -1.079429e-03    2.039320e-02    0.000000e+00
   -9.762757e-04    2.013408e-02    0.000000e+00
   -1.478795e-03    2.155657e-02    0.000000e+00
   -1.376344e-03    2.138080e-02    0.000000e+00
   -1.404177e-03    2.066319e-02    0.000000e+00
   -1.331666e-03    2.085883e-02    0.000000e+00
   -1.144839e-03    2.068986e-02    0.000000e+00
   -1.517544e-03    2.181670e-02    0.000000e+00
   -1.386031e-03    2.107407e-02    0.000000e+00
   -1.404174e-03    2.166446e-02    0.000000e+00
   -1.272177e-03    2.093205e-02    0.000000e+00
   -1.351654e-03    2.117308e-02    0.000000e+00
   -1.466700e-03    2.192201e-02    0.000000e+00
   -1.173504e-03    2.094527e-02    0.000000e+00
   -1.481149e-03    2.217875e-02    0.000000e+00
   -1.064782e-03    2.072305e-02    0.000000e+00
   -1.542328e-03    2.204485e-02    0.000000e+00
   -1.611775e-03    2.230763e-02    0.000000e+00
   -1.365642e-03    2.216322e-02    0.000000e+00
   -9.752056e-04    2.072806e-02    0.000000e+00
   -8.689143e-04    2.046857e-02    0.000000e+00
   -1.284363e-03    2.188832e-02    0.000000e+00
   -8.638373e-04    2.022421e-02    0.000000e+00
   -8.793434e-04    2.073700e-02    0.000000e+00
   -1.253805e-03    2.212538e-02    0.000000e+00
   -1.298695e-03    2.166161e-02    0.000000e+00
   -1.215513e-03    2.166082e-02    0.000000e+00
   -9.631708e-04    2.028053e-02    0.000000e+00
   -7.677331e-04    2.019409e-02    0.000000e+00
   -1.202039e-03    2.143981e-02    0.000000e+00
   -1.110851e-03    2.150351e-02    0.000000e+00
   -6.664466e-04    2.015408e-02    0.000000e+00
   -1.070314e-03    2.174067e-02    0.000000e+00
   -9.923239e-04    2.099071e-02    0.000000e+00
   -9.881028e-04    2.142679e-02    0.000000e+00
   -1.143762e-03    2.205201e-02    0.000000e+00
   -1.043291e-03    2.051462e-02    0.000000e+00
   -1.891590e-03    2.275250e-02    0.000000e+00
   -2.044950e-03    2.263220e-02    0.000000e+00
   -7.038030e-04    1.970300e-02    0.000000e+00
   -5.591295e-04    1.902571e-02    0.000000e+00
   -6.663788e-04    2.043384e-02    0.000000e+00
   -7.745220e-04    2.073590e-02    0.000000e+00
   -1.292966e-03    2.141758e-02    0.000000e+00
   -8.453884e-04    1.970716e-02    0.000000e+00
   -1.544633e-03    2.246579e-02    0.000000e+00
   -1.018002e-03    2.124025e-02    0.000000e+00
   -5.645046e-04    1.983711e-02    0.000000e+00
   -2.156160e-03    2.259235e-02    0.000000e+00
   -1.721506e-03    2.280161e-02    0.000000e+00
   -5.783339e-04    1.853916e-02    0.000000e+00
   -7.714090e-04    1.998882e-02    0.000000e+00
   -1.822220e-03    3.324577e-02    0.000000e+00
   -1.375565e-03    3.321157e-02    0.000000e+00
   -2.400049e-04    3.316871e-02    0.000000e+00
   -8.915281e-04    3.318389e-02    0.000000e+00
   -4.431510e-04    3.319151e-02    0.000000e+00
   -1.358644e-04    3.198715e-02    0.000000e+00
   -9.396303e-05    2.515867e-02    0.000000e+00
   -1.174794e-05    2.352030e-02    0.000000e+00
    9.644305e-05    2.225862e-02    0.000000e+00
    2.911244e-04    2.058671e-02    0.000000e+00
    4.349769e-04    1.944225e-02    0.000000e+00
   -1.348954e-04    2.638986e-02    0.000000e+00
   -1.355894e-04    2.804990e-02    0.000000e+00
   -1.407886e-04    2.925681e-02    0.000000e+00
   -1.373917e-04    3.085559e-02    0.000000e+00
   -2.095797e-03    2.526999e-02    0.000000e+00
   -2.125553e-03    2.279566e-02    0.000000e+00
   -2.099027e-03    2.418174e-02    0.000000e+00
   -2.092768e-03    2.788612e-02    0.000000e+00
   -2.090821e-03    3.215771e-02    0.000000e+00
   -2.088347e-03    3.060849e-02    0.000000e+00
   -2.088244e-03    2.951129e-02    0.000000e+00
   -2.085542e-03    2.675682e-02    0.000000e+00
   -3.461294e-04    1.841161e-02    0.000000e+00
    4.739378e-05    1.831287e-02    0.000000e+00
   -5.781432e-04    1.888017e-02    0.000000e+00
    4.077647e-04    1.824368e-02    0.000000e+00
   -5.020098e-04    1.873805e-02    0.000000e+00
   -1.083200e-03    2.096455e-02    0.000000e+00
   -5.119302e-04    1.829968e-02    0.000000e+00
   -1.885190e-03    2.302966e-02    0.000000e+00
   -1.038276e-03    2.198233e-02    0.000000e+00
   -1.661227e-03    2.296824e-02    0.000000e+00
   -1.784762e-03    2.307967e-02    0.000000e+00
   -2.046841e-03    2.289171e-02    0.000000e+00
   -1.544672e-03    2.275728e-02    0.000000e+00
   -5.616328e-04    2.013665e-02    0.000000e+00
   -6.661052e-04    2.072060e-02    0.000000e+00
   -5.693020e-04    1.952166e-02    0.000000e+00
   -1.189147e-03    2.119162e-02    0.000000e+00
   -7.706815e-04    2.102900e-02    0.000000e+00
   -8.704156e-04    2.135432e-02    0.000000e+00
   -1.334825e-03    2.243694e-02    0.000000e+00
   -1.103062e-03    2.224627e-02    0.000000e+00
   -1.480285e-03    3.324794e-02    0.000000e+00
   -1.929383e-03    3.328113e-02    0.000000e+00
   -3.228971e-05    2.392402e-02    0.000000e+00
   -1.095028e-04    3.165848e-02    0.000000e+00
   -1.339257e-04    3.045640e-02    0.000000e+00
   -1.099738e-04    2.964537e-02    0.000000e+00
   -1.089143e-04    2.887592e-02    0.000000e+00
   -1.286021e-04    2.765152e-02    0.000000e+00
   -1.310310e-04    2.683822e-02    0.000000e+00
   -9.039146e-05    2.600603e-02    0.000000e+00
    9.227195e-05    2.262714e-02    0.000000e+00
    2.480210e-04    2.098824e-02    0.000000e+00
    4.265230e-04    1.974462e-02    0.000000e+00
   -7.214951e-05    2.474674e-02    0.000000e+00
   -9.899650e-05    3.252539e-02    0.000000e+00
   -2.108581e-03    2.381332e-02    0.000000e+00
   -2.095416e-03    2.634674e-02    0.000000e+00
   -2.117235e-03    2.710524e-02    0.000000e+00
   -2.132404e-03    2.896490e-02    0.000000e+00
   -2.115390e-03    2.982411e-02    0.000000e+00
   -2.092767e-03    3.099856e-02    0.000000e+00
   -2.103171e-03    3.269055e-02    0.000000e+00
   -2.130863e-03    3.170071e-02    0.000000e+00
   -2.096700e-03    2.826982e-02    0.000000e+00
   -2.103872e-03    2.561715e-02    0.000000e+00
   -2.119778e-03    2.450773e-02    0.000000e+00
   -2.465374e-04    1.830811e-02    0.000000e+00
   -9.018984e-04    3.260866e-02    0.000000e+00
   -1.820625e-03    3.262261e-02    0.000000e+00
   -2.654724e-04    3.254111e-02    0.000000e+00
   -4.367742e-04    3.266117e-02    0.000000e+00
    3.248235e-04    1.890867e-02    0.000000e+00
    2.936856e-05    1.897826e-02    0.000000e+00
   -4.043406e-04    1.887394e-02    0.000000e+00
   -1.368157e-03    3.262217e-02    0.000000e+00
   -2.156479e-03    2.321428e-02    0.000000e+00
    1.557900e-04    2.180750e-02    0.000000e+00
    5.153375e-04    1.888997e-02    0.000000e+00
   -2.719911e-04    3.210939e-02    0.000000e+00
   -1.982797e-03    2.519569e-02    0.000000e+00
   -2.422359e-04    2.533126e-02    0.000000e+00
   -1.986999e-03    2.416375e-02    0.000000e+00
    2.956779e-04    1.942191e-02    0.000000e+00
   -6.312283e-05    2.236524e-02    0.000000e+00
   -1.393984e-04    2.346333e-02    0.000000e+00
   -2.811419e-04    2.636682e-02    0.000000e+00
   -1.955977e-03    2.678822e-02    0.000000e+00
   -1.968031e-03    2.774470e-02    0.000000e+00
   -2.751257e-04    2.821221e-02    0.000000e+00
   -2.918559e-04    2.923900e-02    0.000000e+00
   -1.956152e-03    2.948248e-02    0.000000e+00
   -1.960385e-03    3.046095e-02    0.000000e+00
   -1.969133e-03    3.217415e-02    0.000000e+00
    1.683424e-04    2.051195e-02    0.000000e+00
   -2.754100e-04    3.101369e-02    0.000000e+00
   -1.717322e-03    3.326812e-02    0.000000e+00
   -1.269722e-03    3.324194e-02    0.000000e+00
   -8.026581e-04    3.321266e-02    0.000000e+00
   -4.438667e-04    1.838441e-02    0.000000e+00
   -3.489084e-05    1.828870e-02    0.000000e+00
   -4.562519e-04    1.950592e-02    0.000000e+00
   -1.422510e-03    2.277154e-02    0.000000e+00
   -1.107609e-03    2.255193e-02    0.000000e+00
   -7.556293e-04    2.131467e-02    0.000000e+00
   -4.506567e-04    2.015662e-02    0.000000e+00
   -1.300714e-03    2.271211e-02    0.000000e+00
   -2.042648e-03    2.313487e-02    0.000000e+00
   -8.483367e-04    2.163058e-02    0.000000e+00
   -5.623958e-04    2.070883e-02    0.000000e+00
   -1.580636e-03    2.303285e-02    0.000000e+00
   -2.769099e-04    2.349680e-02    0.000000e+00
   -1.873345e-03    2.408469e-02    0.000000e+00
   -4.552889e-04    1.923296e-02    0.000000e+00
   -9.344124e-04    2.194258e-02    0.000000e+00
   -1.719935e-03    2.328876e-02    0.000000e+00
   -1.544706e-03    3.270275e-02    0.000000e+00
   -1.818044e-03    3.224147e-02    0.000000e+00
   -9.040601e-04    3.207961e-02    0.000000e+00
   -2.284108e-04    1.887378e-02    0.000000e+00
   -2.680528e-04    3.139750e-02    0.000000e+00
   -1.843475e-04    2.458376e-02    0.000000e+00
   -1.090708e-04    2.277844e-02    0.000000e+00
   -2.526460e-04    3.030657e-02    0.000000e+00
   -2.715889e-04    2.858794e-02    0.000000e+00
   -2.438837e-04    2.749149e-02    0.000000e+00
   -2.490844e-04    2.572066e-02    0.000000e+00
    6.107191e-05    2.165080e-02    0.000000e+00
    2.610420e-04    1.982225e-02    0.000000e+00
    1.440896e-05    1.935734e-02    0.000000e+00
    8.913886e-05    2.122469e-02    0.000000e+00
   -2.674391e-04    2.706534e-02    0.000000e+00
   -2.970278e-04    2.995341e-02    0.000000e+00
   -4.024752e-04    3.207012e-02    0.000000e+00
   -1.448613e-04    1.888285e-02    0.000000e+00
   -1.969479e-03    2.465060e-02    0.000000e+00
   -1.972231e-03    2.738494e-02    0.000000e+00
   -1.990781e-03    2.842037e-02    0.000000e+00
   -1.965280e-03    3.010031e-02    0.000000e+00
   -1.984460e-03    3.114729e-02    0.000000e+00
   -2.009585e-03    3.274298e-02    0.000000e+00
   -2.006470e-03    2.576680e-02    0.000000e+00
   -1.980614e-03    2.614443e-02    0.000000e+00
   -1.955114e-03    2.876855e-02    0.000000e+00
   -1.950339e-03    3.149577e-02    0.000000e+00
   -1.363508e-03    3.209739e-02    0.000000e+00
   -1.861866e-03    2.517000e-02    0.000000e+00
   -6.182608e-04    3.266022e-02    0.000000e+00
   -7.218553e-04    3.265120e-02    0.000000e+00
   -1.084575e-03    3.268101e-02    0.000000e+00
   -1.187280e-03    3.267937e-02    0.000000e+00
   -1.638542e-03    3.273276e-02    0.000000e+00
   -4.032115e-04    2.534681e-02    0.000000e+00
    2.193097e-04    1.882577e-02    0.000000e+00
    1.347326e-04    1.948478e-02    0.000000e+00
   -2.014739e-03    2.365449e-02    0.000000e+00
   -1.772870e-04    2.414146e-02    0.000000e+00
   -2.006175e-04    2.233041e-02    0.000000e+00
   -1.829811e-03    2.677208e-02    0.000000e+00
   -4.186539e-04    2.639251e-02    0.000000e+00
   -1.820806e-03    2.774307e-02    0.000000e+00
   -4.340772e-04    2.824140e-02    0.000000e+00
   -4.400664e-04    2.923479e-02    0.000000e+00
   -1.813609e-03    2.948191e-02    0.000000e+00
   -1.812659e-03    3.044475e-02    0.000000e+00
    2.492429e-05    2.053096e-02    0.000000e+00
   -4.389950e-04    3.102644e-02    0.000000e+00
   -1.552153e-03    2.326289e-02    0.000000e+00
   -8.282141e-04    2.191000e-02    0.000000e+00
   -1.656045e-03    2.349942e-02    0.000000e+00
   -1.757860e-03    2.357595e-02    0.000000e+00
   -9.909616e-04    2.252416e-02    0.000000e+00
   -1.360892e-03    2.296362e-02    0.000000e+00
   -3.526146e-04    1.950682e-02    0.000000e+00
   -4.859597e-04    2.046314e-02    0.000000e+00
   -9.122235e-04    2.221765e-02    0.000000e+00
   -1.167356e-04    2.058639e-02    0.000000e+00
   -5.547371e-04    2.642676e-02    0.000000e+00
   -1.749500e-03    2.514545e-02    0.000000e+00
   -5.251786e-04    2.528727e-02    0.000000e+00
   -3.426181e-04    2.234424e-02    0.000000e+00
   -2.216105e-04    2.288580e-02    0.000000e+00
   -1.873760e-03    2.327860e-02    0.000000e+00
   -6.436110e-04    2.128772e-02    0.000000e+00
   -1.907155e-03    2.356772e-02    0.000000e+00
   -3.043071e-04    2.411894e-02    0.000000e+00
   -1.886765e-03    2.463837e-02    0.000000e+00
   -1.209093e-03    2.270532e-02    0.000000e+00
   -1.510394e-03    2.298616e-02    0.000000e+00
   -4.817359e-04    1.888669e-02    0.000000e+00
   -3.909918e-04    2.352798e-02    0.000000e+00
   -1.839830e-03    2.609861e-02    0.000000e+00
   -1.818273e-03    2.738383e-02    0.000000e+00
   -1.823097e-03    2.842246e-02    0.000000e+00
   -1.812933e-03    3.010514e-02    0.000000e+00
   -1.810888e-03    3.114260e-02    0.000000e+00
   -1.824714e-03    2.575468e-02    0.000000e+00
   -1.819086e-03    2.874028e-02    0.000000e+00
   -1.811313e-03    3.146882e-02    0.000000e+00
   -9.010611e-04    3.155901e-02    0.000000e+00
   -1.670026e-03    3.216339e-02    0.000000e+00
   -1.552752e-03    3.212490e-02    0.000000e+00
   -1.181818e-03    3.209164e-02    0.000000e+00
   -4.007353e-04    2.466459e-02    0.000000e+00
   -4.342431e-04    3.030943e-02    0.000000e+00
   -4.366177e-04    2.859188e-02    0.000000e+00
   -4.556227e-04    2.749070e-02    0.000000e+00
   -4.372031e-04    2.573812e-02    0.000000e+00
   -1.444099e-04    2.165841e-02    0.000000e+00
    9.129313e-05    1.985952e-02    0.000000e+00
   -1.017889e-04    1.999122e-02    0.000000e+00
   -7.320794e-05    2.127113e-02    0.000000e+00
   -4.278554e-04    2.710708e-02    0.000000e+00
   -4.385502e-04    2.998469e-02    0.000000e+00
   -4.369376e-04    3.142751e-02    0.000000e+00
   -6.249020e-04    3.198762e-02    0.000000e+00
   -1.937037e-04    1.947802e-02    0.000000e+00
   -1.084198e-03    3.208906e-02    0.000000e+00
   -7.293031e-04    3.205514e-02    0.000000e+00
   -1.353723e-03    3.155553e-02    0.000000e+00
   -1.703022e-03    2.672838e-02    0.000000e+00
   -1.682933e-03    2.779981e-02    0.000000e+00
   -5.921248e-04    2.824199e-02    0.000000e+00
   -5.892246e-04    2.925710e-02    0.000000e+00
   -1.668589e-03    2.947330e-02    0.000000e+00
   -1.666004e-03    3.042571e-02    0.000000e+00
   -5.974597e-04    3.095734e-02    0.000000e+00
   -4.469785e-04    2.066756e-02    0.000000e+00
   -1.367465e-03    2.323959e-02    0.000000e+00
   -4.696767e-04    2.337899e-02    0.000000e+00
   -4.910994e-04    2.373529e-02    0.000000e+00
   -1.161710e-03    2.286385e-02    0.000000e+00
   -9.553530e-04    2.275105e-02    0.000000e+00
   -1.831728e-03    2.363654e-02    0.000000e+00
   -1.467527e-03    2.342503e-02    0.000000e+00
   -1.563572e-03    2.777561e-02    0.000000e+00
   -7.249089e-04    2.819777e-02    0.000000e+00
   -1.592749e-03    2.671763e-02    0.000000e+00
   -7.199837e-04    2.188385e-02    0.000000e+00
   -5.626441e-04    2.754674e-02    0.000000e+00
   -5.420898e-04    2.580693e-02    0.000000e+00
   -1.732977e-03    2.568842e-02    0.000000e+00
   -5.002222e-04    2.467715e-02    0.000000e+00
   -2.624499e-04    2.173792e-02    0.000000e+00
   -8.893595e-04    2.249181e-02    0.000000e+00
   -5.487417e-04    2.704844e-02    0.000000e+00
   -1.962162e-04    2.121456e-02    0.000000e+00
   -1.728594e-03    2.613931e-02    0.000000e+00
   -2.754370e-04    1.955910e-02    0.000000e+00
   -2.105702e-04    2.004042e-02    0.000000e+00
   -6.644703e-04    2.644512e-02    0.000000e+00
   -1.678418e-03    2.841274e-02    0.000000e+00
   -1.666022e-03    3.009366e-02    0.000000e+00
   -1.646372e-03    3.114561e-02    0.000000e+00
   -1.662999e-03    2.725606e-02    0.000000e+00
   -1.674181e-03    2.872800e-02    0.000000e+00
   -8.676848e-04    3.097359e-02    0.000000e+00
   -1.668890e-03    3.147355e-02    0.000000e+00
   -1.548539e-03    3.148232e-02    0.000000e+00
   -1.175401e-03    3.154275e-02    0.000000e+00
   -5.915980e-04    3.031227e-02    0.000000e+00
   -6.299377e-04    3.163042e-02    0.000000e+00
   -6.146892e-04    2.861994e-02    0.000000e+00
   -5.917328e-04    2.999502e-02    0.000000e+00
   -1.079084e-03    3.154051e-02    0.000000e+00
   -7.304042e-04    3.157778e-02    0.000000e+00
   -1.353451e-03    3.093609e-02    0.000000e+00
   -7.346373e-04    2.927893e-02    0.000000e+00
   -1.523235e-03    2.945482e-02    0.000000e+00
   -1.520335e-03    3.042202e-02    0.000000e+00
   -7.418639e-04    3.095533e-02    0.000000e+00
   -3.623994e-04    2.079171e-02    0.000000e+00
   -1.564378e-03    2.360658e-02    0.000000e+00
   -9.637194e-04    2.307243e-02    0.000000e+00
   -1.166381e-03    2.319048e-02    0.000000e+00
   -5.013379e-04    2.406796e-02    0.000000e+00
   -7.466220e-04    2.627998e-02    0.000000e+00
   -7.508608e-04    2.661777e-02    0.000000e+00
   -3.513148e-04    1.981653e-02    0.000000e+00
   -6.282968e-04    2.157395e-02    0.000000e+00
   -7.895672e-04    2.248312e-02    0.000000e+00
   -1.714045e-03    2.378765e-02    0.000000e+00
   -5.492812e-04    2.098084e-02    0.000000e+00
   -4.491931e-04    2.299825e-02    0.000000e+00
   -8.725424e-04    2.930801e-02    0.000000e+00
   -7.124122e-04    2.869331e-02    0.000000e+00
   -1.585381e-03    2.723935e-02    0.000000e+00
   -1.281548e-03    2.336850e-02    0.000000e+00
   -5.960206e-04    2.359706e-02    0.000000e+00
   -1.469243e-03    2.774342e-02    0.000000e+00
   -8.236275e-04    2.822776e-02    0.000000e+00
   -1.511890e-03    2.836729e-02    0.000000e+00
   -1.518125e-03    3.008400e-02    0.000000e+00
   -1.547648e-03    3.115106e-02    0.000000e+00
   -1.526276e-03    2.872605e-02    0.000000e+00
   -9.051815e-04    3.045181e-02    0.000000e+00
   -1.167524e-03    3.100816e-02    0.000000e+00
   -7.647667e-04    2.760239e-02    0.000000e+00
   -7.471669e-04    2.999618e-02    0.000000e+00
   -7.520295e-04    3.032933e-02    0.000000e+00
   -1.074590e-03    3.099240e-02    0.000000e+00
   -1.359350e-03    3.046605e-02    0.000000e+00
   -1.724358e-03    2.460377e-02    0.000000e+00
   -1.376537e-03    2.940908e-02    0.000000e+00
   -6.444365e-04    2.331272e-02    0.000000e+00
   -1.754205e-03    2.407013e-02    0.000000e+00
   -1.581348e-03    2.394171e-02    0.000000e+00
   -1.398245e-03    2.757259e-02    0.000000e+00
   -9.205566e-04    2.808885e-02    0.000000e+00
   -1.392231e-03    2.790389e-02    0.000000e+00
   -1.668553e-03    2.397605e-02    0.000000e+00
   -8.624024e-04    2.305016e-02    0.000000e+00
   -4.031235e-04    2.109464e-02    0.000000e+00
   -1.382130e-03    2.360334e-02    0.000000e+00
   -7.388568e-04    2.594647e-02    0.000000e+00
   -1.232692e-03    2.933928e-02    0.000000e+00
   -1.405433e-03    2.824567e-02    0.000000e+00
   -8.873011e-04    2.766660e-02    0.000000e+00
   -1.406979e-03    2.877062e-02    0.000000e+00
   -3.282020e-04    2.009264e-02    0.000000e+00
   -1.213508e-03    2.354975e-02    0.000000e+00
   -1.065346e-03    2.321183e-02    0.000000e+00
   -8.474381e-04    2.645386e-02    0.000000e+00
   -5.231595e-04    2.126209e-02    0.000000e+00
   -9.881580e-04    2.935487e-02    0.000000e+00
   -9.103054e-04    2.869105e-02    0.000000e+00
   -8.878643e-04    2.993731e-02    0.000000e+00
   -1.196189e-03    3.037082e-02    0.000000e+00
   -7.654779e-04    2.696266e-02    0.000000e+00
   -1.072058e-03    3.042364e-02    0.000000e+00
   -1.362763e-03    3.007041e-02    0.000000e+00
   -1.563218e-03    2.563565e-02    0.000000e+00
   -1.555570e-03    2.616211e-02    0.000000e+00
   -1.254182e-03    2.384146e-02    0.000000e+00
   -6.796271e-04    2.301118e-02    0.000000e+00
   -1.428314e-03    2.391935e-02    0.000000e+00
   -1.019285e-03    2.343486e-02    0.000000e+00
   -1.065446e-03    2.918210e-02    0.000000e+00
   -7.649313e-04    2.280662e-02    0.000000e+00
   -5.668947e-04    2.301448e-02    0.000000e+00
   -8.876594e-04    2.839306e-02    0.000000e+00
   -1.000900e-03    2.989909e-02    0.000000e+00
   -1.038210e-03    2.880535e-02    0.000000e+00
   -8.785794e-04    2.700024e-02    0.000000e+00
   -1.294500e-03    2.771266e-02    0.000000e+00
   -1.873363e-03    2.379957e-02    0.000000e+00
   -1.143244e-03    2.927844e-02    0.000000e+00
   -3.084063e-04    2.041806e-02    0.000000e+00
   -1.192936e-03    2.999293e-02    0.000000e+00
   -1.233145e-03    2.874462e-02    0.000000e+00
   -1.414376e-03    2.726781e-02    0.000000e+00
   -9.831854e-04    2.371218e-02    0.000000e+00
   -5.754494e-04    2.272977e-02    0.000000e+00
   -1.047400e-03    2.815053e-02    0.000000e+00
   -1.341359e-03    2.388195e-02    0.000000e+00
   -1.502063e-03    2.399270e-02    0.000000e+00
   -2.456554e-04    2.066289e-02    0.000000e+00
   -1.167303e-03    2.377849e-02    0.000000e+00
   -7.960841e-04    2.318886e-02    0.000000e+00
   -4.151284e-04    2.267124e-02    0.000000e+00
   -1.227786e-03    2.826544e-02    0.000000e+00
   -8.200962e-04    2.353083e-02    0.000000e+00
   -1.546622e-03    2.417723e-02    0.000000e+00
   -5.675638e-04    2.238868e-02    0.000000e+00
   -1.211081e-03    2.402500e-02    0.000000e+00
   -1.388522e-03    2.410880e-02    0.000000e+00
   -1.077370e-03    2.374199e-02    0.000000e+00
   -2.123811e-04    2.092193e-02    0.000000e+00
   -1.092803e-03    2.759756e-02    0.000000e+00
   -1.406143e-03    2.438803e-02    0.000000e+00
   -1.202604e-03    2.429559e-02    0.000000e+00
   -1.528346e-03    2.445215e-02    0.000000e+00
   -1.042839e-03    2.401048e-02    0.000000e+00
   -7.264700e-04    2.364662e-02    0.000000e+00
   -9.013977e-04    2.370444e-02    0.000000e+00
   -6.847058e-04    2.244992e-02    0.000000e+00
   -1.008472e-03    2.427683e-02    0.000000e+00
   -8.419266e-04    2.390315e-02    0.000000e+00
   -1.103217e-03    2.430235e-02    0.000000e+00
   -6.778724e-04    2.387044e-02    0.000000e+00
   -7.045361e-04    2.217401e-02    0.000000e+00
   -8.115513e-04    2.423016e-02    0.000000e+00
   -7.020922e-04    2.416303e-02    0.000000e+00
   -1.061059e-03    2.457536e-02    0.000000e+00
   -6.007944e-04    2.186411e-02    0.000000e+00
   -1.111413e-03    2.488783e-02    0.000000e+00
   -4.782040e-04    2.168869e-02    0.000000e+00
   -5.151432e-04    2.201479e-02    0.000000e+00
   -9.972358e-04    2.484003e-02    0.000000e+00
   -9.127159e-04    2.424914e-02    0.000000e+00
   -8.810924e-04    2.458894e-02    0.000000e+00
   -1.219313e-03    2.494953e-02    0.000000e+00
   -4.731670e-04    2.251507e-02    0.000000e+00
   -8.057588e-04    2.480504e-02    0.000000e+00
   -3.315315e-04    2.201122e-02    0.000000e+00
   -1.240205e-03    2.531216e-02    0.000000e+00
   -3.860093e-04    2.180512e-02    0.000000e+00
   -7.109281e-04    2.477955e-02    0.000000e+00
   -8.928096e-04    2.498643e-02    0.000000e+00
   -9.112753e-04    2.535694e-02    0.000000e+00
   -1.067674e-03    2.516055e-02    0.000000e+00
   -2.905028e-04    2.149527e-02    0.000000e+00
   -1.021644e-03    2.543187e-02    0.000000e+00
   -1.135751e-03    2.546602e-02    0.000000e+00
   -3.195106e-04    2.122465e-02    0.000000e+00
   -4.408467e-04    2.138994e-02    0.000000e+00
   -1.235528e-03    2.566371e-02    0.000000e+00
   -1.349461e-03    2.552893e-02    0.000000e+00
   -1.068247e-03    2.573838e-02    0.000000e+00
   -1.216467e-03    2.599923e-02    0.000000e+00
   -1.114311e-03    2.603059e-02    0.000000e+00
   -1.011896e-03    2.600775e-02    0.000000e+00
   -9.178814e-04    2.595381e-02    0.000000e+00
   -1.058130e-03    2.634369e-02    0.000000e+00
   -1.072739e-03    2.701800e-02    0.000000e+00

CELL_DATA 13208
SCALARS mises_stress float
LOOKUP_TABLE default
    2.521031e-01
    3.619897e-01
    3.895726e-01
    7.750970e-01
    9.332150e-01
    9.973578e-01
    1.014912e+00
    1.017495e+00
    1.020880e+00
    1.031141e+00
    1.026008e+00
    1.027279e+00
    1.030723e+00
    1.030084e+00
    1.031776e+00
    1.034386e+00
    1.040142e+00
    1.045121e+00
    1.036961e+00
    1.040029e+00
    1.039118e+00
    1.037091e+00
    1.035115e+00
    1.039479e+00
    1.043696e+00
    1.064511e+00
    1.041650e+00
    1.069436e+00
    1.043434e+00
    9.564855e-01
    6.278095e-01
    6.100112e-01
    2.478369e-01
    5.755094e-01
    8.613032e-01
    9.208751e-01
    9.696729e-01
    9.936364e-01
    1.002449e+00
    1.013739e+00
    1.020677e+00
    1.020436e+00
    1.026617e+00
    1.026876e+00
    1.027509e+00
    1.027681e+00
    1.031108e+00
    1.035181e+00
    9.915779e-01
    9.916477e-01
    9.917060e-01
    9.925920e-01
    9.930631e-01
    9.939154e-01
    9.956716e-01
    9.963987e-01
    9.988384e-01
    9.992688e-01
    1.000442e+00
    1.001149e+00
    1.001422e+00
    1.001593e+00
    1.001147e+00
    1.000568e+00
    1.000737e+00
    1.001221e+00
    1.001793e+00
    1.002934e+00
    1.003061e+00
    1.003306e+00
    1.001817e+00
    1.000595e+00
    9.979903e-01
    9.927431e-01
    9.887871e-01
    9.817437e-01
    9.749774e-01
    9.673842e-01
    9.588413e-01
    9.534598e-01
    9.586071e-01
    9.596407e-01
    9.572406e-01
    9.677231e-01
    9.748670e-01
    9.797556e-01
    9.852538e-01
    9.896455e-01
    9.941564e-01
    9.973633e-01
    9.995297e-01
    1.001110e+00
    1.002333e+00
    1.002082e+00
    1.001935e+00
    1.001615e+00
    1.002198e+00
    9.453257e-01
    9.507217e-01
    9.523911e-01
    9.569816e-01
    9.596508e-01
    9.739077e-01
    9.755546e-01
    9.921447e-01
    1.001143e+00
    1.009075e+00
    1.015674e+00
    1.025684e+00
    1.018464e+00
    1.024914e+00
    1.014576e+00
    1.005408e+00
    9.941245e-01
    9.805887e-01
    9.715894e-01
    9.596313e-01
    9.537908e-01
    9.448916e-01
    9.454349e-01
    9.473441e-01
    9.497637e-01
    9.332747e-01
    9.334666e-01
    9.252980e-01
    9.053822e-01
    8.965554e-01
    8.620287e-01
    8.379868e-01
    7.894843e-01
    7.252953e-01
    6.526123e-01
    8.538484e-01
    8.932284e-01
    9.112446e-01
    9.291540e-01
    9.630507e-01
    9.660286e-01
    9.716876e-01
    9.767314e-01
    9.827850e-01
    9.878139e-01
    9.915811e-01
    9.956158e-01
    9.974859e-01
    9.998514e-01
    1.000923e+00
    1.001431e+00
    1.001748e+00
    1.001369e+00
    1.001754e+00
    9.669481e-01
    9.703333e-01
    9.746967e-01
    9.805334e-01
    9.849405e-01
    9.890147e-01
    9.925907e-01
    9.961264e-01
    9.975384e-01
    9.994400e-01
    1.000838e+00
    1.001261e+00
    1.001560e+00
    1.001598e+00
    9.724004e-01
    9.741878e-01
    9.786223e-01
    9.833550e-01
    9.869090e-01
    9.905345e-01
    9.932463e-01
    9.961527e-01
    9.977127e-01
    9.995682e-01
    1.000299e+00
    1.001153e+00
    1.001278e+00
    9.765213e-01
    9.767970e-01
    9.818015e-01
    9.846260e-01
    9.886422e-01
    9.912052e-01
    9.937266e-01
    9.964640e-01
    9.978032e-01
    9.995536e-01
    1.000564e+00
    1.000871e+00
    9.798045e-01
    9.808846e-01
    9.832588e-01
    9.871095e-01
    9.894611e-01
    9.924476e-01
    9.944960e-01
    9.966995e-01
    9.979004e-01
    9.994268e-01
    9.996544e-01
    9.817098e-01
    9.829974e-01
    9.856675e-01
    9.881145e-01
    9.910251e-01
    9.935306e-01
    9.949676e-01
    9.970769e-01
    9.981022e-01
    9.987568e-01
    9.847930e-01
    9.850573e-01
    9.871683e-01
    9.898556e-01
    9.917355e-01
    9.940138e-01
    9.954217e-01
    9.970566e-01
    9.971091e-01
    9.862094e-01
    9.874706e-01
    9.889983e-01
    9.910859e-01
    9.925209e-01
    9.939358e-01
    9.956040e-01
    9.954884e-01
    9.885263e-01
    9.882420e-01
    9.902984e-01
    9.916059e-01
    9.933900e-01
    9.949053e-01
    9.948030e-01
    9.894918e-01
    9.900790e-01
    9.908433e-01
    9.920285e-01
    9.931704e-01
    9.934503e-01
    9.907285e-01
    9.906346e-01
    9.913917e-01
    9.924641e-01
    9.922265e-01
    9.911431e-01
    9.914562e-01
    9.921136e-01
    9.917456e-01
    1.000415e+00
    1.001665e+00
    1.001962e+00
    1.003371e+00
    1.004486e+00
    1.003695e+00
    1.003120e+00
    1.000493e+00
    9.978448e-01
    9.923335e-01
    9.871422e-01
    9.790994e-01
    9.715564e-01
    9.627345e-01
    9.551018e-01
    1.002455e+00
    1.003285e+00
    1.004842e+00
    1.005023e+00
    1.005276e+00
    1.004411e+00
    1.003360e+00
    9.971703e-01
    9.912049e-01
    9.857918e-01
    9.754534e-01
    9.674511e-01
    9.582292e-01
    1.004343e+00
    1.004226e+00
    1.006011e+00
    1.006995e+00
    1.006036e+00
    1.005348e+00
    1.001176e+00
    9.982371e-01
    9.898918e-01
    9.845496e-01
    9.755622e-01
    9.673856e-01
    1.005561e+00
    1.006910e+00
    1.008368e+00
    1.009155e+00
    1.008319e+00
    1.006789e+00
    1.004956e+00
    9.968876e-01
    9.891922e-01
    9.807162e-01
    9.699976e-01
    1.008616e+00
    1.008164e+00
    1.010793e+00
    1.009867e+00
    1.009228e+00
    1.008170e+00
    1.002883e+00
    9.974056e-01
    9.917604e-01
    9.804192e-01
    1.010537e+00
    1.008971e+00
    1.011925e+00
    1.012933e+00
    1.012424e+00
    1.008621e+00
    1.005737e+00
    9.978732e-01
    9.865890e-01
    1.012549e+00
    1.013472e+00
    1.016460e+00
    1.016011e+00
    1.015351e+00
    1.010756e+00
    1.007851e+00
    9.999134e-01
    1.017115e+00
    1.017637e+00
    1.018532e+00
    1.018900e+00
    1.018139e+00
    1.017442e+00
    1.003879e+00
    1.020292e+00
    1.021076e+00
    1.023469e+00
    1.020084e+00
    1.021210e+00
    1.018317e+00
    1.024314e+00
    1.023998e+00
    1.026470e+00
    1.026562e+00
    1.020483e+00
    1.048954e+00
    1.046884e+00
    1.048313e+00
    1.047435e+00
    1.044270e+00
    1.047772e+00
    1.057656e+00
    1.056561e+00
    1.066849e+00
    1.100910e+00
    1.106488e+00
    1.179585e+00
    1.010549e+00
    3.111340e-01
    7.254006e-01
    1.051702e+00
    1.051421e+00
    1.052096e+00
    1.051989e+00
    1.053595e+00
    1.052138e+00
    1.059870e+00
    1.081732e+00
    1.096978e+00
    1.157701e+00
    1.182477e+00
    1.219575e+00
    1.204199e+00
    2.918861e-01
    1.063651e+00
    1.062839e+00
    1.055041e+00
    1.055827e+00
    1.058506e+00
    1.064224e+00
    1.075996e+00
    1.110872e+00
    1.130537e+00
    1.169579e+00
    1.274447e+00
    1.344675e+00
    1.758834e+00
    1.633986e+00
    1.065847e+00
    1.070881e+00
    1.060644e+00
    1.059883e+00
    1.062369e+00
    1.072781e+00
    1.095133e+00
    1.127338e+00
    1.167258e+00
    1.206540e+00
    1.279161e+00
    1.467636e+00
    1.963644e+00
    1.064754e+00
    1.070092e+00
    1.065064e+00
    1.063283e+00
    1.067038e+00
    1.083951e+00
    1.106250e+00
    1.141633e+00
    1.162443e+00
    1.229399e+00
    1.245453e+00
    1.442331e+00
    1.634218e+00
    1.072288e+00
    1.072224e+00
    1.064041e+00
    1.064128e+00
    1.071623e+00
    1.088216e+00
    1.107972e+00
    1.139454e+00
    1.167149e+00
    1.195077e+00
    1.199572e+00
    1.238490e+00
    1.070408e+00
    1.069119e+00
    1.063339e+00
    1.062930e+00
    1.069934e+00
    1.075379e+00
    1.109835e+00
    1.111853e+00
    1.130137e+00
    1.074609e+00
    1.160872e+00
    1.068008e+00
    1.065922e+00
    1.059087e+00
    1.060744e+00
    1.066371e+00
    1.077399e+00
    1.083136e+00
    1.084112e+00
    1.071212e+00
    1.078177e+00
    1.062026e+00
    1.063942e+00
    1.055626e+00
    1.053211e+00
    1.060057e+00
    1.066574e+00
    1.055596e+00
    1.053778e+00
    1.048331e+00
    1.063619e+00
    1.048298e+00
    1.042639e+00
    1.046348e+00
    1.044850e+00
    1.048164e+00
    1.040429e+00
    1.038296e+00
    1.039371e+00
    1.039032e+00
    1.027039e+00
    1.037662e+00
    1.035239e+00
    1.027363e+00
    1.033153e+00
    1.031382e+00
    1.015267e+00
    1.019968e+00
    1.027291e+00
    1.021021e+00
    1.025707e+00
    1.010702e+00
    1.003545e+00
    1.012823e+00
    1.021300e+00
    1.022354e+00
    1.001695e+00
    9.717909e-01
    1.003512e+00
    1.016380e+00
    9.830346e-01
    9.875914e-01
    9.969586e-01
    9.627702e-01
    8.715823e-01
    1.116974e+00
    1.282140e+00
    1.265736e+00
    1.195915e+00
    1.160746e+00
    1.134379e+00
    1.094480e+00
    1.064847e+00
    1.052279e+00
    1.036343e+00
    1.020082e+00
    1.012980e+00
    1.028858e+00
    1.037285e+00
    1.052832e+00
    1.064850e+00
    1.109552e+00
    1.148966e+00
    1.198613e+00
    1.247397e+00
    1.386226e+00
    1.270985e+00
    7.012880e-01
    7.172192e-01
    1.013202e+00
    1.127669e+00
    1.182752e+00
    1.196042e+00
    1.179764e+00
    1.138366e+00
    1.100232e+00
    1.081598e+00
    1.060526e+00
    1.048786e+00
    1.039191e+00
    7.665051e-01
    9.474695e-01
    1.020028e+00
    1.007737e+00
    1.058897e+00
    1.090339e+00
    1.126968e+00
    1.118634e+00
    1.107170e+00
    1.098147e+00
    1.082572e+00
    1.070584e+00
    1.062760e+00
    1.055179e+00
    1.051712e+00
    1.059109e+00
    1.066280e+00
    1.095504e+00
    1.104604e+00
    1.123489e+00
    1.151381e+00
    1.162078e+00
    1.153584e+00
    1.077563e+00
    8.142540e-01
    8.426583e-01
    9.098588e-01
    9.608589e-01
    9.769553e-01
    9.825131e-01
    1.008992e+00
    1.002890e+00
    1.019156e+00
    9.442216e-01
    1.013062e+00
    1.031131e+00
    1.080854e+00
    1.088127e+00
    1.092991e+00
    1.082872e+00
    1.075209e+00
    1.069846e+00
    1.064495e+00
    1.063220e+00
    8.624827e-01
    8.653395e-01
    9.313041e-01
    9.372764e-01
    9.631559e-01
    9.924448e-01
    9.991639e-01
    1.001162e+00
    9.177514e-01
    9.772248e-01
    1.030900e+00
    1.045151e+00
    1.062198e+00
    1.071714e+00
    1.069898e+00
    1.066752e+00
    1.064757e+00
    1.064606e+00
    1.064847e+00
    8.669721e-01
    8.881637e-01
    9.225903e-01
    9.493987e-01
    9.726756e-01
    9.821422e-01
    9.953039e-01
    8.967773e-01
    9.559345e-01
    1.001643e+00
    1.033090e+00
    1.035932e+00
    1.052761e+00
    1.055862e+00
    1.059795e+00
    1.060376e+00
    1.061474e+00
    1.065893e+00
    8.735777e-01
    8.958630e-01
    9.337826e-01
    9.511852e-01
    9.641458e-01
    9.873480e-01
    9.092580e-01
    9.332821e-01
    9.720259e-01
    1.012117e+00
    1.031846e+00
    1.036840e+00
    1.049151e+00
    1.053731e+00
    1.055120e+00
    1.057530e+00
    1.061218e+00
    9.028875e-01
    9.186122e-01
    9.418775e-01
    9.565980e-01
    9.723442e-01
    9.202604e-01
    9.486606e-01
    9.750994e-01
    9.917054e-01
    1.017526e+00
    1.025236e+00
    1.031709e+00
    1.041022e+00
    1.048252e+00
    1.053374e+00
    1.057763e+00
    9.194672e-01
    9.313096e-01
    9.467945e-01
    9.632094e-01
    9.307972e-01
    9.466416e-01
    9.739807e-01
    9.912573e-01
    9.989905e-01
    1.017509e+00
    1.030092e+00
    1.029561e+00
    1.039421e+00
    1.048544e+00
    1.054701e+00
    9.257820e-01
    9.368649e-01
    9.463311e-01
    9.434909e-01
    9.505217e-01
    9.704395e-01
    9.830090e-01
    9.984262e-01
    1.011090e+00
    1.015409e+00
    1.035256e+00
    1.030359e+00
    1.040781e+00
    1.050360e+00
    9.387727e-01
    1.024327e+00
    1.035571e+00
    1.036021e+00
    1.041876e+00
    9.627742e-01
    9.562917e-01
    9.631450e-01
    9.600775e-01
    9.776585e-01
    9.717505e-01
    9.812248e-01
    9.793125e-01
    9.868304e-01
    9.915696e-01
    9.999639e-01
    9.986246e-01
    1.011649e+00
    1.014411e+00
    1.029125e+00
    1.037766e+00
    1.033023e+00
    1.029196e+00
    9.644569e-01
    9.615699e-01
    9.671184e-01
    9.713027e-01
    9.753836e-01
    9.847005e-01
    9.895762e-01
    9.982301e-01
    1.006264e+00
    1.012422e+00
    1.018796e+00
    1.031679e+00
    1.022364e+00
    9.716311e-01
    9.674776e-01
    9.746258e-01
    9.786023e-01
    9.819375e-01
    9.894453e-01
    9.977174e-01
    1.004656e+00
    1.009116e+00
    1.015747e+00
    1.021657e+00
    1.025649e+00
    9.689103e-01
    9.796460e-01
    9.782474e-01
    9.808523e-01
    9.867618e-01
    9.910910e-01
    9.983788e-01
    1.005320e+00
    1.008806e+00
    1.012361e+00
    1.015859e+00
    1.019358e+00
    9.732018e-01
    9.763655e-01
    9.835451e-01
    9.828650e-01
    9.882957e-01
    9.919534e-01
    9.969256e-01
    1.002059e+00
    1.007109e+00
    1.009441e+00
    1.013408e+00
    1.017582e+00
    9.758481e-01
    9.774066e-01
    9.804683e-01
    9.898060e-01
    9.869874e-01
    9.923046e-01
    9.975196e-01
    1.000931e+00
    1.005316e+00
    1.008026e+00
    1.010567e+00
    1.012706e+00
    9.797306e-01
    9.814211e-01
    9.834141e-01
    9.858264e-01
    9.938861e-01
    9.922064e-01
    9.976336e-01
    1.001015e+00
    1.004664e+00
    1.006038e+00
    1.010217e+00
    1.012086e+00
    9.830105e-01
    9.845330e-01
    9.859442e-01
    9.884692e-01
    9.901526e-01
    9.980586e-01
    9.961361e-01
    1.000427e+00
    1.002945e+00
    1.005235e+00
    1.007106e+00
    1.008227e+00
    9.842682e-01
    9.856641e-01
    9.876062e-01
    9.896967e-01
    9.920886e-01
    9.944671e-01
    1.000471e+00
    9.991695e-01
    1.002043e+00
    1.003826e+00
    1.005227e+00
    1.006432e+00
    9.865869e-01
    9.879729e-01
    9.893656e-01
    9.909831e-01
    9.929231e-01
    9.958122e-01
    9.975010e-01
    1.001817e+00
    1.000768e+00
    1.003918e+00
    1.005192e+00
    1.005606e+00
    9.878877e-01
    9.886763e-01
    9.900093e-01
    9.915894e-01
    9.933669e-01
    9.961622e-01
    9.977071e-01
    9.997527e-01
    1.001934e+00
    1.002343e+00
    1.003287e+00
    1.003736e+00
    9.895582e-01
    9.902949e-01
    9.916042e-01
    9.927312e-01
    9.941126e-01
    9.964479e-01
    9.977614e-01
    9.999369e-01
    1.001198e+00
    1.002691e+00
    1.002189e+00
    1.003384e+00
    9.907509e-01
    9.915496e-01
    9.920744e-01
    9.937614e-01
    9.947824e-01
    9.966845e-01
    9.978134e-01
    9.993164e-01
    1.001024e+00
    1.001878e+00
    9.911679e-01
    9.919386e-01
    9.927310e-01
    9.941760e-01
    9.951179e-01
    9.969590e-01
    9.979886e-01
    9.995232e-01
    1.000741e+00
    1.001410e+00
    1.002004e+00
    1.007533e+00
    1.019832e+00
    1.031398e+00
    1.036397e+00
    1.040034e+00
    1.074422e+00
    1.089289e+00
    1.165178e+00
    1.200573e+00
    1.356127e+00
    7.722088e-01
    8.098525e-01
    8.538668e-01
    2.676044e-01
    7.429485e-01
    5.448411e-01
    4.879821e-01
    3.573034e-01
    3.346590e-01
    3.134445e-01
    2.803240e-01
    2.482309e-01
    2.472222e-01
    2.570881e-01
    2.661337e-01
    2.941352e-01
    2.827637e-01
    3.013843e-01
    3.187408e-01
    3.673649e-01
    4.180803e-01
    4.341176e-01
    6.710209e-01
    8.214594e-01
    8.804373e-01
    9.172308e-01
    9.387653e-01
    9.555442e-01
    9.692731e-01
    9.775168e-01
    9.833618e-01
    9.880961e-01
    9.902399e-01
    9.914829e-01
    1.001131e+00
    1.000944e+00
    9.976341e-01
    9.952566e-01
    9.923488e-01
    9.677484e-01
    1.005341e+00
    1.053957e+00
    1.077472e+00
    1.075647e+00
    1.059800e+00
    1.039650e+00
    1.027416e+00
    1.015126e+00
    1.007901e+00
    1.004350e+00
    1.001071e+00
    1.209518e+00
    1.188535e+00
    1.103722e+00
    1.030523e+00
    1.009332e+00
    3.125536e+00
    2.800104e+00
    2.943741e+00
    2.325460e+00
    2.148896e+00
    2.001765e+00
    1.876454e+00
    1.774698e+00
    1.822818e+00
    1.544946e+00
    1.485833e+00
    1.435712e+00
    1.405198e+00
    1.353485e+00
    1.321570e+00
    1.294242e+00
    1.273514e+00
    1.291037e+00
    1.087836e+00
    8.616281e-01
    4.494506e-01
    9.832377e-01
    8.963147e-01
    6.990418e-01
    7.164287e-01
    5.416234e-01
    5.039612e-01
    3.448877e-01
    3.876605e-01
    1.039842e-01
    1.910317e-01
    3.160428e-01
    3.624071e-01
    6.749998e-01
    7.417098e-01
    8.855153e-01
    1.040580e+00
    1.176931e+00
    1.334908e+00
    1.478977e+00
    1.820853e+00
    2.898505e+00
    3.064777e+00
    2.099529e+00
    2.021117e+00
    2.162111e+00
    2.495365e+00
    2.368599e+00
    2.609771e+00
    2.817040e+00
    2.624285e+00
    2.904278e+00
    3.852444e-01
    1.223113e+00
    1.231221e+00
    4.534243e-01
    3.817300e-01
    6.682044e-01
    2.491593e-01
    2.694879e-01
    2.454971e-01
    1.534790e+00
    1.576742e+00
    2.955837e-01
    3.705942e-01
    2.687999e-01
    3.055323e-01
    2.602063e-01
    2.786663e-01
    2.527261e-01
    2.588929e-01
    2.590852e-01
    2.759505e-01
    2.898642e-01
    2.920969e-01
    3.217007e-01
    3.096511e-01
    3.041064e-01
    3.284692e-01
    3.284762e-01
    3.379738e-01
    3.488137e-01
    3.562154e-01
    2.533483e+00
    2.724778e+00
    2.209595e+00
    2.452786e+00
    2.046759e+00
    2.217004e+00
    2.053195e+00
    2.039220e+00
    1.853218e+00
    1.931308e+00
    1.673888e+00
    1.812325e+00
    1.683857e+00
    1.725534e+00
    1.653814e+00
    1.611533e+00
    1.524271e+00
    1.519347e+00
    1.388862e+00
    1.460826e+00
    1.412378e+00
    1.413435e+00
    1.352759e+00
    1.379372e+00
    1.338861e+00
    1.346466e+00
    1.295220e+00
    1.316104e+00
    1.234373e+00
    1.291791e+00
    1.249166e+00
    1.258163e+00
    1.248656e+00
    5.396717e-01
    6.791682e-01
    8.926092e-01
    4.228988e-01
    4.254363e-01
    1.887073e+00
    2.019349e+00
    1.656389e+00
    1.590508e+00
    5.154287e-01
    7.249830e-01
    9.872174e-01
    6.237116e-01
    3.019828e+00
    6.123959e-01
    2.388352e-01
    2.709418e+00
    2.366202e+00
    2.925506e-01
    1.518970e-01
    2.259788e+00
    2.249422e+00
    2.591429e+00
    2.688835e+00
    9.342510e-01
    8.416569e-01
    8.057563e-01
    4.959599e-01
    4.886168e-01
    3.390827e-01
    2.372375e+00
    2.472063e+00
    3.413946e-01
    1.164636e-01
    4.529976e-01
    2.180086e-01
    4.340979e-01
    8.192618e-01
    6.485106e-01
    5.358757e-01
    5.927716e-01
    2.438076e+00
    2.553846e+00
    1.184659e+00
    1.003000e+00
    9.317620e-01
    7.568046e-01
    1.941236e+00
    2.060626e+00
    1.503449e+00
    1.469791e+00
    1.494037e+00
    1.622304e+00
    4.326808e-01
    4.453768e-01
    7.633331e-01
    7.086720e-01
    2.699142e-01
    1.396801e-01
    2.235667e+00
    2.322916e+00
    9.632465e-01
    1.092439e+00
    1.825789e+00
    1.893048e+00
    2.590466e+00
    2.499758e+00
    4.116269e-01
    3.755449e-01
    1.185459e+00
    1.198960e+00
    4.762431e-01
    4.769267e-01
    1.178539e+00
    1.173681e+00
    4.969904e-01
    5.449156e-01
    1.150726e+00
    1.139625e+00
    1.478981e+00
    1.377932e+00
    2.826830e-01
    4.546972e-01
    3.173104e-01
    2.901444e-01
    1.602704e+00
    2.560863e-01
    2.859758e-01
    2.881295e-01
    2.574515e-01
    3.302402e-01
    3.086984e-01
    3.622240e-01
    3.429308e-01
    2.342724e+00
    1.933258e+00
    2.006493e+00
    1.737457e+00
    1.760081e+00
    1.604979e+00
    1.390801e+00
    1.321748e+00
    1.329454e+00
    1.258291e+00
    3.449974e-01
    3.755540e-01
    1.771375e+00
    1.690033e+00
    1.259796e+00
    1.295978e+00
    3.203015e-01
    3.353752e-01
    2.530179e-01
    2.474192e-01
    3.192985e-01
    3.229878e-01
    2.772211e-01
    2.607785e-01
    2.759370e-01
    3.105865e-01
    2.882051e-01
    2.591064e+00
    1.853333e+00
    1.516530e+00
    1.587773e+00
    1.451455e+00
    1.520602e+00
    1.359224e+00
    1.330939e+00
    1.344535e+00
    6.171889e-01
    3.824142e-01
    4.173947e-01
    1.230878e+00
    1.055921e+00
    7.581183e-01
    1.220280e+00
    1.337513e+00
    2.699203e+00
    3.920778e-01
    4.312101e-01
    2.651917e+00
    8.398573e-01
    6.657079e-01
    4.090096e-01
    4.547735e-01
    5.436553e-01
    6.421212e-01
    5.696607e-01
    8.017985e-01
    5.417061e-01
    4.864604e-01
    1.741176e+00
    1.868805e+00
    7.952701e-01
    9.457852e-01
    5.511338e-01
    6.104856e-01
    2.241086e+00
    2.151878e+00
    1.773562e+00
    1.784808e+00
    4.439421e-01
    5.704116e-01
    1.511332e+00
    1.487283e+00
    4.124354e-01
    3.648689e-01
    2.236542e+00
    2.531939e+00
    2.693444e-01
    4.395075e-01
    1.349405e+00
    1.389373e+00
    2.370244e+00
    2.121584e+00
    8.473986e-01
    8.106242e-01
    2.709783e+00
    2.266235e+00
    2.432688e+00
    2.137295e+00
    2.144771e+00
    3.815222e-01
    3.994237e-01
    1.969616e+00
    2.035173e+00
    1.687130e+00
    1.723636e+00
    1.219493e+00
    1.063692e+00
    5.161710e-01
    5.587869e-01
    3.881647e-01
    3.069420e-01
    1.819331e+00
    2.421365e+00
    3.674670e-01
    4.247555e-01
    1.205991e+00
    1.208838e+00
    4.754309e-01
    4.116616e-01
    1.174999e+00
    1.177673e+00
    5.489622e-01
    5.814575e-01
    1.111229e+00
    1.130888e+00
    1.259481e+00
    3.743751e-01
    3.866171e-01
    3.075690e-01
    2.757755e-01
    3.322919e-01
    1.558100e+00
    1.442238e+00
    3.662616e-01
    3.512378e-01
    2.938324e-01
    3.320164e-01
    2.690324e-01
    3.076026e-01
    3.346212e-01
    3.039777e-01
    4.321721e-01
    1.640088e+00
    1.712707e+00
    1.645412e+00
    1.803085e+00
    1.748124e+00
    1.965978e+00
    1.715821e+00
    5.304706e-01
    2.190927e+00
    1.302343e+00
    1.388905e+00
    1.365436e+00
    3.380868e-01
    3.357055e-01
    1.428884e+00
    3.525184e-01
    4.088422e-01
    3.119510e-01
    3.324639e-01
    1.484412e+00
    2.763783e-01
    1.389548e+00
    1.454173e+00
    3.065304e-01
    2.562248e+00
    7.495122e-01
    6.020487e-01
    1.281265e+00
    1.350688e+00
    1.041465e+00
    1.154149e+00
    4.943241e-01
    5.337612e-01
    5.847178e-01
    7.432858e-01
    2.472193e+00
    2.316708e+00
    3.945987e-01
    6.844540e-01
    2.446438e+00
    1.836562e+00
    4.769723e-01
    6.335456e-01
    5.897940e-01
    4.539371e-01
    4.992397e-01
    4.944184e-01
    5.788550e-01
    5.531968e-01
    2.377706e+00
    1.753103e+00
    2.281651e+00
    2.171343e+00
    1.952263e+00
    2.220181e+00
    2.060611e+00
    2.169897e+00
    2.045794e+00
    1.970480e+00
    5.516887e-01
    4.533398e-01
    1.951108e+00
    1.887628e+00
    1.851104e+00
    1.896910e+00
    4.699102e-01
    4.240514e-01
    4.972173e-01
    4.145948e-01
    1.034635e+00
    9.215398e-01
    6.987550e-01
    4.290991e-01
    7.090622e-01
    9.804083e-01
    1.717614e+00
    1.714927e+00
    1.032149e+00
    1.038594e+00
    5.695417e-01
    4.713316e-01
    1.634722e+00
    1.661498e+00
    1.398257e+00
    1.523648e+00
    1.480619e+00
    1.584538e+00
    4.687437e-01
    3.959452e-01
    1.241660e+00
    1.229448e+00
    4.682984e-01
    4.335046e-01
    1.218042e+00
    1.207051e+00
    5.491793e-01
    6.957685e-01
    1.126886e+00
    1.147686e+00
    2.324322e+00
    3.442215e-01
    1.409706e+00
    3.293550e-01
    1.279653e+00
    1.260972e+00
    1.314098e+00
    1.413126e+00
    1.325656e+00
    1.308707e+00
    3.588803e-01
    3.055220e-01
    3.537419e-01
    3.416302e-01
    2.963597e-01
    3.731977e-01
    3.492301e-01
    3.152958e-01
    3.063270e-01
    1.668195e+00
    4.807442e-01
    3.769868e-01
    4.450060e-01
    1.534667e+00
    1.569839e+00
    1.584648e+00
    1.859656e+00
    1.654480e+00
    1.972622e+00
    1.979185e+00
    2.016996e+00
    2.107989e+00
    2.221950e+00
    2.152974e+00
    1.338941e+00
    1.345164e+00
    3.987925e-01
    3.406734e-01
    1.489808e+00
    1.378206e+00
    1.417996e+00
    1.432480e+00
    3.642515e-01
    3.197931e-01
    8.814520e-01
    6.177273e-01
    1.256266e+00
    1.148859e+00
    5.919982e-01
    6.348198e-01
    1.353160e+00
    1.372029e+00
    1.695177e+00
    1.810816e+00
    1.615858e+00
    1.633171e+00
    4.969172e-01
    6.118031e-01
    5.112321e-01
    5.041497e-01
    5.785561e-01
    4.979134e-01
    2.004509e+00
    2.054858e+00
    1.818728e+00
    1.765911e+00
    4.821053e-01
    5.328186e-01
    1.767153e+00
    1.709258e+00
    5.234578e-01
    4.517873e-01
    1.690667e+00
    2.213199e+00
    2.103276e+00
    1.920534e+00
    9.408290e-01
    1.952090e+00
    1.877364e+00
    8.623548e-01
    9.967026e-01
    5.719081e-01
    5.106291e-01
    4.339049e-01
    4.545144e-01
    2.286027e+00
    5.261889e-01
    4.665240e-01
    6.142132e-01
    5.368050e-01
    1.786020e+00
    1.944551e+00
    1.030001e+00
    5.777972e-01
    1.431128e+00
    1.495139e+00
    1.575275e+00
    1.578773e+00
    1.117970e+00
    1.227116e+00
    6.512800e-01
    6.539989e-01
    4.524335e-01
    4.095528e-01
    4.611914e-01
    4.855482e-01
    1.284825e+00
    1.232448e+00
    5.346727e-01
    5.365831e-01
    1.186848e+00
    1.218865e+00
    6.392351e-01
    6.336583e-01
    3.550515e-01
    1.484188e+00
    1.577413e+00
    1.529754e+00
    1.261256e+00
    1.271076e+00
    3.802187e-01
    4.096882e-01
    3.792565e-01
    2.994226e-01
    1.327870e+00
    1.433054e+00
    1.294979e+00
    1.299166e+00
    1.572931e+00
    3.414187e-01
    3.698520e-01
    3.222992e-01
    3.468671e-01
    4.984387e-01
    3.399864e-01
    3.850106e-01
    1.673406e+00
    1.772036e+00
    1.874844e+00
    1.793246e+00
    2.039419e+00
    1.772528e+00
    5.012307e-01
    3.848714e-01
    4.110771e-01
    2.128551e+00
    2.165505e+00
    4.379472e-01
    1.363789e+00
    1.379130e+00
    1.455351e+00
    1.414481e+00
    3.667974e-01
    3.596542e-01
    1.306525e+00
    1.130261e+00
    1.010500e+00
    7.750238e-01
    6.701199e-01
    7.227681e-01
    1.339954e+00
    1.379951e+00
    1.674712e+00
    1.729854e+00
    1.219729e+00
    1.290866e+00
    1.614159e+00
    1.623840e+00
    6.490808e-01
    6.232487e-01
    5.848802e-01
    5.317366e-01
    5.742158e-01
    5.302086e-01
    1.819824e+00
    1.828960e+00
    1.900113e+00
    1.886591e+00
    1.671358e+00
    1.727702e+00
    1.633857e+00
    2.028896e+00
    1.040567e+00
    2.058650e+00
    6.699094e-01
    6.195571e-01
    5.191161e-01
    5.326622e-01
    4.471359e-01
    5.270967e-01
    4.269798e-01
    4.650878e-01
    4.782343e-01
    9.258325e-01
    7.976965e-01
    1.822629e+00
    2.109406e+00
    1.994461e+00
    7.262647e-01
    6.612064e-01
    1.104495e+00
    1.216526e+00
    7.293500e-01
    7.768975e-01
    1.542811e+00
    1.573672e+00
    1.462158e+00
    1.509357e+00
    4.745443e-01
    4.459031e-01
    5.087937e-01
    4.285672e-01
    1.234143e+00
    1.223177e+00
    6.373342e-01
    6.224663e-01
    7.110071e-01
    8.381439e-01
    3.844865e-01
    3.848476e-01
    4.179220e-01
    1.553690e+00
    1.377521e+00
    1.428033e+00
    1.299438e+00
    1.330106e+00
    4.212269e-01
    3.616702e-01
    1.636500e+00
    1.505789e+00
    1.702877e+00
    1.774298e+00
    1.688877e+00
    5.470478e-01
    3.769316e-01
    3.822736e-01
    4.240895e-01
    3.619955e-01
    1.881981e+00
    1.885774e+00
    4.206604e-01
    4.250301e-01
    3.948784e-01
    1.457942e+00
    1.345408e+00
    4.056140e-01
    4.442610e-01
    1.323275e+00
    1.318776e+00
    1.453987e+00
    1.404152e+00
    4.763368e-01
    4.944538e-01
    1.999532e+00
    1.710789e+00
    1.279135e+00
    1.125961e+00
    1.119128e+00
    9.122260e-01
    7.845451e-01
    7.180416e-01
    1.653156e+00
    1.601313e+00
    1.284622e+00
    1.326170e+00
    1.603721e+00
    1.599553e+00
    1.451851e+00
    1.427021e+00
    5.536971e-01
    6.564500e-01
    6.606817e-01
    6.261390e-01
    8.378000e-01
    1.105638e+00
    1.757027e+00
    1.782744e+00
    1.197718e+00
    1.208029e+00
    1.200501e+00
    1.839836e+00
    1.552262e+00
    5.273467e-01
    5.958450e-01
    1.731721e+00
    1.677700e+00
    1.703602e+00
    1.921415e+00
    7.879167e-01
    8.452418e-01
    7.069482e-01
    6.730469e-01
    5.046147e-01
    4.754133e-01
    4.863922e-01
    4.211961e-01
    1.967559e+00
    4.669500e-01
    4.654994e-01
    1.836329e+00
    9.635369e-01
    8.508481e-01
    1.545919e+00
    1.549426e+00
    7.641593e-01
    7.268006e-01
    1.476408e+00
    1.508631e+00
    5.439260e-01
    4.642622e-01
    3.966880e-01
    4.526903e-01
    1.267940e+00
    1.246269e+00
    5.819055e-01
    6.086909e-01
    1.223396e+00
    1.228599e+00
    6.904777e-01
    8.535489e-01
    7.411753e-01
    7.184000e-01
    4.239100e-01
    1.496797e+00
    1.511361e+00
    1.551929e+00
    3.929473e-01
    1.374502e+00
    1.412985e+00
    1.639253e+00
    5.065995e-01
    4.464533e-01
    4.571135e-01
    4.071597e-01
    1.732963e+00
    5.475225e-01
    4.102299e-01
    1.856048e+00
    1.614133e+00
    4.901022e-01
    4.022413e-01
    1.320587e+00
    1.355030e+00
    1.464225e+00
    1.406829e+00
    4.506978e-01
    5.266855e-01
    1.352584e+00
    1.332551e+00
    1.103579e+00
    1.022476e+00
    5.209181e-01
    5.001631e-01
    8.255373e-01
    7.785712e-01
    6.057706e-01
    7.256826e-01
    1.591224e+00
    1.628549e+00
    1.582993e+00
    1.705492e+00
    5.625035e-01
    6.124618e-01
    9.619974e-01
    1.056853e+00
    1.635851e+00
    1.690189e+00
    1.261468e+00
    1.386791e+00
    1.344695e+00
    1.615508e+00
    1.784451e+00
    1.275056e+00
    1.257710e+00
    7.210250e-01
    7.043498e-01
    1.416675e+00
    1.466753e+00
    1.807785e+00
    8.954152e-01
    1.055703e+00
    5.224922e-01
    6.027974e-01
    1.666456e+00
    1.840409e+00
    4.840827e-01
    5.272050e-01
    5.053529e-01
    4.599634e-01
    9.465608e-01
    8.357253e-01
    1.552162e+00
    1.544870e+00
    1.001196e+00
    9.016378e-01
    1.732710e+00
    1.303454e+00
    1.454843e+00
    7.880116e-01
    7.660640e-01
    1.504944e+00
    1.506634e+00
    1.293805e+00
    1.288591e+00
    5.196601e-01
    5.798582e-01
    1.260551e+00
    1.255378e+00
    1.163031e+00
    1.203004e+00
    6.401271e-01
    6.509373e-01
    8.104720e-01
    7.752482e-01
    7.435297e-01
    8.222953e-01
    1.417507e+00
    4.802108e-01
    1.560871e+00
    1.506987e+00
    4.593063e-01
    1.655382e+00
    1.561808e+00
    4.497466e-01
    1.733492e+00
    1.543086e+00
    6.127856e-01
    4.477825e-01
    1.359719e+00
    1.434483e+00
    5.767055e-01
    5.448655e-01
    1.359959e+00
    1.376137e+00
    1.439873e+00
    1.395697e+00
    6.660100e-01
    6.697043e-01
    1.140936e+00
    1.121100e+00
    7.289324e-01
    7.250962e-01
    1.576213e+00
    1.598586e+00
    1.631213e+00
    1.667099e+00
    1.612653e+00
    1.649066e+00
    8.881579e-01
    8.258345e-01
    1.183473e+00
    1.331510e+00
    5.570486e-01
    6.124089e-01
    1.296110e+00
    1.337437e+00
    1.000645e+00
    1.083065e+00
    1.563730e+00
    1.711186e+00
    1.543180e+00
    1.529679e+00
    1.362765e+00
    1.472437e+00
    1.345121e+00
    1.394128e+00
    1.727271e+00
    5.043032e-01
    5.918546e-01
    5.041246e-01
    6.070632e-01
    9.427571e-01
    1.090094e+00
    8.789170e-01
    1.035797e+00
    7.889745e-01
    7.851660e-01
    8.520664e-01
    9.775892e-01
    1.508967e+00
    1.499663e+00
    1.471599e+00
    1.409648e+00
    4.637815e-01
    4.832137e-01
    6.675764e-01
    5.073221e-01
    1.297531e+00
    1.322050e+00
    6.071048e-01
    6.713868e-01
    6.192436e-01
    6.763566e-01
    1.247348e+00
    1.224506e+00
    7.883643e-01
    8.308850e-01
    8.324296e-01
    8.459910e-01
    6.527262e-01
    7.361820e-01
    1.484226e+00
    5.290414e-01
    1.583927e+00
    1.589657e+00
    5.148609e-01
    6.256639e-01
    4.785939e-01
    4.821832e-01
    1.375379e+00
    1.386212e+00
    1.331212e+00
    1.325502e+00
    1.645665e+00
    4.877738e-01
    5.571508e-01
    5.963498e-01
    1.131506e+00
    1.186959e+00
    1.203202e+00
    7.317343e-01
    7.242959e-01
    6.680492e-01
    6.686841e-01
    1.513350e+00
    1.567764e+00
    1.554483e+00
    1.565834e+00
    1.541343e+00
    1.520761e+00
    1.161913e+00
    1.162918e+00
    1.319731e+00
    1.368119e+00
    5.355859e-01
    1.386477e+00
    1.472632e+00
    8.628932e-01
    7.965358e-01
    9.176067e-01
    8.495832e-01
    1.666120e+00
    1.584297e+00
    1.341015e+00
    1.381459e+00
    1.025673e+00
    1.110633e+00
    5.521962e-01
    5.511733e-01
    9.752759e-01
    1.108816e+00
    5.889972e-01
    5.295863e-01
    1.515517e+00
    1.492546e+00
    1.379370e+00
    1.422524e+00
    9.127718e-01
    1.055331e+00
    8.549286e-01
    9.911036e-01
    1.415082e+00
    1.439179e+00
    7.540869e-01
    7.752277e-01
    1.281687e+00
    1.272457e+00
    1.260247e+00
    1.292005e+00
    1.350325e+00
    1.454712e+00
    1.499588e+00
    6.858068e-01
    6.034884e-01
    1.177750e+00
    1.194623e+00
    8.041950e-01
    8.448709e-01
    9.155289e-01
    8.901863e-01
    8.743593e-01
    9.577539e-01
    8.061239e-01
    8.797927e-01
    5.887052e-01
    1.506691e+00
    6.499792e-01
    5.817992e-01
    5.595224e-01
    1.662641e+00
    1.482047e+00
    1.300957e+00
    5.589299e-01
    6.149004e-01
    7.217304e-01
    7.760246e-01
    1.468750e+00
    1.477247e+00
    8.576476e-01
    7.896949e-01
    1.259791e+00
    1.249913e+00
    1.538368e+00
    1.548483e+00
    6.547960e-01
    6.525669e-01
    1.529736e+00
    1.504106e+00
    1.474914e+00
    1.470809e+00
    7.833520e-01
    9.291584e-01
    1.363248e+00
    1.399331e+00
    1.175624e+00
    1.177340e+00
    1.514710e+00
    1.448830e+00
    1.052456e+00
    1.121334e+00
    1.431023e+00
    1.404836e+00
    9.941704e-01
    1.066075e+00
    1.404577e+00
    1.461953e+00
    9.310334e-01
    1.064049e+00
    1.397377e+00
    1.449068e+00
    8.528767e-01
    9.280984e-01
    1.460779e+00
    1.449739e+00
    1.568997e+00
    1.218368e+00
    1.197544e+00
    1.520789e+00
    1.548863e+00
    6.393629e-01
    6.546396e-01
    1.296129e+00
    1.370717e+00
    6.441828e-01
    6.899307e-01
    6.954331e-01
    8.366041e-01
    8.751694e-01
    9.728029e-01
    7.438374e-01
    8.200119e-01
    1.255985e+00
    1.231647e+00
    1.327442e+00
    1.295374e+00
    8.037120e-01
    9.209318e-01
    9.842217e-01
    9.215100e-01
    6.356018e-01
    7.059001e-01
    8.421315e-01
    1.245402e+00
    1.227535e+00
    7.067209e-01
    7.183125e-01
    1.547089e+00
    1.474206e+00
    7.220181e-01
    7.242891e-01
    1.431843e+00
    1.440397e+00
    1.451832e+00
    1.461409e+00
    7.654840e-01
    8.383490e-01
    1.405135e+00
    1.397777e+00
    1.330658e+00
    1.297369e+00
    1.429820e+00
    1.517960e+00
    1.189026e+00
    1.179635e+00
    1.395847e+00
    1.426858e+00
    1.126407e+00
    1.123508e+00
    1.361914e+00
    1.425114e+00
    1.493430e+00
    1.520004e+00
    9.947227e-01
    1.065302e+00
    6.758155e-01
    6.632808e-01
    1.464234e+00
    1.458061e+00
    9.118295e-01
    9.304810e-01
    1.441716e+00
    1.481483e+00
    1.491666e+00
    1.511868e+00
    1.445304e+00
    1.405122e+00
    1.264690e+00
    1.232867e+00
    1.060938e+00
    9.986838e-01
    6.632720e-01
    8.724701e-01
    8.782582e-01
    7.948617e-01
    1.390763e+00
    1.418532e+00
    1.280630e+00
    1.281314e+00
    1.266020e+00
    1.345776e+00
    9.318518e-01
    8.570771e-01
    7.280201e-01
    7.655377e-01
    1.250838e+00
    1.263404e+00
    1.190195e+00
    1.212837e+00
    8.875588e-01
    1.006100e+00
    1.007403e+00
    9.850810e-01
    7.551711e-01
    7.001477e-01
    6.900335e-01
    1.457128e+00
    1.506827e+00
    7.564434e-01
    7.728779e-01
    1.424242e+00
    1.496423e+00
    1.481206e+00
    1.414035e+00
    1.279913e+00
    1.357810e+00
    1.475172e+00
    1.395123e+00
    6.876805e-01
    7.895256e-01
    1.317317e+00
    1.222809e+00
    1.378129e+00
    1.298773e+00
    1.229030e+00
    1.235824e+00
    1.414270e+00
    1.436816e+00
    9.871894e-01
    9.145841e-01
    7.400375e-01
    7.268613e-01
    1.227506e+00
    1.239238e+00
    1.121016e+00
    1.128390e+00
    1.422710e+00
    1.433921e+00
    8.891818e-01
    9.256124e-01
    1.381758e+00
    1.453012e+00
    1.477974e+00
    1.453777e+00
    9.911655e-01
    1.053662e+00
    1.408671e+00
    1.471481e+00
    8.833854e-01
    9.634913e-01
    8.547051e-01
    7.598386e-01
    1.335926e+00
    1.385623e+00
    9.586563e-01
    1.042667e+00
    9.231032e-01
    1.001319e+00
    1.324647e+00
    1.299409e+00
    1.281522e+00
    1.251503e+00
    9.350596e-01
    8.697163e-01
    1.073973e+00
    1.004287e+00
    9.266565e-01
    9.896320e-01
    8.093072e-01
    8.117939e-01
    1.296533e+00
    1.298720e+00
    1.477381e+00
    1.416196e+00
    7.013939e-01
    7.246695e-01
    1.342619e+00
    1.395352e+00
    1.330322e+00
    1.288211e+00
    9.337741e-01
    8.733557e-01
    1.367301e+00
    1.376644e+00
    8.877642e-01
    8.059089e-01
    7.578825e-01
    8.325053e-01
    1.425238e+00
    1.407713e+00
    1.444801e+00
    1.454931e+00
    1.181663e+00
    1.226582e+00
    1.182656e+00
    1.171707e+00
    1.423272e+00
    1.440320e+00
    1.235957e+00
    1.263946e+00
    7.967014e-01
    7.903680e-01
    1.013295e+00
    9.677066e-01
    1.466223e+00
    1.450618e+00
    1.395515e+00
    1.398072e+00
    1.136921e+00
    1.125325e+00
    1.348953e+00
    1.317835e+00
    9.237064e-01
    1.094198e+00
    1.311262e+00
    1.324797e+00
    1.152815e+00
    9.948871e-01
    1.056063e+00
    9.250147e-01
    1.290368e+00
    1.275151e+00
    1.197706e+00
    1.214833e+00
    9.456345e-01
    9.623697e-01
    1.032617e+00
    1.026596e+00
    1.046013e+00
    1.096386e+00
    9.081318e-01
    9.634097e-01
    1.435058e+00
    1.329712e+00
    1.323916e+00
    1.360350e+00
    1.437423e+00
    1.459752e+00
    1.261017e+00
    1.283998e+00
    1.454339e+00
    1.395313e+00
    1.390989e+00
    1.369107e+00
    1.323758e+00
    1.263080e+00
    1.362963e+00
    1.360457e+00
    8.392190e-01
    9.411073e-01
    1.178751e+00
    1.264650e+00
    1.390448e+00
    1.394517e+00
    1.436795e+00
    1.424324e+00
    7.680485e-01
    8.520986e-01
    9.344503e-01
    1.009006e+00
    1.387246e+00
    1.385084e+00
    1.084342e+00
    9.693747e-01
    9.659023e-01
    1.034558e+00
    1.368569e+00
    1.306499e+00
    1.058810e+00
    1.083824e+00
    8.198090e-01
    9.011739e-01
    1.321066e+00
    1.342710e+00
    1.050625e+00
    1.056374e+00
    1.290486e+00
    1.228767e+00
    1.103770e+00
    1.102334e+00
    1.414546e+00
    1.405453e+00
    1.350463e+00
    1.292585e+00
    1.427433e+00
    1.375988e+00
    1.440852e+00
    1.435578e+00
    1.378492e+00
    1.352563e+00
    1.269252e+00
    1.273803e+00
    1.352520e+00
    1.387516e+00
    1.092049e+00
    1.030047e+00
    1.086398e+00
    1.172357e+00
    1.412465e+00
    1.328632e+00
    1.437562e+00
    1.352902e+00
    9.055438e-01
    9.637136e-01
    1.419202e+00
    1.366626e+00
    1.406032e+00
    1.360542e+00
    1.326756e+00
    1.343087e+00
    1.052504e+00
    1.189073e+00
    1.375496e+00
    1.313609e+00
    1.044824e+00
    1.101110e+00
    1.007141e+00
    9.678823e-01
    1.128963e+00
    1.069831e+00
    1.295204e+00
    1.304739e+00
    1.029782e+00
    9.998776e-01
    1.093118e+00
    1.197622e+00
    1.381110e+00
    1.397022e+00
    1.221692e+00
    1.176591e+00
    1.309656e+00
    1.310752e+00
    1.326943e+00
    1.288656e+00
    1.409018e+00
    1.348969e+00
    1.094935e+00
    1.002761e+00
    1.367806e+00
    1.379795e+00
    1.401428e+00
    1.423044e+00
    1.256807e+00
    1.222247e+00
    1.209213e+00
    1.260800e+00
    1.120629e+00
    1.128371e+00
    1.412333e+00
    1.375040e+00
    1.423913e+00
    1.380609e+00
    1.365029e+00
    1.347518e+00
    1.063559e+00
    1.139815e+00
    1.318700e+00
    1.387704e+00
    1.335709e+00
    1.284908e+00
    1.282461e+00
    1.265978e+00
    1.123246e+00
    1.178481e+00
    1.349179e+00
    1.398603e+00
    1.132810e+00
    1.152374e+00
    1.187427e+00
    1.131299e+00
    1.075340e+00
    1.056465e+00
    1.405763e+00
    1.405351e+00
    1.332850e+00
    1.295154e+00
    1.237312e+00
    1.217245e+00
    1.156560e+00
    1.130427e+00
    1.374122e+00
    1.376172e+00
    1.377725e+00
    1.360134e+00
    1.319263e+00
    1.315279e+00
    1.344277e+00
    1.392938e+00
    1.158575e+00
    1.170130e+00
    1.205518e+00
    1.273593e+00
    1.122909e+00
    1.224023e+00
    1.130714e+00
    1.152483e+00
    1.079828e+00
    1.195811e+00
    1.320143e+00
    1.291171e+00
    1.348825e+00
    1.304486e+00
    1.201054e+00
    1.156861e+00
    1.131461e+00
    1.057558e+00
    1.288965e+00
    1.248811e+00
    1.396541e+00
    1.328152e+00
    1.330279e+00
    1.294434e+00
    1.349992e+00
    1.361585e+00
    1.195219e+00
    1.161445e+00
    1.188972e+00
    1.233057e+00
    1.303583e+00
    1.317513e+00
    1.359344e+00
    1.347162e+00
    1.243746e+00
    1.181180e+00
    1.376300e+00
    1.371498e+00
    1.316793e+00
    1.308244e+00
    1.267005e+00
    1.236375e+00
    1.149786e+00
    1.155286e+00
    1.022924e+00
    1.088632e+00
    1.210186e+00
    1.314299e+00
    1.332760e+00
    1.312367e+00
    1.293798e+00
    1.268418e+00
    1.379428e+00
    1.349849e+00
    1.281246e+00
    1.306395e+00
    1.257729e+00
    1.258190e+00
    1.231594e+00
    1.258764e+00
    1.226046e+00
    1.271801e+00
    1.379517e+00
    1.323808e+00
    1.253441e+00
    1.240942e+00
    1.224009e+00
    1.178774e+00
    1.115003e+00
    1.141761e+00
    1.181412e+00
    1.207572e+00
    1.086263e+00
    1.116900e+00
    1.175806e+00
    1.233131e+00
    1.332498e+00
    1.353397e+00
    1.340624e+00
    1.346298e+00
    1.285097e+00
    1.257438e+00
    1.338261e+00
    1.369370e+00
    1.292027e+00
    1.228035e+00
    1.248010e+00
    1.319795e+00
    1.352623e+00
    1.324453e+00
    1.169100e+00
    1.184074e+00
    1.167865e+00
    1.203497e+00
    1.044156e+00
    1.084099e+00
    1.120209e+00
    1.155855e+00
    1.291493e+00
    1.352163e+00
    1.293154e+00
    1.323015e+00
    1.311555e+00
    1.341414e+00
    1.246198e+00
    1.266133e+00
    1.352530e+00
    1.336434e+00
    1.146266e+00
    1.189314e+00
    1.283842e+00
    1.289284e+00
    1.239831e+00
    1.310149e+00
    1.221143e+00
    1.256107e+00
    1.208588e+00
    1.187876e+00
    1.165725e+00
    1.152535e+00
    1.125139e+00
    1.125536e+00
    9.593318e-01
    1.063820e+00
    1.244856e+00
    1.295780e+00
    1.250857e+00
    1.233670e+00
    1.285765e+00
    1.263255e+00
    1.313300e+00
    1.328500e+00
    1.170106e+00
    1.199306e+00
    1.117646e+00
    1.176887e+00
    1.331394e+00
    1.319146e+00
    1.310406e+00
    1.268626e+00
    9.642060e-01
    9.931688e-01
    1.127873e+00
    1.139324e+00
    1.232964e+00
    1.226100e+00
    9.821500e-01
    1.022124e+00
    1.235722e+00
    1.272001e+00
    1.289224e+00
    1.304023e+00
    1.281966e+00
    1.292963e+00
    1.210389e+00
    1.233747e+00
    1.131872e+00
    1.152698e+00
    1.167720e+00
    1.206173e+00
    1.147958e+00
    1.110466e+00
    1.258937e+00
    1.231641e+00
    1.174258e+00
    1.200488e+00
    1.100247e+00
    1.095435e+00
    9.175047e-01
    9.728544e-01
    1.233981e+00
    1.220191e+00
    1.090475e+00
    1.125040e+00
    1.188706e+00
    1.215266e+00
    1.155026e+00
    1.165109e+00
    1.254418e+00
    1.242815e+00
    8.707508e-01
    9.079729e-01
    1.188495e+00
    1.220126e+00
    1.228141e+00
    1.224146e+00
    1.271573e+00
    1.265006e+00
    1.208463e+00
    1.249185e+00
    1.093551e+00
    1.113912e+00
    1.192709e+00
    1.197540e+00
    1.131499e+00
    1.129907e+00
    1.247108e+00
    1.247309e+00
    1.286976e+00
    1.264346e+00
    1.058202e+00
    1.071044e+00
    1.155894e+00
    1.181503e+00
    1.147154e+00
    1.174894e+00
    1.177403e+00
    1.144840e+00
    1.192175e+00
    1.178071e+00
    1.189699e+00
    1.185282e+00
    1.233870e+00
    1.214164e+00
    1.208419e+00
    1.228407e+00
    1.162226e+00
    1.178146e+00
    1.210852e+00
    1.218873e+00
    1.201471e+00
    1.171807e+00
    1.152784e+00
    1.164048e+00
    1.192521e+00
    1.171280e+00
    1.192159e+00
    1.175428e+00
    1.210997e+00
    1.186371e+00
    1.161264e+00
    1.147989e+00
    1.146210e+00
    1.133601e+00
    1.154071e+00
    1.174536e+00
    1.121117e+00
    1.143405e+00
    1.140232e+00
    1.162385e+00
    1.158878e+00
    1.110577e+00
    1.127702e+00
    1.139949e+00
    1.147356e+00
    1.127351e+00
    1.155740e+00
    1.146419e+00
    1.141701e+00
    1.137430e+00
    1.166022e+00
    1.145269e+00
    1.098319e+00
    1.104230e+00
    1.121475e+00
    1.147784e+00
    1.102623e+00
    1.113524e+00
    1.135907e+00
    1.114441e+00
    1.126097e+00
    1.099252e+00
    7.997159e-01
    8.735445e-01
    1.040757e+00
    1.036178e+00
    1.122633e+00
    1.136324e+00
    1.016054e+00
    1.020162e+00
    1.076746e+00
    1.103369e+00
    1.105049e+00
    1.066945e+00
    1.160320e+00
    1.136108e+00
    8.128604e-01
    7.416866e-01
    1.141018e+00
    1.126974e+00
    8.818628e-01
    9.095705e-01
    1.107495e+00
    1.107372e+00
    9.941921e-01
    1.035648e+00
    1.001268e+00
    1.001477e+00
    9.920329e-01
    9.928340e-01
    9.929204e-01
    9.935547e-01
    9.949306e-01
    9.960480e-01
    9.989398e-01
    9.997744e-01
    1.000879e+00
    1.001302e+00
    1.001468e+00
    1.001486e+00
    1.002127e+00
    1.002498e+00
    1.010129e+00
    1.009830e+00
    1.023511e+00
    1.021918e+00
    1.054331e+00
    1.046223e+00
    1.080460e+00
    1.068865e+00
    1.071121e+00
    1.061694e+00
    1.028950e+00
    1.027854e+00
    9.864495e-01
    9.996981e-01
    1.037024e+00
    1.035073e+00
    1.014111e+00
    1.015804e+00
    1.004323e+00
    1.003483e+00
    9.401622e-01
    9.322008e-01
    9.141064e-01
    9.211504e-01
    8.686168e-01
    8.384439e-01
    9.666031e-01
    9.694104e-01
    9.890528e-01
    9.892530e-01
    9.908264e-01
    9.910796e-01
    9.787041e-01
    9.792696e-01
    9.835917e-01
    9.845181e-01
    7.947764e-01
    7.435001e-01
    9.603084e-01
    9.547882e-01
    1.037816e+00
    1.041871e+00
    1.032166e+00
    1.039598e+00
    1.022503e+00
    1.027850e+00
    1.010025e+00
    1.019216e+00
    6.995099e-01
    6.594911e-01
    9.943787e-01
    9.865838e-01
    1.120563e+00
    1.108699e+00
    9.550011e-01
    9.809729e-01
    1.079998e+00
    1.073829e+00
    1.100213e+00
    1.081949e+00
    1.097272e+00
    1.115451e+00
    1.083390e+00
    1.100508e+00
    1.017364e+00
    1.079022e+00
    1.123111e+00
    1.127456e+00
    1.122600e+00
    1.111596e+00
    8.227929e-01
    8.589782e-01
    8.703489e-01
    8.851658e-01
    1.061312e+00
    1.059120e+00
    9.478844e-01
    9.482651e-01
    1.000566e+00
    1.000023e+00
    9.946715e-01
    9.943272e-01
    9.919680e-01
    9.919168e-01
    1.041518e+00
    1.042899e+00
    1.002319e+00
    1.002839e+00
    1.005206e+00
    1.005363e+00
    1.010639e+00
    1.011547e+00
    1.018220e+00
    1.018964e+00
    1.080404e+00
    1.065818e+00
    1.077634e+00
    1.068646e+00
    1.042373e+00
    1.046499e+00
    9.983976e-01
    1.022879e+00
    1.054870e+00
    1.056415e+00
    1.027012e+00
    1.027287e+00
    1.007220e+00
    1.006479e+00
    1.001446e+00
    1.001156e+00
    9.087160e-01
    8.900389e-01
    8.011047e-01
    8.067970e-01
    9.602817e-01
    9.631039e-01
    9.751191e-01
    9.763386e-01
    9.815639e-01
    9.811203e-01
    9.858288e-01
    9.860510e-01
    9.915767e-01
    9.912271e-01
    9.717015e-01
    9.722924e-01
    9.880036e-01
    9.870442e-01
    9.900088e-01
    9.898746e-01
    9.223106e-01
    9.257246e-01
    9.416484e-01
    9.439268e-01
    1.035665e+00
    1.024582e+00
    1.001698e+00
    1.001374e+00
    1.001601e+00
    1.001719e+00
    9.989851e-01
    9.999444e-01
    9.949941e-01
    9.960716e-01
    9.919553e-01
    9.926169e-01
    9.938403e-01
    1.013891e+00
    1.012075e+00
    1.028302e+00
    1.049197e+00
    1.057541e+00
    1.054098e+00
    1.057826e+00
    1.001023e+00
    1.001509e+00
    9.927950e-01
    9.937910e-01
    1.026926e+00
    1.033816e+00
    1.056524e+00
    1.056691e+00
    9.536732e-01
    9.489985e-01
    8.739902e-01
    8.764826e-01
    1.029804e+00
    1.030270e+00
    9.858139e-01
    9.955884e-01
    1.031227e+00
    1.031568e+00
    9.633452e-01
    9.592589e-01
    1.015866e+00
    1.019864e+00
    1.043735e+00
    1.040623e+00
    8.399513e-01
    8.902888e-01
    1.068036e+00
    1.063280e+00
    9.043286e-01
    9.330051e-01
    9.299784e-01
    9.458784e-01
    1.045645e+00
    1.041695e+00
    9.643223e-01
    9.716442e-01
    1.012610e+00
    1.013249e+00
    9.773871e-01
    9.813456e-01
    1.007619e+00
    1.008944e+00
    9.825745e-01
    9.853296e-01
    1.003270e+00
    1.004136e+00
    9.885365e-01
    9.901233e-01
    1.002520e+00
    1.001883e+00
    9.905521e-01
    9.914845e-01
    1.020961e+00
    1.019486e+00
    1.065431e+00
    1.062426e+00
    9.966415e-01
    9.963443e-01
    1.057150e+00
    1.051058e+00
    1.032468e+00
    1.015160e+00
    8.316056e-01
    8.446715e-01
    1.128089e+00
    1.111842e+00
    7.619298e-01
    7.724688e-01
    1.049332e+00
    1.049687e+00
    9.028859e-01
    9.408127e-01
    1.064092e+00
    1.096930e+00
    1.059119e+00
    1.068533e+00
    1.149263e+00
    1.151617e+00
    1.065912e+00
    1.064127e+00
    1.060489e+00
    1.060922e+00
    9.193533e-01
    8.798079e-01
    1.092418e+00
    1.118551e+00
    9.665895e-01
    9.978318e-01
    1.109710e+00
    1.109660e+00
    1.123205e+00
    1.126213e+00
    1.097613e+00
    1.118127e+00
    1.087884e+00
    1.099742e+00
    1.108562e+00
    1.090918e+00
    1.030412e+00
    1.026601e+00
    1.002740e+00
    1.002519e+00
    9.479511e-01
    9.393705e-01
    9.728078e-01
    9.696257e-01
    9.820719e-01
    9.810146e-01
    9.863467e-01
    9.848585e-01
    9.906178e-01
    9.899982e-01
    9.912432e-01
    9.916624e-01
    1.004778e+00
    1.004607e+00
    1.009423e+00
    1.010034e+00
    1.014247e+00
    1.014738e+00
    1.021469e+00
    1.022829e+00
    1.045351e+00
    1.047690e+00
    1.063564e+00
    1.066711e+00
    1.060153e+00
    1.060265e+00
    1.037093e+00
    1.021138e+00
    1.030068e+00
    1.035693e+00
    1.065133e+00
    1.077831e+00
    1.049494e+00
    1.052954e+00
    8.940005e-01
    9.091293e-01
    1.067253e+00
    1.060785e+00
    9.359672e-01
    9.310721e-01
    1.037892e+00
    1.040079e+00
    9.673564e-01
    9.642271e-01
    9.744672e-01
    9.775463e-01
    1.006490e+00
    1.006615e+00
    9.871444e-01
    9.885163e-01
    9.910879e-01
    9.925271e-01
    9.944277e-01
    9.957720e-01
    9.988804e-01
    1.000025e+00
    1.001948e+00
    1.001964e+00
    1.037929e+00
    1.042282e+00
    1.043222e+00
    1.050506e+00
    9.921368e-01
    9.932271e-01
    1.001333e+00
    1.001800e+00
    1.027596e+00
    1.026076e+00
    9.573586e-01
    9.510916e-01
    9.673588e-01
    9.627652e-01
    1.050202e+00
    1.056172e+00
    8.882033e-01
    9.187688e-01
    9.181947e-01
    9.448102e-01
    9.395801e-01
    9.546798e-01
    1.035178e+00
    1.035282e+00
    9.748741e-01
    9.709962e-01
    1.010393e+00
    1.010705e+00
    9.787438e-01
    9.832335e-01
    1.006850e+00
    1.007072e+00
    9.835215e-01
    9.869408e-01
    1.003100e+00
    1.003439e+00
    9.892130e-01
    9.908548e-01
    1.000093e+00
    1.000342e+00
    9.975091e-01
    9.980761e-01
    9.962751e-01
    9.975489e-01
    9.936149e-01
    9.941705e-01
    1.015361e+00
    1.015933e+00
    1.099570e+00
    1.094387e+00
    1.096564e+00
    1.100590e+00
    1.087776e+00
    1.077142e+00
    1.001002e+00
    1.040164e+00
    9.668515e-01
    9.412143e-01
    1.060126e+00
    1.055746e+00
    8.650765e-01
    8.811352e-01
    1.072171e+00
    1.075252e+00
    1.079472e+00
    1.070974e+00
    9.714990e-01
    9.620505e-01
    1.070138e+00
    1.059500e+00
    9.485544e-01
    9.559491e-01
    1.022332e+00
    1.022061e+00
    1.028548e+00
    1.030377e+00
    1.100416e+00
    1.101781e+00
    9.592553e-01
    9.327414e-01
    1.065215e+00
    1.062259e+00
    1.062545e+00
    1.063967e+00
    9.146998e-01
    8.897656e-01
    1.054512e+00
    1.057231e+00
    9.339240e-01
    9.085993e-01
    1.096182e+00
    1.108171e+00
    1.069284e+00
    1.064791e+00
    1.060255e+00
    1.057430e+00
    1.033679e+00
    1.030005e+00
    1.040703e+00
    1.044920e+00
    9.631462e-01
    9.709652e-01
    9.756710e-01
    9.728345e-01
    9.599807e-01
    9.484572e-01
    9.838731e-01
    9.821839e-01
    9.876428e-01
    9.864157e-01
    9.920110e-01
    9.907333e-01
    1.003668e+00
    1.004515e+00
    1.007323e+00
    1.009173e+00
    1.011539e+00
    1.014946e+00
    1.017583e+00
    1.020958e+00
    1.050294e+00
    1.058436e+00
    1.049707e+00
    1.036502e+00
    1.049350e+00
    1.062422e+00
    1.058614e+00
    1.062545e+00
    9.499363e-01
    9.373232e-01
    1.064514e+00
    1.057184e+00
    1.022895e+00
    1.022392e+00
    9.746825e-01
    9.798236e-01
    1.005172e+00
    1.005344e+00
    9.873250e-01
    9.896095e-01
    1.002661e+00
    1.003153e+00
    9.937764e-01
    9.954937e-01
    9.988759e-01
    1.000212e+00
    9.933870e-01
    9.945900e-01
    9.959812e-01
    9.974361e-01
    9.973361e-01
    9.986722e-01
    1.000215e+00
    1.000913e+00
    1.049957e+00
    1.062219e+00
    9.911346e-01
    9.928018e-01
    1.001306e+00
    1.002088e+00
    9.713224e-01
    9.783485e-01
    9.561850e-01
    9.508039e-01
    1.008024e+00
    1.007498e+00
    9.806581e-01
    9.854686e-01
    1.005338e+00
    1.004840e+00
    9.856679e-01
    9.888638e-01
    1.002523e+00
    1.002284e+00
    9.901888e-01
    9.924631e-01
    1.012589e+00
    1.011608e+00
    1.094037e+00
    1.086485e+00
    1.058503e+00
    1.058553e+00
    1.071022e+00
    1.066627e+00
    1.067227e+00
    1.074682e+00
    1.054321e+00
    1.056509e+00
    1.088711e+00
    1.105762e+00
    1.082796e+00
    1.102158e+00
    1.045515e+00
    1.063857e+00
    9.471965e-01
    9.336810e-01
    1.083367e+00
    1.101353e+00
    1.105565e+00
    1.110997e+00
    9.880714e-01
    1.003475e+00
    9.874043e-01
    9.830952e-01
    1.003855e+00
    1.005787e+00
    9.821411e-01
    9.750374e-01
    1.006608e+00
    1.009120e+00
    1.043075e+00
    1.047620e+00
    1.012687e+00
    1.015722e+00
    9.641190e-01
    9.531000e-01
    1.035825e+00
    1.037371e+00
    9.593288e-01
    9.416143e-01
    1.061485e+00
    1.086588e+00
    1.074980e+00
    1.065608e+00
    1.021883e+00
    1.026406e+00
    1.015553e+00
    1.018090e+00
    9.632602e-01
    9.679524e-01
    1.048675e+00
    1.074568e+00
    1.078668e+00
    1.062240e+00
    1.049028e+00
    1.050917e+00
    9.714968e-01
    9.699547e-01
    1.017413e+00
    1.015663e+00
    1.076571e+00
    1.071626e+00
    9.588474e-01
    9.702181e-01
    1.024094e+00
    1.025095e+00
    9.338503e-01
    9.291516e-01
    1.052727e+00
    1.052557e+00
    9.929402e-01
    9.949701e-01
    9.988734e-01
    1.000218e+00
    9.929224e-01
    9.942881e-01
    9.956812e-01
    9.971992e-01
    9.971829e-01
    9.986662e-01
    1.000407e+00
    1.001256e+00
    1.002333e+00
    1.003513e+00
    9.862679e-01
    9.847406e-01
    9.894629e-01
    9.877736e-01
    9.670841e-01
    9.751629e-01
    1.006069e+00
    1.007441e+00
    1.009315e+00
    1.011393e+00
    9.813873e-01
    9.761232e-01
    9.772673e-01
    9.826622e-01
    1.004139e+00
    1.003674e+00
    9.885959e-01
    9.909868e-01
    1.001477e+00
    1.000629e+00
    1.003531e+00
    1.002464e+00
    9.876339e-01
    9.910171e-01
    9.914799e-01
    9.936682e-01
    1.071615e+00
    1.057934e+00
    1.047260e+00
    1.054886e+00
    1.078324e+00
    1.088610e+00
    1.071985e+00
    1.076003e+00
    1.086879e+00
    1.097173e+00
    1.025839e+00
    1.030804e+00
    1.083096e+00
    1.084749e+00
    9.642961e-01
    9.516955e-01
    9.731548e-01
    9.715167e-01
    1.018632e+00
    1.020310e+00
    1.010328e+00
    1.013134e+00
    1.011618e+00
    1.013186e+00
    1.017771e+00
    1.020337e+00
    9.635116e-01
    9.778455e-01
    1.050639e+00
    1.048208e+00
    1.071487e+00
    1.089314e+00
    1.013260e+00
    1.025050e+00
    9.846555e-01
    9.832636e-01
    1.083305e+00
    1.089406e+00
    9.254672e-01
    9.124445e-01
    1.064785e+00
    1.064034e+00
    1.067131e+00
    1.076376e+00
    9.993098e-01
    1.001454e+00
    1.003072e+00
    1.004567e+00
    1.004572e+00
    1.007191e+00
    9.833479e-01
    9.783197e-01
    9.796430e-01
    9.722310e-01
    9.854827e-01
    9.815775e-01
    1.078956e+00
    1.083450e+00
    9.875787e-01
    9.868529e-01
    1.003702e+00
    1.003240e+00
    9.859727e-01
    9.799995e-01
    1.004269e+00
    1.005363e+00
    1.091941e+00
    1.093914e+00
    1.056097e+00
    1.052136e+00
    1.081634e+00
    1.068700e+00
    9.896245e-01
    9.866546e-01
    9.915764e-01
    9.895480e-01
    1.007514e+00
    1.012630e+00
    1.002626e+00
    1.001619e+00
    1.002126e+00
    1.002069e+00
    9.901927e-01
    9.926093e-01
    9.919226e-01
    9.944505e-01
    9.989160e-01
    1.000703e+00
    9.951936e-01
    9.969931e-01
    9.970400e-01
    9.986719e-01
    1.038908e+00
    1.043715e+00
    9.899477e-01
    9.935856e-01
    1.077191e+00
    1.086383e+00
    9.754577e-01
    1.012158e+00
    1.008418e+00
    1.009760e+00
    1.017198e+00
    1.014540e+00
    1.077029e+00
    1.083392e+00
    9.493604e-01
    9.323822e-01
    9.862984e-01
    9.849834e-01
    9.992152e-01
    1.001769e+00
    1.001321e+00
    1.002236e+00
    9.823579e-01
    9.894872e-01
    9.794475e-01
    9.748367e-01
    1.063726e+00
    1.064033e+00
    1.082659e+00
    1.089994e+00
    1.067172e+00
    1.063414e+00
    9.470330e-01
    9.511046e-01
    9.674572e-01
    9.399440e-01
    9.807895e-01
    9.609974e-01
    1.043774e+00
    1.048271e+00
    9.959983e-01
    9.926239e-01
    9.918858e-01
    9.882225e-01
    1.001104e+00
    1.007229e+00
    1.034634e+00
    1.035028e+00
    1.000610e+00
    1.000305e+00
    1.035010e+00
    1.049062e+00
    9.801909e-01
    9.592844e-01
    9.988476e-01
    9.976730e-01
    9.793181e-01
    9.802138e-01
    1.013684e+00
    1.021824e+00
    9.771525e-01
    9.667072e-01
    9.940522e-01
    9.916024e-01
    9.985545e-01
    1.002327e+00
    1.008253e+00
    1.014459e+00
    1.023497e+00
    1.031087e+00
    9.946539e-01
    9.966426e-01
    9.971283e-01
    9.986567e-01
    9.741752e-01
    9.686665e-01
    1.073224e+00
    1.087584e+00
    1.089645e+00
    1.077716e+00
    9.948289e-01
    9.986293e-01
    9.912401e-01
    9.889502e-01
    9.827340e-01
    9.729792e-01
    1.037425e+00
    1.041315e+00
    1.061854e+00
    1.068830e+00
    1.004270e+00
    1.034804e+00
    9.852939e-01
    9.773589e-01
    9.805347e-01
    9.853528e-01
    9.958186e-01
    9.991993e-01
    1.001870e+00
    1.007652e+00
    1.010204e+00
    1.007848e+00
    9.859203e-01
    9.770108e-01
    1.022747e+00
    1.048874e+00
    9.664451e-01
    9.619549e-01
    9.960296e-01
    9.962135e-01
    9.935511e-01
    9.884682e-01
    9.702952e-01
    9.595194e-01
    9.968684e-01
    9.943058e-01
    9.994553e-01
    1.000492e+00
    9.798371e-01
    9.883660e-01
    9.895678e-01
    9.843945e-01
    1.003858e+00
    9.988711e-01
    9.954801e-01
    9.933583e-01
    9.964182e-01
    9.988543e-01
    9.858333e-01
    9.903992e-01
    1.063399e+00
    1.071325e+00
    1.025182e+00
    1.029008e+00
    1.010447e+00
    1.003247e+00
    9.978133e-01
    9.956723e-01
    9.752119e-01
    9.762281e-01
    9.615273e-01
    9.814885e-01
    9.948168e-01
    9.908251e-01
    9.946755e-01
    9.895664e-01
    9.943476e-01
    9.893439e-01
    9.945150e-01
    9.993832e-01
    9.940658e-01
    9.859411e-01
    1.067693e+00
    1.078132e+00
    9.951348e-01
    9.986001e-01
    9.861861e-01
    9.843023e-01
    9.940467e-01
    1.000618e+00
    1.003280e+00
    9.956300e-01
    1.053492e+00
    1.060563e+00
    9.921619e-01
    9.842960e-01
    9.886697e-01
    9.841473e-01
    9.927912e-01
    9.922228e-01
    9.692834e-01
    9.872774e-01
    1.050561e+00
    1.061881e+00
    1.020567e+00
    1.027769e+00
    9.881277e-01
    9.790250e-01
    9.945695e-01
    9.917147e-01
    1.067930e+00
    1.062152e+00
    9.946908e-01
    9.944665e-01
    9.944197e-01
    1.001652e+00
    1.048350e+00
    1.049702e+00
    1.013296e+00
    9.897469e-01
    9.906128e-01
    9.960741e-01
    9.981326e-01
    1.014966e+00
    1.044570e+00
    1.042844e+00
    9.973314e-01
    9.865336e-01
    1.068915e+00
    1.062718e+00
    9.989027e-01
    1.003606e+00
    1.052671e+00
    1.054360e+00
    1.051409e+00
    1.043000e+00
    1.032098e+00
    1.043884e+00
    9.962143e-01
    9.966555e-01
    1.045953e+00
    1.046535e+00
    1.008921e+00
    1.033011e+00
    1.024660e+00
    1.043096e+00
    1.038869e+00
    1.040721e+00
    1.045489e+00
    1.046028e+00
    1.015458e+00
    1.026963e+00
    1.024965e+00
    1.029383e+00
    1.037385e+00
    1.034044e+00
    1.036902e+00
    1.042293e+00
    1.046689e+00
    1.049790e+00
    9.982694e-01
    1.007629e+00
    1.011233e+00
    1.022188e+00
    1.038589e+00
    1.042129e+00
    1.002050e+00
    1.018633e+00
    1.002338e+00
    9.873646e-01
    1.017010e+00
    1.020044e+00
    1.005797e+00
    1.023224e+00
    1.002633e+00
    9.981635e-01
    1.028680e+00
    1.027106e+00
    1.010081e+00
    1.006741e+00
    9.963054e-01
    1.001473e+00
    1.011360e+00
    1.016091e+00
    1.029020e+00
    1.030718e+00
    9.935884e-01
    9.868312e-01
    9.932184e-01
    9.960115e-01
    1.007754e+00
    1.015950e+00
    1.007525e+00
    1.004182e+00
    9.919900e-01
    9.967232e-01
    1.000088e+00
    1.000462e+00
    9.875185e-01
    9.896683e-01
    1.011440e+00
    1.009643e+00
    9.984420e-01
    9.933088e-01
    9.805731e-01
    9.803607e-01
    1.003321e+00
    9.986678e-01
    1.010142e+00
    1.005876e+00
    1.004659e+00
    9.979880e-01
    1.009544e+00
    1.010449e+00
    1.016348e+00
    1.011695e+00
    1.005933e+00
    1.004509e+00
    1.020543e+00
    1.018547e+00
    1.012220e+00
    1.013143e+00
    1.027394e+00
    1.032461e+00
    1.010927e+00
    1.009769e+00
    1.025288e+00
    1.021387e+00
    1.021430e+00
    1.019955e+00
    1.024735e+00
    1.027647e+00
    1.021797e+00
    1.032155e+00
    1.035194e+00
    1.038002e+00
    1.035747e+00
    1.031840e+00
    2.748133e+00
    1.242116e+00
    1.178954e+00
    1.123479e+00
    1.044984e+00
    1.034275e+00
    1.040003e+00
    1.030391e+00
    1.016650e+00
    1.008229e+00
    9.713052e-01
    9.862952e-01
    1.006425e+00
    9.981437e-01
    1.005103e+00
    1.039847e+00
    1.059712e+00
    1.071225e+00
    1.074723e+00
    1.071775e+00
    1.053846e+00
    1.019453e+00
    9.826661e-01
    9.723566e-01
    9.613183e-01
    9.561642e-01
    9.568033e-01
    9.544278e-01
    9.490608e-01
    9.479314e-01
    9.463564e-01
    9.430395e-01
    9.425299e-01
    9.496005e-01
    9.766619e-01
    1.015790e+00
    1.057416e+00
    1.074092e+00
    1.088222e+00
    1.085114e+00
    1.066403e+00
    1.041966e+00
    1.016756e+00
    1.021157e+00
    1.031166e+00
    9.626418e-01
    9.874605e-01
    1.009749e+00
    1.016990e+00
    1.021329e+00
    1.032795e+00
    1.036001e+00
    1.036500e+00
    1.078469e+00
    1.110052e+00
    1.210489e+00
    1.469621e+00
    2.035316e+00
    1.187661e+00
    1.106155e+00
    1.041255e+00
    1.034652e+00
    1.037189e+00
    1.032982e+00
    1.019190e+00
    1.010010e+00
    1.003419e+00
    9.679789e-01
    1.014872e+00
    1.027791e+00
    1.052537e+00
    1.063800e+00
    1.069053e+00
    1.067034e+00
    1.058491e+00
    1.040152e+00
    1.010259e+00
    9.834054e-01
    9.723227e-01
    9.644238e-01
    9.615153e-01
    9.616479e-01
    9.623985e-01
    9.590892e-01
    1.041414e+00
    1.037287e+00
    1.058212e+00
    1.064819e+00
    1.065089e+00
    1.056355e+00
    1.044860e+00
    1.020678e+00
    1.005324e+00
    9.802773e-01
    9.732808e-01
    9.678341e-01
    9.661353e-01
    9.674349e-01
    9.675735e-01
    9.636745e-01
    1.052365e+00
    1.057981e+00
    1.062550e+00
    1.063122e+00
    1.059152e+00
    1.050416e+00
    1.040177e+00
    1.019753e+00
    9.979773e-01
    9.799296e-01
    9.748692e-01
    9.715229e-01
    9.711117e-01
    9.721972e-01
    9.727983e-01
    9.706678e-01
    1.060502e+00
    1.062866e+00
    1.062883e+00
    1.060092e+00
    1.052759e+00
    1.042699e+00
    1.029765e+00
    1.013923e+00
    9.942830e-01
    9.800394e-01
    9.767690e-01
    9.748598e-01
    9.749748e-01
    9.765146e-01
    9.765074e-01
    9.744131e-01
    1.076000e+00
    1.064408e+00
    1.063615e+00
    1.055254e+00
    1.045824e+00
    1.034520e+00
    1.023953e+00
    1.008469e+00
    9.948916e-01
    9.823914e-01
    9.791910e-01
    9.785159e-01
    9.786503e-01
    9.800555e-01
    9.817516e-01
    9.770833e-01
    1.075584e+00
    1.078129e+00
    1.058222e+00
    1.050265e+00
    1.039341e+00
    1.028200e+00
    1.019678e+00
    1.005119e+00
    9.883459e-01
    9.833401e-01
    9.821012e-01
    9.813680e-01
    9.815993e-01
    9.828193e-01
    9.832665e-01
    9.819608e-01
    1.078658e+00
    1.068784e+00
    1.055140e+00
    1.044666e+00
    1.033859e+00
    1.023800e+00
    1.014671e+00
    1.002920e+00
    9.905159e-01
    9.859800e-01
    9.846401e-01
    9.839137e-01
    9.843662e-01
    9.854956e-01
    9.860576e-01
    9.838783e-01
    1.072722e+00
    1.063405e+00
    1.050403e+00
    1.039336e+00
    1.028704e+00
    1.019122e+00
    1.011374e+00
    1.003373e+00
    9.891310e-01
    9.883631e-01
    9.868265e-01
    9.861036e-01
    9.868802e-01
    9.864107e-01
    9.881737e-01
    9.871477e-01
    1.062065e+00
    1.060045e+00
    1.044401e+00
    1.034315e+00
    1.024101e+00
    1.015394e+00
    1.007296e+00
    1.001762e+00
    9.911098e-01
    9.895036e-01
    9.879646e-01
    9.880603e-01
    9.865476e-01
    9.882983e-01
    9.874279e-01
    9.874473e-01
    1.062903e+00
    1.057947e+00
    1.040713e+00
    1.029165e+00
    1.019789e+00
    1.011997e+00
    1.005293e+00
    9.988057e-01
    9.929961e-01
    9.896294e-01
    9.895360e-01
    9.881516e-01
    9.889035e-01
    9.890063e-01
    9.871429e-01
    9.870930e-01
    1.055671e+00
    1.046015e+00
    1.033363e+00
    1.024741e+00
    1.016183e+00
    1.009234e+00
    1.002675e+00
    9.977350e-01
    9.945184e-01
    9.913918e-01
    9.902396e-01
    9.899458e-01
    9.896592e-01
    9.875674e-01
    9.856274e-01
    1.043584e+00
    1.044304e+00
    1.029029e+00
    1.020074e+00
    1.012675e+00
    1.006301e+00
    1.000732e+00
    9.966640e-01
    9.943049e-01
    9.923940e-01
    9.910660e-01
    9.907185e-01
    9.889727e-01
    9.865410e-01
    1.039864e+00
    1.032958e+00
    1.024561e+00
    1.016117e+00
    1.009405e+00
    1.004191e+00
    1.000363e+00
    9.960206e-01
    9.942576e-01
    9.921526e-01
    9.910017e-01
    9.889973e-01
    9.870661e-01
    1.031588e+00
    1.029693e+00
    1.019410e+00
    1.012749e+00
    1.007123e+00
    1.003379e+00
    9.991925e-01
    9.957139e-01
    9.941987e-01
    9.917584e-01
    9.905786e-01
    9.882601e-01
    1.027367e+00
    1.020694e+00
    1.014691e+00
    1.009449e+00
    1.005945e+00
    1.001847e+00
    9.977592e-01
    9.956641e-01
    9.940839e-01
    9.923444e-01
    9.900062e-01
    1.019411e+00
    1.017442e+00
    1.011997e+00
    1.008091e+00
    1.003459e+00
    1.000643e+00
    9.972450e-01
    9.948733e-01
    9.923614e-01
    9.912370e-01
    1.015025e+00
    1.013740e+00
    1.008911e+00
    1.004735e+00
    1.001389e+00
    9.991198e-01
    9.968449e-01
    9.946831e-01
    9.937555e-01
    1.015378e+00
    1.008234e+00
    1.005820e+00
    1.002994e+00
    1.000022e+00
    9.982603e-01
    9.961945e-01
    9.954354e-01
    1.007678e+00
    1.004992e+00
    1.003373e+00
    1.000769e+00
    9.988558e-01
    9.971415e-01
    9.964623e-01
    1.006312e+00
    1.002529e+00
    1.001464e+00
    1.000109e+00
    9.985850e-01
    9.986972e-01
    1.002059e+00
    1.001880e+00
    1.001202e+00
    9.991201e-01
    9.995379e-01
    1.001250e+00
    9.995446e-01
    1.000523e+00
    1.000076e+00
    9.996395e-01
    1.000085e+00
    1.000398e+00
    9.998684e-01
    9.405068e-01
    9.431560e-01
    9.338405e-01
    9.348624e-01
    9.455577e-01
    9.893083e-01
    1.053404e+00
    1.079105e+00
    1.093901e+00
    1.094796e+00
    1.082748e+00
    1.058312e+00
    1.033895e+00
    1.012382e+00
    9.986848e-01
    9.288636e-01
    9.223016e-01
    9.209006e-01
    9.256304e-01
    9.411641e-01
    1.005477e+00
    1.074134e+00
    1.103329e+00
    1.112771e+00
    1.091081e+00
    1.080612e+00
    1.048584e+00
    1.025942e+00
    1.026521e+00
    9.179994e-01
    9.153907e-01
    9.122272e-01
    9.159116e-01
    9.447433e-01
    1.051231e+00
    1.105522e+00
    1.138085e+00
    1.128286e+00
    1.094792e+00
    1.062486e+00
    1.039575e+00
    1.036246e+00
    8.961781e-01
    9.102737e-01
    8.891130e-01
    9.089750e-01
    9.672918e-01
    1.084572e+00
    1.130532e+00
    1.147610e+00
    1.134901e+00
    1.082735e+00
    1.047252e+00
    1.049883e+00
    8.825431e-01
    8.732063e-01
    8.807322e-01
    9.402271e-01
    9.991959e-01
    1.118760e+00
    1.186345e+00
    1.151518e+00
    1.112255e+00
    1.055363e+00
    1.066143e+00
    8.399766e-01
    8.638725e-01
    8.447762e-01
    9.266101e-01
    1.056859e+00
    1.182983e+00
    1.223004e+00
    1.163936e+00
    1.072266e+00
    1.083138e+00
    8.135219e-01
    7.671576e-01
    7.969477e-01
    9.697661e-01
    1.120954e+00
    1.236334e+00
    1.198293e+00
    1.119540e+00
    1.166457e+00
    7.273021e-01
    7.370322e-01
    8.068660e-01
    9.457619e-01
    1.224591e+00
    1.299187e+00
    1.184709e+00
    1.160532e+00
    6.711262e-01
    5.837643e-01
    7.572169e-01
    1.036799e+00
    1.352995e+00
    1.285058e+00
    1.242822e+00
    4.314919e-01
    4.192650e-01
    8.161908e-01
    1.145027e+00
    1.365306e+00
    1.423163e+00
    3.680131e-01
    2.945457e-01
    2.677890e-01
    1.632219e+00
    1.678693e+00
    2.542106e-01
    8.035656e-01
    1.931182e-01
    1.495025e+00
    1.216925e+00
    1.170122e-01
    1.034418e+00
    1.048849e+00
    1.069822e+00
    1.078682e+00
    1.111425e+00
    1.172383e+00
    1.200249e+00
    1.247228e+00
    1.268837e+00
    1.149350e+00
    6.016386e-01
    1.052739e+00
    1.040538e+00
    1.059311e+00
    1.075279e+00
    1.092432e+00
    1.119945e+00
    1.167791e+00
    1.189674e+00
    1.225383e+00
    1.162275e+00
    1.058041e+00
    6.688139e-01
    1.042406e+00
    1.072095e+00
    1.063736e+00
    1.081289e+00
    1.104772e+00
    1.114949e+00
    1.131759e+00
    1.155740e+00
    1.165903e+00
    1.101483e+00
    9.591103e-01
    8.645254e-01
    1.053270e+00
    1.061314e+00
    1.081882e+00
    1.081309e+00
    1.091960e+00
    1.097348e+00
    1.099520e+00
    1.088611e+00
    1.057921e+00
    1.032416e+00
    9.065055e-01
    7.990975e-01
    1.059629e+00
    1.064140e+00
    1.072571e+00
    1.074421e+00
    1.085788e+00
    1.076737e+00
    1.073278e+00
    1.058582e+00
    1.024459e+00
    9.902618e-01
    9.056246e-01
    8.390165e-01
    1.061764e+00
    1.064688e+00
    1.068631e+00
    1.071769e+00
    1.052166e+00
    1.065355e+00
    1.052921e+00
    1.042056e+00
    1.021790e+00
    9.618160e-01
    9.185408e-01
    8.746570e-01
    1.062305e+00
    1.062289e+00
    1.063383e+00
    1.065554e+00
    1.064099e+00
    1.039490e+00
    1.035819e+00
    1.026052e+00
    9.991214e-01
    9.487113e-01
    9.210576e-01
    8.911915e-01
    1.062695e+00
    1.059146e+00
    1.056527e+00
    1.056527e+00
    1.050703e+00
    1.038648e+00
    1.000029e+00
    1.017640e+00
    9.672287e-01
    9.516701e-01
    9.293343e-01
    9.097687e-01
    1.058749e+00
    1.054860e+00
    1.050722e+00
    1.045691e+00
    1.038389e+00
    1.029457e+00
    1.026218e+00
    9.677441e-01
    9.821374e-01
    9.546098e-01
    9.380087e-01
    9.243748e-01
    1.053554e+00
    1.049336e+00
    1.044279e+00
    1.039188e+00
    1.033119e+00
    1.026687e+00
    1.019516e+00
    9.911479e-01
    9.548376e-01
    9.583428e-01
    9.452096e-01
    9.350785e-01
    1.050674e+00
    1.044291e+00
    1.038345e+00
    1.031914e+00
    1.025665e+00
    1.013711e+00
    9.997775e-01
    9.922251e-01
    9.688718e-01
    9.491324e-01
    9.507127e-01
    9.418870e-01
    1.044237e+00
    1.039083e+00
    1.032986e+00
    1.026057e+00
    1.018518e+00
    1.008517e+00
    9.942365e-01
    9.878728e-01
    9.696667e-01
    9.586691e-01
    9.485201e-01
    9.497439e-01
    1.040528e+00
    1.034777e+00
    1.028331e+00
    1.022591e+00
    1.018886e+00
    1.004571e+00
    9.925085e-01
    9.864854e-01
    9.716891e-01
    9.626983e-01
    9.550939e-01
    1.033616e+00
    1.029180e+00
    1.023770e+00
    1.017785e+00
    1.013522e+00
    1.003307e+00
    9.937677e-01
    9.842422e-01
    9.738333e-01
    9.668067e-01
    9.605536e-01
    9.563296e-01
    1.028085e+00
    1.024961e+00
    1.019676e+00
    1.014750e+00
    1.007934e+00
    1.000688e+00
    9.908575e-01
    9.822061e-01
    9.762788e-01
    9.706862e-01
    9.652848e-01
    9.616409e-01
    1.024845e+00
    1.020576e+00
    1.016087e+00
    1.011637e+00
    1.007218e+00
    1.004018e+00
    9.915838e-01
    9.832374e-01
    9.787768e-01
    9.741866e-01
    9.701352e-01
    9.671941e-01
    1.018750e+00
    1.016266e+00
    1.012897e+00
    1.008879e+00
    1.004570e+00
    9.988160e-01
    9.918529e-01
    9.858032e-01
    9.814195e-01
    9.776061e-01
    9.743199e-01
    9.722338e-01
    1.015326e+00
    1.012772e+00
    1.009234e+00
    1.005907e+00
    1.002197e+00
    9.985833e-01
    9.920675e-01
    9.875944e-01
    9.839007e-01
    9.805845e-01
    9.779341e-01
    9.762334e-01
    1.011249e+00
    1.008187e+00
    1.006175e+00
    1.003222e+00
    9.998992e-01
    9.973592e-01
    9.925362e-01
    9.900131e-01
    9.861817e-01
    9.834116e-01
    9.813750e-01
    9.800329e-01
    1.009403e+00
    1.007824e+00
    1.005741e+00
    1.002921e+00
    9.996769e-01
    9.968876e-01
    9.938537e-01
    9.901155e-01
    9.876606e-01
    9.856793e-01
    9.837588e-01
    9.825258e-01
    1.005855e+00
    1.005036e+00
    1.003424e+00
    1.000949e+00
    9.990247e-01
    9.960594e-01
    9.941288e-01
    9.911193e-01
    9.898165e-01
    9.890610e-01
    9.868861e-01
    9.849877e-01
    1.003100e+00
    1.002802e+00
    1.001583e+00
    1.000368e+00
    9.976231e-01
    9.956165e-01
    9.941233e-01
    9.923775e-01
    9.898243e-01
    9.886051e-01
    9.872043e-01
    9.864689e-01
    1.001294e+00
    1.001024e+00
    9.999734e-01
    9.990351e-01
    9.971625e-01
    9.951158e-01
    9.939404e-01
    9.925346e-01
    9.904072e-01
    9.891408e-01
    9.880102e-01
    9.873219e-01
    1.000595e+00
    1.000391e+00
    9.988236e-01
    9.976517e-01
    9.967066e-01
    9.950150e-01
    9.931973e-01
    9.915699e-01
    9.904513e-01
    9.887639e-01
    9.881712e-01
    9.872690e-01
    2.189183e+00
    2.329719e+00
    2.124612e+00
    1.997060e+00
    1.865237e+00
    1.768061e+00
    1.677705e+00
    1.550757e+00
    1.426037e+00
    1.397271e+00
    1.395410e+00
    1.357836e+00
    1.328521e+00
    1.292436e+00
    1.269834e+00
    1.233815e+00
    1.175862e+00
    1.160579e+00
    1.060989e+00
    1.022822e+00
    9.869733e-01
    9.995975e-01
    1.003111e+00
    1.010313e+00
    1.025525e+00
    1.046583e+00
    1.066629e+00
    1.068993e+00
    1.069283e+00
    1.039441e+00
    9.829241e-01
    9.860491e-01
    9.883800e-01
    9.922698e-01
    9.969913e-01
    9.994701e-01
    9.879694e-01
    9.854022e-01
    9.796094e-01
    9.708053e-01
    9.592897e-01
    9.360498e-01
    9.089405e-01
    8.627444e-01
    7.870663e-01
    5.778778e-01
    3.888973e-01
    3.585238e-01
    2.854155e-01
    2.633037e-01
    2.781004e-01
    2.703682e-01
    2.473431e-01
    2.470089e-01
    2.497510e-01
    2.975433e-01
    3.158419e-01
    3.379974e-01
    3.588005e-01
    5.644504e-01
    5.727224e-01
    8.556821e-01
    8.538753e-01
    1.070965e+00
    3.122034e+00
    2.787363e+00
    2.599926e+00
    2.949705e+00
    3.011181e+00
    2.797973e+00
    2.539220e+00
    2.694602e+00
    2.499550e+00
    2.276656e+00
    2.238516e+00
    1.955085e+00
    1.765996e+00
    1.647175e+00
    1.476152e+00
    1.493755e+00
    1.177776e+00
    1.043171e+00
    8.364588e-01
    7.420518e-01
    5.997908e-01
    5.151186e-01
    3.590997e-01
    6.439065e-01
    7.180750e-01
    1.504047e-01
    1.369931e-01
    3.865068e-01
    3.438597e-01
    6.118084e-01
    5.363902e-01
    8.005308e-01
    7.025843e-01
    9.483112e-01
    1.197786e+00
    3.538119e-01
    3.842716e-01
    2.698722e-01
    2.564894e-01
    3.313921e-01
    3.171580e-01
    3.432812e-01
    3.023052e-01
    2.766822e-01
    2.515412e-01
    2.657142e-01
    2.489816e-01
    2.454676e-01
    3.907791e-01
    2.824189e-01
    4.465535e-01
    4.243418e-01
    5.039255e-01
    6.083803e-01
    1.051827e+00
    8.426076e-01
    2.451797e+00
    2.533854e+00
    1.604207e+00
    1.511320e+00
    1.417489e+00
    1.450657e+00
    2.233350e+00
    2.070187e+00
    1.921138e+00
    2.044418e+00
    1.822259e+00
    1.965288e+00
    1.727713e+00
    1.756863e+00
    1.637681e+00
    1.736495e+00
    1.613192e+00
    1.536375e+00
    1.579879e+00
    1.543020e+00
    1.380362e+00
    1.390789e+00
    1.339492e+00
    1.384706e+00
    1.323885e+00
    1.326309e+00
    1.291456e+00
    1.309806e+00
    1.262849e+00
    1.269682e+00
    1.253431e+00
    1.234892e+00
    1.237040e+00
    3.287354e-01
    3.368866e-01
    2.875666e-01
    2.911915e-01
    2.949671e-01
    2.549564e-01
    2.591270e-01
    2.559432e-01
    2.785075e-01
    2.602647e-01
    3.386733e-01
    3.226622e-01
    4.478422e-01
    4.154154e-01
    2.098967e+00
    1.631793e+00
    2.889957e+00
    2.461819e+00
    3.398625e-01
    2.379753e-01
    1.327648e+00
    8.909820e-01
    9.987626e-01
    8.391002e-01
    2.694960e+00
    2.646312e+00
    2.634570e+00
    2.652644e-01
    4.413000e-01
    2.605143e+00
    2.141257e+00
    7.081956e-01
    7.576326e-01
    2.201277e-01
    5.963641e-01
    2.361936e+00
    1.930283e+00
    2.916645e-01
    2.679156e-01
    5.038267e-01
    4.874690e-01
    2.708339e+00
    2.429593e+00
    2.395570e+00
    2.311895e+00
    5.560655e-01
    6.200112e-01
    1.092646e+00
    1.076866e+00
    8.854471e-01
    3.700965e-01
    6.544273e-01
    1.003122e+00
    2.333910e+00
    2.234032e+00
    7.047938e-01
    6.075821e-01
    1.336276e+00
    1.805200e+00
    2.008048e+00
    1.905923e+00
    4.576055e-01
    6.753920e-01
    1.216933e+00
    1.188910e+00
    4.072572e-01
    3.642466e-01
    1.770189e+00
    1.582177e+00
    3.143149e-01
    1.035997e-01
    3.917250e-01
    3.186081e-01
    2.239281e+00
    2.369267e+00
    2.745155e+00
    4.266338e-01
    3.876095e-01
    1.175426e+00
    1.197810e+00
    5.347245e-01
    4.140703e-01
    1.139509e+00
    1.177267e+00
    5.600017e-01
    4.813353e-01
    1.111725e+00
    1.167209e+00
    1.453618e+00
    1.443842e+00
    2.697000e-01
    2.686247e-01
    3.803457e-01
    3.382715e-01
    3.010736e-01
    3.038248e-01
    3.633360e-01
    1.822678e+00
    1.677233e+00
    2.438723e+00
    2.049448e+00
    1.894960e+00
    1.858574e+00
    1.509484e+00
    1.607741e+00
    1.358463e+00
    1.357417e+00
    1.309228e+00
    1.313204e+00
    1.307550e+00
    1.253357e+00
    3.662399e-01
    3.093387e-01
    3.084244e-01
    2.581675e-01
    3.145793e-01
    2.876689e-01
    5.382500e-01
    2.347781e+00
    6.737781e-01
    8.215302e-01
    1.278644e+00
    1.261438e+00
    1.493992e+00
    1.399778e+00
    1.670245e+00
    1.772963e+00
    1.644405e+00
    1.575839e+00
    1.340577e+00
    1.411977e+00
    1.326785e+00
    1.340330e+00
    3.173839e-01
    3.323758e-01
    3.040830e-01
    2.721138e-01
    2.643238e-01
    2.582879e-01
    2.763568e-01
    2.926371e-01
    2.641887e-01
    3.489386e-01
    3.316219e-01
    4.392794e-01
    3.917115e-01
    3.583657e-01
    1.224590e+00
    1.228466e+00
    3.063556e+00
    2.601421e+00
    7.211363e-01
    6.625787e-01
    1.465268e+00
    1.486947e+00
    1.011246e+00
    4.310403e-01
    4.964822e-01
    1.895782e+00
    1.392660e+00
    2.888575e+00
    9.252072e-01
    9.312453e-01
    3.365072e-01
    4.280671e-01
    3.794540e-01
    2.917133e-01
    2.249047e+00
    2.586813e+00
    6.439532e-01
    4.245512e-01
    1.876216e+00
    2.143198e+00
    1.050341e+00
    1.358342e+00
    4.924147e-01
    7.975625e-01
    2.172465e+00
    2.539380e+00
    1.781234e+00
    1.820381e+00
    2.048404e+00
    2.437863e+00
    2.135082e+00
    2.144248e+00
    5.671861e-01
    4.795741e-01
    4.077726e-01
    4.373101e-01
    7.747459e-01
    3.862747e-01
    3.040657e-01
    4.977602e-01
    4.915374e-01
    1.958123e+00
    2.035271e+00
    5.912947e-01
    5.228649e-01
    9.488854e-01
    9.692833e-01
    2.484793e+00
    2.240673e+00
    1.738278e+00
    1.710353e+00
    1.346372e+00
    1.629815e+00
    5.394781e-01
    4.972385e-01
    1.756355e+00
    4.408993e-01
    4.004490e-01
    3.809266e-01
    4.074631e-01
    1.229400e+00
    1.200767e+00
    5.466794e-01
    4.795345e-01
    1.144977e+00
    1.207033e+00
    4.970187e-01
    6.635395e-01
    1.122397e+00
    1.103541e+00
    1.251407e+00
    3.335267e-01
    3.739581e-01
    2.952106e-01
    2.798802e-01
    3.925039e-01
    3.025681e-01
    3.458752e-01
    2.858188e-01
    3.321908e-01
    3.454595e-01
    1.520080e+00
    1.579671e+00
    1.554546e+00
    1.644502e+00
    1.662996e+00
    1.714048e+00
    1.719642e+00
    1.819632e+00
    1.799358e+00
    1.691191e+00
    2.218480e+00
    4.564901e-01
    4.044449e-01
    6.592813e-01
    3.160985e-01
    3.259262e-01
    1.277032e+00
    1.308140e+00
    3.470443e-01
    3.413342e-01
    2.785868e-01
    1.481910e+00
    1.344216e+00
    1.292815e+00
    1.271877e+00
    2.774348e-01
    3.165929e-01
    1.487640e+00
    1.381885e+00
    1.439800e+00
    1.267311e+00
    3.163544e-01
    3.047450e-01
    2.962611e-01
    1.422840e+00
    6.555117e-01
    8.430036e-01
    6.009290e-01
    7.100559e-01
    1.148382e+00
    1.221669e+00
    1.471179e+00
    1.513230e+00
    8.413171e-01
    7.475710e-01
    2.324957e+00
    2.568874e+00
    1.844821e+00
    2.475113e+00
    2.048845e+00
    2.410871e+00
    2.109953e+00
    2.365698e+00
    6.295267e-01
    4.602351e-01
    2.213099e+00
    1.874942e+00
    1.966585e+00
    2.054883e+00
    2.312018e+00
    2.118898e+00
    2.235318e+00
    1.957356e+00
    4.721676e-01
    5.459334e-01
    4.516894e-01
    4.569145e-01
    5.533761e-01
    5.136349e-01
    4.256978e-01
    4.524495e-01
    4.298531e-01
    5.416464e-01
    4.134726e-01
    5.112311e-01
    4.315692e-01
    4.700686e-01
    4.729161e-01
    5.822877e-01
    5.332407e-01
    5.433038e-01
    6.154428e-01
    7.949273e-01
    1.036585e+00
    9.593332e-01
    1.152746e+00
    1.047281e+00
    1.943871e+00
    1.895015e+00
    1.275794e+00
    1.231090e+00
    1.574522e+00
    1.831796e+00
    1.737471e+00
    1.299006e+00
    1.647685e+00
    1.562356e+00
    4.030514e-01
    4.142510e-01
    1.204083e+00
    1.233791e+00
    5.058926e-01
    4.662318e-01
    1.185356e+00
    1.237383e+00
    5.621075e-01
    4.771912e-01
    1.147358e+00
    1.172895e+00
    5.657646e-01
    5.623002e-01
    1.254590e+00
    1.256639e+00
    2.994128e-01
    1.358287e+00
    1.333324e+00
    1.305301e+00
    3.089945e-01
    3.513034e-01
    4.036959e-01
    3.420530e-01
    3.222476e-01
    3.077187e-01
    3.145814e-01
    3.747181e-01
    3.516440e-01
    4.575146e-01
    5.721341e-01
    1.669028e+00
    1.640214e+00
    1.628669e+00
    1.742332e+00
    2.186105e+00
    1.848385e+00
    2.003860e+00
    3.334013e-01
    4.671983e-01
    3.614395e-01
    5.026194e-01
    4.816600e-01
    1.303906e+00
    1.330889e+00
    3.429042e-01
    1.410142e+00
    1.381745e+00
    1.450490e+00
    1.415426e+00
    3.612433e-01
    3.460953e-01
    5.557096e-01
    4.718991e-01
    1.128737e+00
    1.361101e+00
    6.538160e-01
    8.055319e-01
    1.485143e+00
    1.432410e+00
    6.561892e-01
    5.749656e-01
    1.758189e+00
    1.829949e+00
    1.653170e+00
    1.790279e+00
    6.641621e-01
    5.377944e-01
    1.130913e+00
    1.125991e+00
    2.165356e+00
    2.336937e+00
    2.048813e+00
    2.238232e+00
    4.488622e-01
    4.968347e-01
    1.776741e+00
    2.046712e+00
    1.706722e+00
    1.803686e+00
    5.289152e-01
    3.693585e-01
    6.218535e-01
    5.678041e-01
    5.157653e-01
    4.702390e-01
    4.982567e-01
    5.322547e-01
    5.522233e-01
    5.020673e-01
    2.195182e+00
    1.829199e+00
    1.754187e+00
    2.064961e+00
    1.878316e+00
    2.002441e+00
    1.054415e+00
    1.031111e+00
    5.183309e-01
    5.657012e-01
    6.386915e-01
    6.151322e-01
    6.997451e-01
    6.765121e-01
    1.392727e+00
    1.257371e+00
    1.567652e+00
    1.706258e+00
    1.488275e+00
    1.619863e+00
    8.739886e-01
    8.526479e-01
    4.055434e-01
    4.078967e-01
    4.411646e-01
    4.487301e-01
    1.224681e+00
    1.245461e+00
    4.674272e-01
    5.818276e-01
    1.217401e+00
    1.185116e+00
    4.956279e-01
    1.427320e+00
    1.273987e+00
    1.344231e+00
    3.323199e-01
    3.727091e-01
    3.527283e-01
    3.449398e-01
    3.807141e-01
    1.381916e+00
    1.490216e+00
    1.261259e+00
    1.309869e+00
    4.070469e-01
    3.565230e-01
    3.860717e-01
    3.847415e-01
    3.873165e-01
    1.607383e+00
    1.588123e+00
    1.949385e+00
    1.670297e+00
    2.136986e+00
    1.742146e+00
    2.007705e+00
    1.919487e+00
    4.186574e-01
    4.774488e-01
    4.387949e-01
    3.747724e-01
    3.664701e-01
    3.995928e-01
    1.325973e+00
    1.360370e+00
    4.218431e-01
    3.925921e-01
    1.462911e+00
    1.405805e+00
    7.273411e-01
    9.398921e-01
    1.130921e+00
    1.330101e+00
    1.452221e+00
    1.525249e+00
    1.603213e+00
    1.625899e+00
    1.910079e+00
    1.782241e+00
    1.341121e+00
    1.302798e+00
    7.307421e-01
    6.167859e-01
    7.213581e-01
    6.698664e-01
    7.732508e-01
    8.454397e-01
    8.004467e-01
    9.050597e-01
    5.288947e-01
    4.821872e-01
    5.777193e-01
    6.730907e-01
    1.372225e+00
    1.214190e+00
    5.192249e-01
    5.264741e-01
    1.955760e+00
    1.685818e+00
    1.206244e+00
    1.138792e+00
    2.020969e+00
    1.732714e+00
    5.732970e-01
    5.338143e-01
    2.073017e+00
    1.759764e+00
    5.218547e-01
    1.708686e+00
    1.644936e+00
    1.782326e+00
    1.919176e+00
    5.346851e-01
    1.560499e+00
    1.684470e+00
    9.839855e-01
    9.765639e-01
    7.813916e-01
    7.280236e-01
    1.425113e+00
    1.603316e+00
    2.017465e+00
    1.847758e+00
    5.189528e-01
    4.629790e-01
    1.215909e+00
    1.279339e+00
    7.200507e-01
    6.273720e-01
    1.179087e+00
    1.214260e+00
    1.457001e+00
    3.719314e-01
    4.533464e-01
    3.337707e-01
    1.531073e+00
    1.539320e+00
    1.367509e+00
    3.591744e-01
    4.276785e-01
    3.739111e-01
    1.293895e+00
    1.350787e+00
    3.794920e-01
    4.305532e-01
    1.534300e+00
    1.830142e+00
    1.615764e+00
    1.785369e+00
    1.698580e+00
    3.869170e-01
    4.109249e-01
    3.890507e-01
    1.896988e+00
    1.751407e+00
    4.272224e-01
    3.948114e-01
    4.229315e-01
    3.929131e-01
    4.783197e-01
    1.436008e+00
    4.485703e-01
    4.082855e-01
    1.291436e+00
    1.338487e+00
    4.748936e-01
    4.127215e-01
    1.421750e+00
    1.382999e+00
    4.456542e-01
    9.170481e-01
    1.048948e+00
    1.268956e+00
    1.211256e+00
    1.995246e+00
    1.721347e+00
    1.662597e+00
    1.832109e+00
    1.734589e+00
    7.016826e-01
    7.076496e-01
    9.688662e-01
    9.162666e-01
    1.535108e+00
    1.266639e+00
    6.466563e-01
    6.260531e-01
    1.348768e+00
    1.202791e+00
    7.861836e-01
    7.223018e-01
    1.555117e+00
    1.651391e+00
    1.503071e+00
    1.439467e+00
    1.316532e+00
    1.253955e+00
    5.955646e-01
    5.839697e-01
    1.074632e+00
    1.076257e+00
    1.890769e+00
    1.638451e+00
    1.936836e+00
    1.672180e+00
    5.488890e-01
    5.517117e-01
    1.898161e+00
    2.052355e+00
    5.430816e-01
    5.268785e-01
    1.970977e+00
    1.702529e+00
    5.079134e-01
    1.030665e+00
    8.590038e-01
    4.525591e-01
    4.345401e-01
    8.516890e-01
    7.314240e-01
    8.477103e-01
    7.588749e-01
    1.506704e+00
    1.606305e+00
    5.356389e-01
    4.756908e-01
    1.255619e+00
    1.297510e+00
    6.514309e-01
    5.380521e-01
    1.261975e+00
    1.203443e+00
    6.054537e-01
    6.065313e-01
    1.159280e+00
    1.276205e+00
    1.464762e+00
    1.397908e+00
    4.077297e-01
    4.622029e-01
    4.278654e-01
    4.336266e-01
    4.606937e-01
    4.113126e-01
    1.345271e+00
    1.464789e+00
    1.561851e+00
    1.544698e+00
    4.165199e-01
    1.622727e+00
    1.646871e+00
    4.160320e-01
    4.647579e-01
    4.844737e-01
    5.629597e-01
    4.302508e-01
    4.792540e-01
    4.494902e-01
    1.310483e+00
    1.372561e+00
    4.524689e-01
    4.387160e-01
    1.437365e+00
    1.421664e+00
    5.098166e-01
    4.681535e-01
    1.321229e+00
    1.468921e+00
    1.683496e+00
    1.613747e+00
    1.550435e+00
    1.643450e+00
    7.195590e-01
    7.687225e-01
    6.597911e-01
    6.507826e-01
    1.328441e+00
    1.258814e+00
    1.784506e+00
    1.575510e+00
    1.161823e+00
    1.069844e+00
    8.301674e-01
    8.638413e-01
    1.416416e+00
    1.243533e+00
    1.481578e+00
    1.299031e+00
    1.014079e+00
    9.556921e-01
    1.012654e+00
    1.822899e+00
    1.626800e+00
    6.000243e-01
    6.011720e-01
    5.283440e-01
    5.638757e-01
    1.846418e+00
    1.732500e+00
    4.860719e-01
    5.255252e-01
    1.891105e+00
    1.715305e+00
    1.717439e+00
    1.765074e+00
    9.543680e-01
    9.012785e-01
    1.463303e+00
    1.549321e+00
    8.289148e-01
    7.893450e-01
    8.912200e-01
    7.830760e-01
    1.505923e+00
    1.602734e+00
    1.358890e+00
    1.378734e+00
    1.157875e+00
    1.197664e+00
    1.263225e+00
    1.296055e+00
    1.231882e+00
    1.261256e+00
    5.408112e-01
    4.947369e-01
    5.002804e-01
    6.024064e-01
    8.099355e-01
    6.973347e-01
    6.206702e-01
    7.025713e-01
    1.280128e+00
    1.189554e+00
    1.156561e+00
    1.115636e+00
    5.164248e-01
    1.515763e+00
    1.376136e+00
    1.470941e+00
    5.792896e-01
    5.125312e-01
    4.393231e-01
    1.693727e+00
    1.571092e+00
    1.603200e+00
    1.583845e+00
    4.788266e-01
    4.497128e-01
    4.587017e-01
    5.136099e-01
    4.719907e-01
    4.738313e-01
    1.423333e+00
    1.355404e+00
    5.476770e-01
    5.123096e-01
    1.324112e+00
    1.421458e+00
    1.401077e+00
    1.351161e+00
    1.528854e+00
    1.602230e+00
    1.270203e+00
    1.185784e+00
    7.292394e-01
    7.861218e-01
    1.596953e+00
    1.552680e+00
    6.812382e-01
    6.641493e-01
    8.569842e-01
    7.199957e-01
    1.389649e+00
    1.370903e+00
    1.569051e+00
    1.698132e+00
    1.235801e+00
    1.147407e+00
    1.091823e+00
    1.447691e+00
    1.420369e+00
    1.094358e+00
    1.061836e+00
    1.661993e+00
    1.734929e+00
    6.040598e-01
    6.159239e-01
    1.546146e+00
    1.588337e+00
    8.966241e-01
    1.006176e+00
    1.671479e+00
    1.561620e+00
    5.610687e-01
    1.412544e+00
    1.544026e+00
    1.497104e+00
    1.340992e+00
    9.541765e-01
    8.519236e-01
    9.192978e-01
    7.794514e-01
    1.045356e+00
    9.830744e-01
    5.495949e-01
    5.331106e-01
    1.464634e+00
    1.389670e+00
    1.291806e+00
    1.293071e+00
    6.217105e-01
    5.598639e-01
    6.971380e-01
    8.005279e-01
    6.072792e-01
    5.691603e-01
    1.126230e+00
    1.116226e+00
    7.685611e-01
    7.037881e-01
    8.733559e-01
    7.391017e-01
    1.468712e+00
    1.494745e+00
    7.279084e-01
    5.871885e-01
    4.813829e-01
    1.131020e+00
    1.105499e+00
    1.542862e+00
    4.913361e-01
    1.444779e+00
    1.398397e+00
    5.228828e-01
    4.955402e-01
    6.198086e-01
    5.759882e-01
    1.499168e+00
    1.356649e+00
    1.522185e+00
    1.435995e+00
    1.760785e+00
    1.642023e+00
    6.910078e-01
    7.931137e-01
    6.111900e-01
    5.793140e-01
    7.801134e-01
    8.544851e-01
    1.311901e+00
    1.291625e+00
    1.628662e+00
    1.540400e+00
    1.563650e+00
    6.657476e-01
    1.404621e+00
    1.281024e+00
    1.571032e+00
    1.661241e+00
    1.572450e+00
    6.219479e-01
    1.126270e+00
    1.150351e+00
    9.317736e-01
    7.738022e-01
    1.495849e+00
    1.429031e+00
    9.877316e-01
    1.002252e+00
    1.471181e+00
    1.325720e+00
    1.064886e+00
    1.046661e+00
    1.324136e+00
    1.298397e+00
    1.501680e+00
    1.477079e+00
    1.362463e+00
    1.227047e+00
    9.981761e-01
    9.216969e-01
    1.510892e+00
    1.441708e+00
    5.209103e-01
    5.076534e-01
    1.238523e+00
    1.266099e+00
    6.784036e-01
    6.410720e-01
    6.207533e-01
    6.526627e-01
    1.375748e+00
    1.332315e+00
    8.653976e-01
    7.231968e-01
    7.557486e-01
    8.636503e-01
    8.226088e-01
    8.128034e-01
    7.257928e-01
    7.552230e-01
    6.297275e-01
    5.433351e-01
    5.924234e-01
    6.610654e-01
    5.942023e-01
    6.651647e-01
    5.533585e-01
    5.504261e-01
    1.521356e+00
    1.379717e+00
    7.454852e-01
    7.464560e-01
    1.494328e+00
    1.506068e+00
    1.563945e+00
    1.525993e+00
    1.543789e+00
    5.647913e-01
    6.491593e-01
    5.631369e-01
    6.540086e-01
    9.274463e-01
    8.004992e-01
    1.487392e+00
    1.465455e+00
    9.250538e-01
    8.527511e-01
    1.390065e+00
    1.336120e+00
    1.215217e+00
    1.184316e+00
    1.365503e+00
    1.430441e+00
    1.233829e+00
    1.260101e+00
    1.143219e+00
    1.174242e+00
    6.985716e-01
    6.499134e-01
    1.585457e+00
    1.289222e+00
    1.307180e+00
    1.405421e+00
    1.364612e+00
    1.326559e+00
    1.391751e+00
    1.369950e+00
    1.442816e+00
    1.461723e+00
    1.470920e+00
    1.077591e+00
    1.068835e+00
    1.508899e+00
    1.414684e+00
    1.467776e+00
    1.001180e+00
    9.301184e-01
    1.478921e+00
    1.407381e+00
    1.266292e+00
    1.205697e+00
    7.369773e-01
    6.871732e-01
    7.667620e-01
    9.383363e-01
    8.923194e-01
    9.645513e-01
    1.545263e+00
    1.402773e+00
    6.006936e-01
    7.756600e-01
    6.632087e-01
    6.772981e-01
    8.279124e-01
    1.455438e+00
    1.527507e+00
    9.082057e-01
    6.985450e-01
    1.229194e+00
    1.196880e+00
    1.479167e+00
    1.423547e+00
    1.506904e+00
    1.368628e+00
    1.404422e+00
    1.462227e+00
    1.440258e+00
    1.478777e+00
    1.502126e+00
    9.947177e-01
    8.439159e-01
    1.411653e+00
    1.253637e+00
    1.319882e+00
    1.427469e+00
    1.518750e+00
    1.251838e+00
    1.315182e+00
    1.386513e+00
    1.371874e+00
    1.437009e+00
    1.503046e+00
    1.136671e+00
    1.150952e+00
    1.398024e+00
    1.455537e+00
    1.004940e+00
    9.021237e-01
    1.075473e+00
    1.070899e+00
    1.417888e+00
    1.442329e+00
    1.289728e+00
    1.334884e+00
    1.234546e+00
    1.279998e+00
    9.805031e-01
    6.963696e-01
    1.236068e+00
    1.198352e+00
    8.020457e-01
    7.277653e-01
    1.342551e+00
    1.363933e+00
    7.753118e-01
    7.302287e-01
    9.123978e-01
    8.385973e-01
    1.453352e+00
    1.503580e+00
    7.002214e-01
    7.358810e-01
    8.752411e-01
    8.659854e-01
    1.294414e+00
    1.273033e+00
    1.439807e+00
    1.447700e+00
    1.427834e+00
    1.397921e+00
    8.672736e-01
    8.264101e-01
    1.361296e+00
    1.377424e+00
    1.349691e+00
    1.429319e+00
    7.774376e-01
    7.373168e-01
    1.275373e+00
    1.411489e+00
    1.412711e+00
    1.490106e+00
    1.428150e+00
    1.356617e+00
    1.263100e+00
    1.144061e+00
    9.891609e-01
    8.562663e-01
    1.445165e+00
    1.377681e+00
    8.177673e-01
    7.776715e-01
    1.212712e+00
    1.138870e+00
    1.455207e+00
    1.479166e+00
    7.702088e-01
    8.115854e-01
    1.445080e+00
    1.463501e+00
    1.076156e+00
    1.031851e+00
    1.322412e+00
    1.299583e+00
    1.221947e+00
    1.269713e+00
    1.304231e+00
    1.308395e+00
    1.377182e+00
    1.331430e+00
    9.528212e-01
    9.040723e-01
    1.204651e+00
    9.832465e-01
    1.050057e+00
    9.296337e-01
    6.689298e-01
    6.533345e-01
    8.838382e-01
    8.248156e-01
    1.075761e+00
    1.078262e+00
    1.171018e+00
    1.133380e+00
    1.459588e+00
    1.388438e+00
    1.441284e+00
    1.478421e+00
    1.328299e+00
    1.474849e+00
    6.248236e-01
    5.890664e-01
    1.503499e+00
    1.482238e+00
    9.445263e-01
    9.207782e-01
    1.311432e+00
    1.350637e+00
    1.055142e+00
    9.325678e-01
    1.305918e+00
    1.288058e+00
    1.271487e+00
    1.203730e+00
    1.400171e+00
    1.464639e+00
    1.359438e+00
    1.351080e+00
    1.067214e+00
    1.134010e+00
    1.418564e+00
    1.400201e+00
    1.384542e+00
    1.388758e+00
    1.387921e+00
    1.399193e+00
    1.204249e+00
    1.298707e+00
    1.027151e+00
    9.028615e-01
    1.364880e+00
    1.370251e+00
    1.051099e+00
    1.173099e+00
    9.864519e-01
    9.550110e-01
    1.270046e+00
    1.299938e+00
    1.085135e+00
    1.015363e+00
    1.095049e+00
    9.836922e-01
    1.226342e+00
    1.236768e+00
    8.128631e-01
    7.341519e-01
    9.851218e-01
    8.870765e-01
    1.449853e+00
    1.422559e+00
    8.123108e-01
    8.490728e-01
    9.526376e-01
    9.620284e-01
    1.346032e+00
    1.381798e+00
    1.436923e+00
    1.196011e+00
    1.193580e+00
    1.445065e+00
    1.389441e+00
    1.371727e+00
    1.346502e+00
    1.247635e+00
    1.136952e+00
    1.405708e+00
    1.436875e+00
    8.512152e-01
    7.994158e-01
    1.364515e+00
    1.430332e+00
    1.386963e+00
    1.418341e+00
    1.330154e+00
    1.324203e+00
    1.122966e+00
    9.730875e-01
    1.389503e+00
    1.440948e+00
    1.044989e+00
    1.112232e+00
    1.327915e+00
    1.313059e+00
    1.163134e+00
    1.068296e+00
    1.162731e+00
    1.131675e+00
    1.238067e+00
    1.202944e+00
    1.033789e+00
    1.025725e+00
    1.284113e+00
    1.319591e+00
    8.900659e-01
    8.832262e-01
    1.354828e+00
    1.374225e+00
    1.273648e+00
    1.255481e+00
    1.368060e+00
    1.320494e+00
    1.423685e+00
    1.392759e+00
    1.353094e+00
    1.360643e+00
    1.412900e+00
    1.352318e+00
    1.299016e+00
    1.298960e+00
    1.368060e+00
    1.415980e+00
    1.192882e+00
    1.113280e+00
    1.297547e+00
    1.325182e+00
    1.113115e+00
    1.259822e+00
    1.266828e+00
    1.227783e+00
    1.120014e+00
    1.166121e+00
    1.312580e+00
    1.314656e+00
    1.230321e+00
    1.212218e+00
    1.362311e+00
    1.380525e+00
    1.405281e+00
    1.346566e+00
    1.330778e+00
    1.345409e+00
    1.267279e+00
    1.264137e+00
    1.184809e+00
    1.128148e+00
    1.328872e+00
    1.372264e+00
    1.327302e+00
    1.203537e+00
    9.888511e-01
    1.039506e+00
    8.501645e-01
    7.955238e-01
    1.352317e+00
    1.336308e+00
    1.316759e+00
    1.257313e+00
    1.323546e+00
    1.391536e+00
    1.260091e+00
    1.285975e+00
    1.234602e+00
    1.207977e+00
    1.297897e+00
    1.201820e+00
    1.057811e+00
    9.912405e-01
    1.240619e+00
    1.221918e+00
    1.319284e+00
    1.290294e+00
    1.233269e+00
    1.272167e+00
    1.317436e+00
    1.360143e+00
    1.318299e+00
    1.377301e+00
    1.255874e+00
    1.299962e+00
    1.236062e+00
    1.288800e+00
    1.138072e+00
    1.192998e+00
    1.271829e+00
    1.362868e+00
    1.166585e+00
    1.196414e+00
    1.293865e+00
    1.248143e+00
    1.053379e+00
    1.084744e+00
    1.105974e+00
    1.039793e+00
    1.203673e+00
    1.233048e+00
    9.283753e-01
    8.614843e-01
    1.329126e+00
    1.340726e+00
    1.260482e+00
    1.288168e+00
    1.235237e+00
    1.277733e+00
    1.250453e+00
    1.249006e+00
    1.177628e+00
    1.209470e+00
    1.109696e+00
    1.134567e+00
    1.352553e+00
    1.312571e+00
    1.222149e+00
    1.254251e+00
    1.117704e+00
    1.183308e+00
    9.784377e-01
    9.109173e-01
    1.075029e+00
    1.072467e+00
    1.162279e+00
    1.205574e+00
    1.018077e+00
    1.001076e+00
    1.051595e+00
    1.038744e+00
    9.883788e-01
    9.875091e-01
    1.030768e+00
    1.023968e+00
    9.925899e-01
    9.909113e-01
    1.017593e+00
    1.014418e+00
    1.005678e+00
    1.004231e+00
    9.975960e-01
    9.954390e-01
    1.000141e+00
    1.000819e+00
    1.000423e+00
    9.990200e-01
    1.056717e+00
    1.051243e+00
    1.063166e+00
    1.068344e+00
    1.066509e+00
    1.063764e+00
    1.044464e+00
    1.032000e+00
    9.731494e-01
    9.755788e-01
    9.803600e-01
    9.831683e-01
    9.863192e-01
    9.875218e-01
    9.432787e-01
    9.424515e-01
    6.883085e-01
    7.337608e-01
    7.316703e-01
    6.568592e-01
    9.565477e-01
    9.623114e-01
    9.039502e-01
    9.094245e-01
    8.537099e-01
    8.683153e-01
    1.107148e+00
    1.160932e+00
    1.207330e+00
    1.195122e+00
    1.154973e+00
    1.178282e+00
    9.990307e-01
    9.457768e-01
    1.055543e+00
    1.049078e+00
    1.036557e+00
    1.034568e+00
    1.022172e+00
    1.023104e+00
    1.010706e+00
    1.024089e+00
    1.042904e+00
    1.051280e+00
    1.062040e+00
    1.052935e+00
    1.067290e+00
    1.066739e+00
    1.068148e+00
    1.063087e+00
    1.072654e+00
    1.061993e+00
    1.007339e+00
    1.010114e+00
    1.001166e+00
    1.004082e+00
    1.041469e+00
    1.035824e+00
    9.954797e-01
    9.858881e-01
    9.934916e-01
    9.931110e-01
    9.973866e-01
    9.974235e-01
    9.998915e-01
    9.996793e-01
    9.552741e-01
    9.504596e-01
    9.196860e-01
    9.311978e-01
    8.994060e-01
    8.922296e-01
    8.432274e-01
    8.327187e-01
    9.884649e-01
    9.872216e-01
    9.697447e-01
    9.740561e-01
    9.372303e-01
    9.331821e-01
    8.120221e-01
    7.962028e-01
    1.049694e+00
    1.072976e+00
    1.051843e+00
    1.046837e+00
    1.025410e+00
    1.028819e+00
    1.021852e+00
    1.021986e+00
    9.969079e-01
    9.944081e-01
    1.104157e+00
    1.168090e+00
    1.056744e+00
    9.858319e-01
    9.591529e-01
    8.776851e-01
    1.051857e+00
    1.080671e+00
    1.176183e+00
    1.179978e+00
    1.026902e+00
    1.026851e+00
    9.183334e-01
    8.939467e-01
    1.149890e+00
    1.114609e+00
    1.017837e+00
    9.508662e-01
    1.074527e+00
    1.052464e+00
    1.049908e+00
    1.035407e+00
    1.029305e+00
    1.014547e+00
    1.013983e+00
    9.941258e-01
    8.197012e-01
    8.415649e-01
    9.012118e-01
    9.363232e-01
    9.999472e-01
    1.000118e+00
    9.997764e-01
    9.992701e-01
    9.989312e-01
    9.974988e-01
    9.969834e-01
    9.960583e-01
    9.942556e-01
    9.931128e-01
    9.928351e-01
    9.920974e-01
    9.890010e-01
    9.894468e-01
    1.038541e+00
    1.027109e+00
    9.841681e-01
    9.849280e-01
    9.640816e-01
    9.656852e-01
    1.012118e+00
    1.011508e+00
    9.856434e-01
    9.858330e-01
    1.000233e+00
    1.000738e+00
    9.799901e-01
    9.775445e-01
    9.527464e-01
    9.546455e-01
    1.024134e+00
    1.011506e+00
    1.039743e+00
    1.030036e+00
    9.632769e-01
    9.600441e-01
    9.712840e-01
    9.702371e-01
    9.778602e-01
    9.748560e-01
    9.838123e-01
    9.815180e-01
    9.884935e-01
    9.872792e-01
    9.878754e-01
    9.872819e-01
    1.048705e+00
    1.059103e+00
    1.057730e+00
    1.062751e+00
    1.059071e+00
    1.063623e+00
    8.601321e-01
    8.757082e-01
    1.065198e+00
    1.062583e+00
    8.891520e-01
    8.974907e-01
    1.067492e+00
    1.059280e+00
    9.066309e-01
    9.070877e-01
    1.064019e+00
    1.054558e+00
    9.246769e-01
    9.231582e-01
    1.059342e+00
    1.050100e+00
    9.279013e-01
    9.323205e-01
    1.056383e+00
    1.044920e+00
    9.509682e-01
    9.488554e-01
    1.048151e+00
    1.033928e+00
    1.037391e+00
    1.028290e+00
    1.031220e+00
    1.023992e+00
    1.029018e+00
    1.019443e+00
    1.019670e+00
    1.016060e+00
    1.018705e+00
    1.012130e+00
    1.008189e+00
    1.006961e+00
    1.002705e+00
    1.002135e+00
    1.002439e+00
    1.000396e+00
    1.027717e+00
    1.051400e+00
    9.394465e-01
    9.395121e-01
    1.050499e+00
    1.040163e+00
    1.007731e+00
    1.003889e+00
    9.995072e-01
    9.987604e-01
    9.957228e-01
    9.950267e-01
    9.906660e-01
    9.904763e-01
    9.882101e-01
    9.872645e-01
    8.866357e-01
    8.923656e-01
    9.805894e-01
    9.372590e-01
    9.680203e-01
    9.660190e-01
    9.785398e-01
    9.788119e-01
    9.846720e-01
    9.846357e-01
    1.011249e+00
    1.013497e+00
    1.037394e+00
    1.023592e+00
    1.063587e+00
    1.049960e+00
    1.110599e+00
    1.080967e+00
    9.142931e-01
    9.259681e-01
    9.873373e-01
    9.880494e-01
    1.001963e+00
    9.998462e-01
    1.000630e+00
    9.982798e-01
    9.977651e-01
    9.964798e-01
    9.940334e-01
    9.933305e-01
    9.927772e-01
    9.916598e-01
    9.888896e-01
    9.893079e-01
    9.955003e-01
    9.946019e-01
    9.910032e-01
    9.908562e-01
    1.051834e+00
    1.036756e+00
    9.992520e-01
    9.979827e-01
    1.056302e+00
    1.038084e+00
    9.558942e-01
    9.559848e-01
    1.028649e+00
    1.046902e+00
    9.616835e-01
    9.609167e-01
    9.663854e-01
    9.655659e-01
    9.760042e-01
    9.738817e-01
    9.793615e-01
    9.775098e-01
    9.848877e-01
    9.833962e-01
    9.889439e-01
    9.892569e-01
    1.052432e+00
    1.066174e+00
    1.057973e+00
    1.067498e+00
    1.062745e+00
    1.065734e+00
    1.063046e+00
    1.061197e+00
    1.062187e+00
    1.056630e+00
    9.259092e-01
    9.311686e-01
    1.058843e+00
    1.050799e+00
    9.354375e-01
    9.386493e-01
    1.055478e+00
    1.044902e+00
    9.439657e-01
    9.451370e-01
    1.049775e+00
    1.039177e+00
    1.040886e+00
    1.028948e+00
    1.034506e+00
    1.024185e+00
    1.030120e+00
    1.020031e+00
    1.024811e+00
    1.016226e+00
    1.021013e+00
    1.012933e+00
    1.016167e+00
    1.009320e+00
    1.010148e+00
    1.005598e+00
    1.004319e+00
    1.001452e+00
    1.060490e+00
    1.049961e+00
    9.498947e-01
    9.507569e-01
    1.044846e+00
    1.033646e+00
    1.007112e+00
    1.003349e+00
    9.590504e-01
    9.430450e-01
    1.047616e+00
    1.055516e+00
    1.062072e+00
    1.064964e+00
    1.054483e+00
    1.060496e+00
    9.669112e-01
    9.379346e-01
    9.718378e-01
    9.699375e-01
    9.822015e-01
    9.807575e-01
    9.872668e-01
    9.857685e-01
    1.009573e+00
    1.011756e+00
    1.084138e+00
    1.062388e+00
    1.081641e+00
    1.063473e+00
    1.001916e+00
    9.989500e-01
    9.990145e-01
    9.968430e-01
    9.949390e-01
    9.930264e-01
    9.928244e-01
    9.913964e-01
    9.888051e-01
    9.876486e-01
    9.961444e-01
    9.944453e-01
    9.913415e-01
    9.906404e-01
    1.063177e+00
    1.047321e+00
    1.001159e+00
    9.987487e-01
    9.891772e-01
    9.891872e-01
    9.623089e-01
    9.653118e-01
    9.667473e-01
    9.685965e-01
    9.709857e-01
    9.718288e-01
    9.784788e-01
    9.780303e-01
    9.814103e-01
    9.809788e-01
    9.863946e-01
    9.858951e-01
    1.076455e+00
    1.069019e+00
    1.067699e+00
    1.073901e+00
    1.067566e+00
    1.068555e+00
    9.490210e-01
    9.561123e-01
    1.049992e+00
    1.040300e+00
    9.539275e-01
    9.600987e-01
    1.044088e+00
    1.033381e+00
    1.033758e+00
    1.023298e+00
    1.029061e+00
    1.019382e+00
    1.024316e+00
    1.015937e+00
    1.020392e+00
    1.012350e+00
    1.016781e+00
    1.009161e+00
    1.012878e+00
    1.006785e+00
    1.007930e+00
    1.003787e+00
    1.003005e+00
    1.000223e+00
    9.580392e-01
    9.626939e-01
    1.052635e+00
    1.071618e+00
    1.038566e+00
    1.028285e+00
    1.005645e+00
    1.002035e+00
    9.777824e-01
    9.726864e-01
    9.757161e-01
    9.701993e-01
    1.087084e+00
    1.074181e+00
    9.758456e-01
    9.678398e-01
    1.011521e+00
    1.018780e+00
    9.768624e-01
    9.661335e-01
    1.014043e+00
    1.022893e+00
    1.089724e+00
    1.077453e+00
    9.650671e-01
    9.715586e-01
    1.019197e+00
    1.027808e+00
    1.082808e+00
    1.078796e+00
    1.021089e+00
    1.032194e+00
    1.026740e+00
    1.038470e+00
    1.072116e+00
    1.074552e+00
    1.034492e+00
    1.045731e+00
    1.101253e+00
    1.078508e+00
    9.868088e-01
    9.594795e-01
    1.056005e+00
    1.066640e+00
    1.047985e+00
    1.051286e+00
    1.050700e+00
    1.059868e+00
    1.003438e+00
    9.993817e-01
    1.001142e+00
    9.976681e-01
    9.951743e-01
    9.930164e-01
    9.925141e-01
    9.914242e-01
    9.968137e-01
    9.947183e-01
    9.911920e-01
    9.905503e-01
    9.749388e-01
    9.749348e-01
    9.839262e-01
    9.833953e-01
    9.880406e-01
    9.885781e-01
    1.006295e+00
    1.009149e+00
    9.886211e-01
    9.890676e-01
    9.756696e-01
    9.780046e-01
    9.817179e-01
    9.823907e-01
    9.844468e-01
    9.848612e-01
    9.880850e-01
    9.878094e-01
    1.015439e+00
    1.008121e+00
    1.012174e+00
    1.005356e+00
    1.009270e+00
    1.003209e+00
    1.005440e+00
    1.001749e+00
    1.000503e+00
    9.830484e-01
    1.061817e+00
    1.066601e+00
    1.043167e+00
    1.051019e+00
    1.049330e+00
    1.062162e+00
    1.060881e+00
    1.058787e+00
    9.870604e-01
    9.853668e-01
    1.001878e+00
    1.007722e+00
    1.004644e+00
    1.011150e+00
    9.834681e-01
    9.807809e-01
    9.855059e-01
    9.789026e-01
    9.870740e-01
    9.786584e-01
    1.101803e+00
    1.089459e+00
    1.011332e+00
    1.012325e+00
    9.907836e-01
    9.782870e-01
    9.828072e-01
    9.796826e-01
    1.009733e+00
    1.017232e+00
    1.102476e+00
    1.092485e+00
    1.013533e+00
    1.020502e+00
    9.979377e-01
    9.820482e-01
    1.078478e+00
    1.093414e+00
    1.021066e+00
    1.025989e+00
    1.027303e+00
    1.032257e+00
    1.068757e+00
    1.077672e+00
    1.034610e+00
    1.040082e+00
    9.786522e-01
    9.804856e-01
    9.859418e-01
    9.869504e-01
    9.878595e-01
    9.894912e-01
    1.002558e+00
    1.006119e+00
    1.109423e+00
    1.097845e+00
    1.002177e+00
    9.976566e-01
    9.947990e-01
    9.927270e-01
    9.921995e-01
    9.897624e-01
    9.971408e-01
    9.951239e-01
    9.876213e-01
    9.886569e-01
    9.710288e-01
    1.021673e+00
    1.005440e+00
    9.997339e-01
    1.050380e+00
    1.058753e+00
    1.004684e+00
    1.004564e+00
    9.905056e-01
    9.853950e-01
    1.009058e+00
    1.012248e+00
    9.919400e-01
    9.859027e-01
    9.959738e-01
    9.855334e-01
    1.004391e+00
    9.882774e-01
    1.099588e+00
    1.104164e+00
    1.008449e+00
    9.947290e-01
    1.011880e+00
    1.015751e+00
    1.014550e+00
    1.020168e+00
    1.088830e+00
    1.088650e+00
    9.844726e-01
    9.787279e-01
    1.021641e+00
    1.027100e+00
    9.850761e-01
    9.784758e-01
    1.030222e+00
    1.037676e+00
    1.076558e+00
    1.074123e+00
    9.869578e-01
    9.802760e-01
    1.008881e+00
    1.008113e+00
    9.732590e-01
    9.603333e-01
    1.042367e+00
    1.046157e+00
    1.072280e+00
    1.066518e+00
    9.959036e-01
    1.001672e+00
    9.946465e-01
    9.910427e-01
    1.033701e+00
    1.009786e+00
    1.140392e+00
    1.119948e+00
    9.868272e-01
    9.832459e-01
    9.908813e-01
    9.886751e-01
    1.001213e+00
    1.003214e+00
    1.000307e+00
    1.005385e+00
    9.929000e-01
    9.865568e-01
    9.880578e-01
    9.906300e-01
    9.986572e-01
    1.002584e+00
    9.945922e-01
    9.920535e-01
    9.985610e-01
    9.956090e-01
    1.102480e+00
    1.141198e+00
    1.063447e+00
    1.070262e+00
    9.884670e-01
    1.006143e+00
    1.000077e+00
    9.915813e-01
    1.004531e+00
    9.934722e-01
    9.952859e-01
    9.995520e-01
    9.950539e-01
    9.915192e-01
    9.959987e-01
    1.000492e+00
    9.964590e-01
    9.923168e-01
    1.107588e+00
    1.092525e+00
    1.008019e+00
    1.006376e+00
    9.877864e-01
    9.786435e-01
    9.848814e-01
    1.038060e+00
    9.994597e-01
    1.006751e+00
    1.011339e+00
    9.980475e-01
    1.037809e+00
    1.046879e+00
    9.954320e-01
    9.958673e-01
    9.953734e-01
    9.995636e-01
    9.989563e-01
    9.894323e-01
    9.953831e-01
    9.873197e-01
    9.994517e-01
    9.985096e-01
    9.923310e-01
    9.888927e-01
    1.119717e+00
    1.117347e+00
    9.980040e-01
    1.003570e+00
    9.989204e-01
    9.991805e-01
    1.010250e+00
    1.000607e+00
    9.916748e-01
    9.873725e-01
    1.051591e+00
    1.039215e+00
    1.017969e+00
    1.004574e+00
    1.057931e+00
    1.064021e+00
    1.037620e+00
    1.026171e+00
    1.027117e+00
    1.012428e+00
    1.120672e+00
    1.147354e+00
    2.742112e+00
    1.381158e+00
    1.232628e+00
    1.176172e+00
    1.115961e+00
    1.045973e+00
    1.043327e+00
    1.031666e+00
    1.032773e+00
    1.017336e+00
    1.008485e+00
    9.717855e-01
    9.865120e-01
    1.007273e+00
    9.981858e-01
    1.005673e+00
    1.036733e+00
    1.061083e+00
    1.069717e+00
    1.073216e+00
    1.067935e+00
    1.047476e+00
    1.011533e+00
    9.893242e-01
    9.702473e-01
    9.577715e-01
    9.539010e-01
    9.488581e-01
    9.530102e-01
    9.491770e-01
    9.452796e-01
    9.443642e-01
    9.387636e-01
    9.430522e-01
    9.474731e-01
    9.770409e-01
    1.003123e+00
    1.053982e+00
    1.065771e+00
    1.091405e+00
    1.083174e+00
    1.069584e+00
    1.047123e+00
    1.019106e+00
    1.031098e+00
    1.020973e+00
    9.627259e-01
    9.874673e-01
    1.009208e+00
    1.015274e+00
    1.022993e+00
    1.025044e+00
    1.032958e+00
    1.036177e+00
    1.079072e+00
    1.109794e+00
    1.213015e+00
    1.491834e+00
    2.241366e+00
    1.175160e+00
    1.105112e+00
    1.043805e+00
    1.037306e+00
    1.040403e+00
    1.025738e+00
    1.019211e+00
    1.008642e+00
    1.003545e+00
    9.678146e-01
    1.014894e+00
    1.029042e+00
    1.049721e+00
    1.064354e+00
    1.068836e+00
    1.068889e+00
    1.057717e+00
    1.037269e+00
    1.011377e+00
    9.858215e-01
    9.680359e-01
    9.619628e-01
    9.537877e-01
    9.583359e-01
    9.596857e-01
    9.554237e-01
    1.042589e+00
    1.038924e+00
    1.056943e+00
    1.064904e+00
    1.065003e+00
    1.058778e+00
    1.043465e+00
    1.022465e+00
    1.005132e+00
    9.767927e-01
    9.690117e-01
    9.618511e-01
    9.623247e-01
    9.639610e-01
    9.631181e-01
    9.630049e-01
    1.054223e+00
    1.063958e+00
    1.063408e+00
    1.063132e+00
    1.059248e+00
    1.048982e+00
    1.036219e+00
    1.012778e+00
    9.938322e-01
    9.821212e-01
    9.708181e-01
    9.674245e-01
    9.670976e-01
    9.682450e-01
    9.703203e-01
    9.643199e-01
    1.071076e+00
    1.063916e+00
    1.065321e+00
    1.060998e+00
    1.053950e+00
    1.043661e+00
    1.025051e+00
    1.008106e+00
    9.928715e-01
    9.823713e-01
    9.735283e-01
    9.711575e-01
    9.710958e-01
    9.721866e-01
    9.724211e-01
    9.693187e-01
    1.077499e+00
    1.065590e+00
    1.065758e+00
    1.055513e+00
    1.046840e+00
    1.032416e+00
    1.019429e+00
    1.004677e+00
    9.913371e-01
    9.783570e-01
    9.752191e-01
    9.746422e-01
    9.750610e-01
    9.738652e-01
    9.763260e-01
    9.742504e-01
    1.078327e+00
    1.070496e+00
    1.064086e+00
    1.052034e+00
    1.041349e+00
    1.027816e+00
    1.016366e+00
    1.001999e+00
    9.892465e-01
    9.834270e-01
    9.785958e-01
    9.781160e-01
    9.756726e-01
    9.784696e-01
    9.797888e-01
    9.775130e-01
    1.079308e+00
    1.071455e+00
    1.060300e+00
    1.044795e+00
    1.036896e+00
    1.026718e+00
    1.010920e+00
    9.997383e-01
    9.903966e-01
    9.820371e-01
    9.808365e-01
    9.788883e-01
    9.801068e-01
    9.816216e-01
    9.823024e-01
    9.811606e-01
    1.076586e+00
    1.066080e+00
    1.055410e+00
    1.043011e+00
    1.030832e+00
    1.017774e+00
    1.009585e+00
    9.984419e-01
    9.897326e-01
    9.860045e-01
    9.831640e-01
    9.822795e-01
    9.829618e-01
    9.839593e-01
    9.851243e-01
    9.833570e-01
    1.063735e+00
    1.063970e+00
    1.050463e+00
    1.035969e+00
    1.026969e+00
    1.018570e+00
    1.006467e+00
    9.977230e-01
    9.910676e-01
    9.885287e-01
    9.851259e-01
    9.847535e-01
    9.852859e-01
    9.860470e-01
    9.871164e-01
    9.847900e-01
    1.064635e+00
    1.055428e+00
    1.041609e+00
    1.030366e+00
    1.022261e+00
    1.011968e+00
    1.004834e+00
    9.971749e-01
    9.922056e-01
    9.894198e-01
    9.865035e-01
    9.869321e-01
    9.873565e-01
    9.869385e-01
    9.880813e-01
    9.874411e-01
    1.051493e+00
    1.050701e+00
    1.036275e+00
    1.027453e+00
    1.019398e+00
    1.008924e+00
    1.003886e+00
    9.974096e-01
    9.926194e-01
    9.900685e-01
    9.889253e-01
    9.888639e-01
    9.878793e-01
    9.889637e-01
    9.899698e-01
    9.885243e-01
    1.050432e+00
    1.047663e+00
    1.034889e+00
    1.022412e+00
    1.015959e+00
    1.007956e+00
    1.001194e+00
    9.981630e-01
    9.933554e-01
    9.911200e-01
    9.906047e-01
    9.893097e-01
    9.897136e-01
    9.902658e-01
    9.904556e-01
    9.900859e-01
    1.044681e+00
    1.037753e+00
    1.029868e+00
    1.019031e+00
    1.013848e+00
    1.007955e+00
    1.003544e+00
    9.979373e-01
    9.945939e-01
    9.923052e-01
    9.912019e-01
    9.910146e-01
    9.910023e-01
    9.910030e-01
    9.911311e-01
    9.907324e-01
    1.034628e+00
    1.034832e+00
    1.023829e+00
    1.017310e+00
    1.010886e+00
    1.005858e+00
    1.000579e+00
    9.994125e-01
    9.953632e-01
    9.941095e-01
    9.925050e-01
    9.916499e-01
    9.913915e-01
    9.916899e-01
    9.916592e-01
    9.914773e-01
    1.031173e+00
    1.027520e+00
    1.022246e+00
    1.014399e+00
    1.008649e+00
    1.004980e+00
    1.001031e+00
    9.972746e-01
    9.952530e-01
    9.938769e-01
    9.931065e-01
    9.928389e-01
    9.921022e-01
    9.919199e-01
    9.915732e-01
    1.026823e+00
    1.024168e+00
    1.016982e+00
    1.011123e+00
    1.006671e+00
    1.003336e+00
    1.000753e+00
    9.978055e-01
    9.963182e-01
    9.948254e-01
    9.936330e-01
    9.932293e-01
    9.925936e-01
    9.921774e-01
    1.022143e+00
    1.018355e+00
    1.013552e+00
    1.009266e+00
    1.005619e+00
    1.002362e+00
    1.000493e+00
    9.977567e-01
    9.967022e-01
    9.950554e-01
    9.939920e-01
    9.932767e-01
    9.926351e-01
    1.016971e+00
    1.015852e+00
    1.010434e+00
    1.007432e+00
    1.004409e+00
    1.002017e+00
    1.000265e+00
    9.979593e-01
    9.969594e-01
    9.953194e-01
    9.943064e-01
    9.933436e-01
    1.014358e+00
    1.011216e+00
    1.009154e+00
    1.005924e+00
    1.003888e+00
    1.001587e+00
    9.999827e-01
    9.980821e-01
    9.971983e-01
    9.957989e-01
    9.944082e-01
    1.010371e+00
    1.009548e+00
    1.007342e+00
    1.005291e+00
    1.002988e+00
    1.001016e+00
    9.998375e-01
    9.980577e-01
    9.965129e-01
    9.959438e-01
    1.008567e+00
    1.007572e+00
    1.006029e+00
    1.003971e+00
    1.002710e+00
    1.000795e+00
    9.997098e-01
    9.985657e-01
    9.976750e-01
    1.008760e+00
    1.006015e+00
    1.004526e+00
    1.003244e+00
    1.002056e+00
    1.000509e+00
    9.994600e-01
    9.987757e-01
    1.005053e+00
    1.004882e+00
    1.003497e+00
    1.002813e+00
    1.001430e+00
    1.000132e+00
    9.994456e-01
    1.004335e+00
    1.003235e+00
    1.003080e+00
    1.002464e+00
    1.001360e+00
    1.000857e+00
    1.003108e+00
    1.002785e+00
    1.002777e+00
    1.001770e+00
    1.001383e+00
    1.002698e+00
    1.001678e+00
    1.001450e+00
    1.001399e+00
    1.002076e+00
    1.001835e+00
    1.001029e+00
    1.001367e+00
    9.418932e-01
    9.331379e-01
    9.273278e-01
    9.316989e-01
    9.465140e-01
    9.884678e-01
    1.046560e+00
    1.074008e+00
    1.094571e+00
    1.104161e+00
    1.084604e+00
    1.060960e+00
    1.034866e+00
    1.012811e+00
    9.993093e-01
    9.252748e-01
    9.317978e-01
    9.249101e-01
    9.263075e-01
    9.451759e-01
    9.900256e-01
    1.070930e+00
    1.095899e+00
    1.113476e+00
    1.105410e+00
    1.076478e+00
    1.048136e+00
    1.025937e+00
    1.028243e+00
    9.170526e-01
    9.055170e-01
    9.029772e-01
    9.281895e-01
    9.333766e-01
    1.012809e+00
    1.106008e+00
    1.135369e+00
    1.120352e+00
    1.099730e+00
    1.066955e+00
    1.040661e+00
    1.037527e+00
    8.964671e-01
    8.939687e-01
    8.918557e-01
    9.038486e-01
    9.726585e-01
    1.060326e+00
    1.146557e+00
    1.160618e+00
    1.120726e+00
    1.076233e+00
    1.042991e+00
    1.050771e+00
    8.804727e-01
    8.621222e-01
    8.688888e-01
    8.902266e-01
    1.016794e+00
    1.110262e+00
    1.166216e+00
    1.181348e+00
    1.107879e+00
    1.061231e+00
    1.059978e+00
    8.381070e-01
    8.549473e-01
    8.502921e-01
    9.236622e-01
    1.058302e+00
    1.164081e+00
    1.191897e+00
    1.158577e+00
    1.080353e+00
    1.082062e+00
    8.082613e-01
    8.125511e-01
    7.969460e-01
    9.041429e-01
    1.176592e+00
    1.264583e+00
    1.187740e+00
    1.118359e+00
    1.155051e+00
    7.238507e-01
    7.313285e-01
    8.579182e-01
    1.004698e+00
    1.241153e+00
    1.273631e+00
    1.179943e+00
    1.233854e+00
    6.701403e-01
    5.765601e-01
    7.932517e-01
    1.109840e+00
    1.347230e+00
    1.178378e+00
    1.227259e+00
    4.350192e-01
    8.888276e-01
    1.191634e+00
    1.323052e+00
    1.407293e+00
    4.185782e-01
    3.808283e-01
    2.579925e-01
    1.045577e-01
    1.762626e+00
    1.479408e+00
    1.115793e+00
    4.002760e-01
    1.166934e-01
    1.038992e+00
    1.052373e+00
    1.064281e+00
    1.085631e+00
    1.102939e+00
    1.182023e+00
    1.202455e+00
    1.213125e+00
    1.206163e+00
    1.117978e+00
    2.795877e-01
    6.137766e-01
    1.055283e+00
    1.045197e+00
    1.063492e+00
    1.076665e+00
    1.096429e+00
    1.122444e+00
    1.162450e+00
    1.199788e+00
    1.232403e+00
    1.222438e+00
    9.423730e-01
    6.550069e-01
    1.042640e+00
    1.069779e+00
    1.068856e+00
    1.083519e+00
    1.101414e+00
    1.122394e+00
    1.131812e+00
    1.138845e+00
    1.150097e+00
    1.080644e+00
    9.479302e-01
    7.658831e-01
    1.053310e+00
    1.062759e+00
    1.078583e+00
    1.076811e+00
    1.093137e+00
    1.101879e+00
    1.106613e+00
    1.097200e+00
    1.088731e+00
    9.990212e-01
    9.409327e-01
    8.025452e-01
    1.058846e+00
    1.063760e+00
    1.070480e+00
    1.074764e+00
    1.083299e+00
    1.080910e+00
    1.068706e+00
    1.058558e+00
    1.040597e+00
    9.878351e-01
    9.012975e-01
    8.435580e-01
    1.063211e+00
    1.064759e+00
    1.067365e+00
    1.067711e+00
    1.055371e+00
    1.064418e+00
    1.046594e+00
    1.029811e+00
    1.004923e+00
    9.672135e-01
    9.099461e-01
    8.748767e-01
    1.064852e+00
    1.062222e+00
    1.062670e+00
    1.060341e+00
    1.062840e+00
    1.029321e+00
    1.041139e+00
    1.017721e+00
    1.000369e+00
    9.528144e-01
    9.232994e-01
    8.899528e-01
    1.063736e+00
    1.059797e+00
    1.056452e+00
    1.048635e+00
    1.049210e+00
    1.040875e+00
    9.931903e-01
    1.010309e+00
    9.844031e-01
    9.511743e-01
    9.174135e-01
    8.949779e-01
    1.061383e+00
    1.053587e+00
    1.051140e+00
    1.042353e+00
    1.039839e+00
    1.031201e+00
    1.017322e+00
    9.603559e-01
    9.599508e-01
    9.516399e-01
    9.348343e-01
    9.199395e-01
    1.057461e+00
    1.050535e+00
    1.044186e+00
    1.032865e+00
    1.030051e+00
    1.017447e+00
    1.007729e+00
    9.851826e-01
    9.508942e-01
    9.586505e-01
    9.428602e-01
    9.224045e-01
    1.052323e+00
    1.042347e+00
    1.039227e+00
    1.027560e+00
    1.022158e+00
    1.008256e+00
    1.001994e+00
    9.851965e-01
    9.705454e-01
    9.465079e-01
    9.468898e-01
    9.388196e-01
    1.048398e+00
    1.041148e+00
    1.035341e+00
    1.023545e+00
    1.016976e+00
    1.004788e+00
    9.913753e-01
    9.756541e-01
    9.668304e-01
    9.563509e-01
    9.479664e-01
    9.465026e-01
    1.041060e+00
    1.035429e+00
    1.029355e+00
    1.018409e+00
    1.013635e+00
    1.002053e+00
    9.912384e-01
    9.832172e-01
    9.682253e-01
    9.644729e-01
    9.545579e-01
    1.034928e+00
    1.028972e+00
    1.025683e+00
    1.015843e+00
    1.009884e+00
    9.999300e-01
    9.902173e-01
    9.832427e-01
    9.707125e-01
    9.650544e-01
    9.568312e-01
    9.527290e-01
    1.032126e+00
    1.026937e+00
    1.021333e+00
    1.012668e+00
    1.008206e+00
    9.987373e-01
    9.889679e-01
    9.784843e-01
    9.736567e-01
    9.675211e-01
    9.626640e-01
    9.587870e-01
    1.028265e+00
    1.021734e+00
    1.018431e+00
    1.011006e+00
    1.005990e+00
    9.980417e-01
    9.901441e-01
    9.848599e-01
    9.754754e-01
    9.713394e-01
    9.674218e-01
    9.650126e-01
    1.022441e+00
    1.017635e+00
    1.015540e+00
    1.008360e+00
    1.004650e+00
    9.975091e-01
    9.900395e-01
    9.823204e-01
    9.790183e-01
    9.749392e-01
    9.715966e-01
    9.687267e-01
    1.021056e+00
    1.016154e+00
    1.013413e+00
    1.007123e+00
    1.003697e+00
    9.973841e-01
    9.913049e-01
    9.872851e-01
    9.816295e-01
    9.801466e-01
    9.760041e-01
    9.734587e-01
    1.016342e+00
    1.014167e+00
    1.010875e+00
    1.007923e+00
    1.001546e+00
    9.975411e-01
    9.924580e-01
    9.890085e-01
    9.837733e-01
    9.809417e-01
    9.774621e-01
    9.759435e-01
    1.013119e+00
    1.011206e+00
    1.008878e+00
    1.005876e+00
    1.001086e+00
    9.982762e-01
    9.929487e-01
    9.874312e-01
    9.856512e-01
    9.828768e-01
    9.808102e-01
    9.792471e-01
    1.009471e+00
    1.008744e+00
    1.006507e+00
    1.004795e+00
    1.000673e+00
    9.980636e-01
    9.937863e-01
    9.912125e-01
    9.871836e-01
    9.852237e-01
    9.834336e-01
    9.823293e-01
    1.008828e+00
    1.007416e+00
    1.005604e+00
    1.003505e+00
    1.001233e+00
    9.976860e-01
    9.932901e-01
    9.916283e-01
    9.893540e-01
    9.873698e-01
    9.857658e-01
    9.845632e-01
    1.006667e+00
    1.005451e+00
    1.004060e+00
    1.002178e+00
    1.000706e+00
    9.975567e-01
    9.956959e-01
    9.927484e-01
    9.914927e-01
    9.894912e-01
    9.880106e-01
    9.868245e-01
    1.005796e+00
    1.005268e+00
    1.003985e+00
    1.002224e+00
    1.000564e+00
    9.981699e-01
    9.954537e-01
    9.942955e-01
    9.918162e-01
    9.901805e-01
    9.887357e-01
    9.879529e-01
    1.004390e+00
    1.003971e+00
    1.002832e+00
    1.001760e+00
    1.000322e+00
    9.979888e-01
    9.966422e-01
    9.942749e-01
    9.929112e-01
    9.917910e-01
    9.902157e-01
    9.894398e-01
    1.003167e+00
    1.002893e+00
    1.002527e+00
    1.001047e+00
    1.000043e+00
    9.980912e-01
    9.969358e-01
    9.952858e-01
    9.933972e-01
    9.921542e-01
    9.914419e-01
    9.906355e-01
    1.002893e+00
    1.002590e+00
    1.001941e+00
    1.000705e+00
    9.998618e-01
    9.981397e-01
    9.971220e-01
    9.955424e-01
    9.938452e-01
    9.930392e-01
    9.917232e-01
    9.912828e-01
    1.002399e+00
    1.002108e+00
    1.001475e+00
    1.000475e+00
    9.997189e-01
    9.981155e-01
    9.972038e-01
    9.955779e-01
    9.941613e-01
    9.933644e-01
    9.922919e-01
    9.918278e-01
    1.228103e+00
    1.312233e+00
    1.326037e+00
    1.354048e+00
    1.410323e+00
    1.433517e+00
    1.556867e+00
    1.616047e+00
    1.687420e+00
    1.772866e+00
    1.864452e+00
    1.986971e+00
    2.134962e+00
    2.444107e+00
    9.867537e-01
    1.028923e+00
    1.060626e+00
    1.161015e+00
    1.189292e+00
    1.001848e+00
    1.002856e+00
    1.006209e+00
    1.013045e+00
    1.021080e+00
    1.035783e+00
    1.054333e+00
    1.069476e+00
    1.079978e+00
    1.062158e+00
    1.039291e+00
    9.832009e-01
    9.917107e-01
    9.936555e-01
    9.962161e-01
    9.998112e-01
    1.001587e+00
    3.619440e-01
    3.905943e-01
    5.813847e-01
    7.723653e-01
    8.559881e-01
    9.108155e-01
    9.334979e-01
    9.506698e-01
    9.665277e-01
    9.750802e-01
    9.815016e-01
    9.862214e-01
    9.894789e-01
    9.910966e-01
    1.079829e+00
    8.878648e-01
    5.193266e-01
    5.175534e-01
    4.198640e-01
    3.339608e-01
    3.134892e-01
    4.247296e-01
    2.487266e-01
    2.496126e-01
    2.511900e-01
    2.549796e-01
    2.640955e-01
    2.837543e-01
    3.015080e-01
    3.181324e-01
    3.192534e-01
    3.108316e+00
    2.809120e+00
    2.698164e+00
    2.708214e+00
    2.952699e+00
    2.677824e+00
    2.884673e+00
    2.711262e+00
    2.467376e+00
    2.499363e+00
    2.258623e+00
    2.028633e+00
    1.899561e+00
    1.807760e+00
    1.626470e+00
    1.491551e+00
    1.335597e+00
    1.164004e+00
    1.036715e+00
    8.341872e-01
    7.427986e-01
    5.138047e-01
    4.534616e-01
    3.599344e-01
    9.861128e-01
    1.035466e+00
    1.520492e-01
    1.386717e-01
    2.660204e-01
    5.064498e-01
    4.463466e-01
    7.161720e-01
    6.226901e-01
    8.768874e-01
    7.492748e-01
    3.688297e-01
    3.492626e-01
    1.205011e+00
    6.466645e-01
    3.595574e-01
    4.654648e-01
    1.284753e+00
    1.344658e+00
    1.379266e+00
    1.468665e+00
    2.334339e+00
    1.513355e+00
    1.505735e+00
    2.518948e-01
    2.679896e-01
    1.244992e+00
    1.266273e+00
    1.245211e+00
    1.291779e+00
    1.339709e+00
    1.310912e+00
    1.390108e+00
    1.357806e+00
    1.465998e+00
    1.423169e+00
    1.563270e+00
    1.587922e+00
    1.642539e+00
    1.648843e+00
    1.722926e+00
    1.730994e+00
    1.815479e+00
    1.819191e+00
    1.933697e+00
    1.941571e+00
    2.382009e+00
    2.044284e+00
    1.896005e+00
    2.235236e+00
    2.537169e+00
    2.419634e+00
    3.882219e-01
    2.874282e-01
    2.802233e-01
    2.944003e-01
    2.912048e-01
    2.594179e-01
    2.517507e-01
    2.460593e-01
    2.674620e-01
    2.486666e-01
    2.505655e-01
    3.045291e-01
    2.594894e-01
    2.940597e-01
    2.748381e-01
    3.084645e-01
    2.904670e-01
    3.541611e-01
    3.108638e-01
    3.467553e-01
    3.289020e-01
    3.376310e-01
    8.731750e-01
    7.845021e-01
    5.914658e-01
    7.109606e-01
    4.565710e-01
    3.883278e-01
    2.805774e+00
    2.362662e+00
    2.108578e+00
    2.011998e+00
    1.956248e+00
    1.261928e+00
    6.724690e-01
    1.922597e-01
    2.658058e+00
    2.994677e+00
    3.873472e-01
    5.407708e-01
    3.394007e-01
    2.373678e-01
    1.327258e+00
    8.899297e-01
    6.161471e-01
    6.995305e-01
    2.440502e+00
    2.618774e+00
    9.481277e-01
    5.094275e-01
    2.374036e+00
    2.137663e+00
    2.988125e+00
    2.694319e+00
    2.182558e-01
    3.141688e-01
    8.048808e-01
    6.171996e-01
    2.614823e+00
    2.345042e+00
    9.994701e-01
    8.412610e-01
    5.677456e-01
    6.435336e-01
    3.173046e-01
    4.280579e-01
    1.001883e+00
    2.728557e+00
    1.076954e+00
    9.661543e-01
    6.317079e-01
    7.963580e-01
    3.396626e-01
    3.431125e-01
    1.942222e+00
    2.136353e+00
    1.338534e+00
    1.646983e+00
    8.438354e-01
    2.688824e-01
    2.684978e-01
    4.885969e-01
    4.324238e-01
    6.625208e-01
    5.387381e-01
    7.188995e-01
    5.952870e-01
    1.632581e+00
    1.495462e+00
    3.026752e+00
    2.405058e+00
    2.440110e+00
    2.226786e+00
    1.832533e+00
    1.717118e+00
    2.609425e+00
    2.547906e+00
    4.259876e-01
    3.852498e-01
    1.174135e+00
    1.200833e+00
    5.375177e-01
    4.119492e-01
    1.139280e+00
    1.177429e+00
    5.501291e-01
    4.759751e-01
    1.109978e+00
    1.165376e+00
    2.230710e+00
    2.074109e+00
    2.679566e-01
    2.699529e-01
    3.623180e-01
    6.117386e-01
    3.185562e-01
    2.841520e-01
    2.405157e-01
    2.943240e-01
    3.364552e-01
    3.373584e-01
    3.603612e-01
    1.346948e+00
    1.297349e+00
    1.404019e+00
    1.322078e+00
    1.418023e+00
    1.378860e+00
    1.506863e+00
    1.566584e+00
    1.256272e+00
    1.283318e+00
    1.298925e+00
    1.326920e+00
    1.604011e+00
    1.601737e+00
    1.683947e+00
    1.678304e+00
    1.660283e+00
    1.766070e+00
    1.863670e+00
    1.992337e+00
    1.987479e+00
    2.050706e+00
    3.455662e-01
    4.254156e-01
    3.369993e-01
    3.623375e-01
    2.393892e+00
    3.626202e-01
    2.998395e-01
    3.275162e-01
    8.001310e-01
    2.598591e-01
    2.748246e-01
    2.583228e-01
    3.015102e-01
    3.002294e-01
    2.711668e-01
    3.078740e-01
    3.790176e-01
    1.229412e+00
    1.226656e+00
    1.363863e+00
    1.187180e+00
    2.306427e+00
    2.696829e+00
    1.025807e+00
    4.909248e-01
    2.528717e+00
    2.143899e+00
    5.014849e-01
    2.909533e-01
    2.693980e+00
    1.976637e+00
    1.774363e+00
    7.138583e-01
    8.090988e-01
    7.599702e-01
    2.254517e+00
    1.878546e+00
    3.646770e-01
    2.926537e-01
    4.106545e-01
    4.419051e-01
    1.766509e+00
    1.088717e+00
    1.593384e+00
    1.894474e+00
    1.216331e+00
    9.474238e-01
    9.205065e-01
    9.311053e-01
    8.411160e-01
    6.564456e-01
    2.379144e+00
    2.373599e+00
    2.226297e+00
    2.034586e+00
    5.827338e-01
    8.411239e-01
    7.936356e-01
    3.064519e-01
    4.109246e-01
    1.624225e+00
    1.467006e+00
    5.480109e-01
    4.969665e-01
    4.774380e-01
    5.614291e-01
    5.297322e-01
    3.923035e-01
    4.405266e-01
    3.843791e-01
    3.888777e-01
    1.955371e+00
    2.048616e+00
    5.710371e-01
    4.985774e-01
    1.681999e+00
    1.577278e+00
    8.128079e-01
    5.962544e-01
    2.205407e+00
    2.216115e+00
    3.767855e-01
    4.114553e-01
    1.231357e+00
    1.199477e+00
    6.354538e-01
    4.770537e-01
    1.144896e+00
    1.204502e+00
    4.979634e-01
    6.402232e-01
    1.122069e+00
    1.101806e+00
    1.252946e+00
    3.539686e-01
    3.596174e-01
    4.313884e-01
    4.714293e-01
    1.807541e+00
    3.127042e-01
    2.933040e-01
    3.320333e-01
    2.648503e-01
    4.241374e-01
    2.760966e-01
    3.472939e-01
    1.603819e+00
    1.628495e+00
    1.713231e+00
    1.705558e+00
    1.864872e+00
    1.771753e+00
    3.700797e-01
    3.425078e-01
    3.021301e-01
    3.286605e-01
    2.774681e-01
    2.796110e-01
    3.939218e-01
    4.757501e-01
    2.174226e+00
    1.285152e+00
    1.275942e+00
    1.375629e+00
    3.227085e-01
    3.318487e-01
    1.358199e+00
    1.307296e+00
    1.403094e+00
    1.288509e+00
    1.376687e+00
    3.041243e-01
    2.800697e-01
    1.223113e+00
    1.051006e+00
    1.368107e+00
    1.397318e+00
    6.268425e-01
    6.119294e-01
    5.067342e-01
    2.177294e+00
    2.436367e+00
    6.561738e-01
    2.385350e+00
    2.110123e+00
    2.438362e+00
    5.966253e-01
    5.426471e-01
    2.309345e+00
    2.050953e+00
    2.177335e+00
    2.011199e+00
    2.059737e+00
    2.220012e+00
    1.880084e+00
    2.135778e+00
    4.965512e-01
    4.561365e-01
    4.560334e-01
    4.505993e-01
    4.617292e-01
    5.102530e-01
    4.251667e-01
    4.992951e-01
    4.157879e-01
    4.552840e-01
    1.800626e+00
    2.048671e+00
    4.323192e-01
    6.217263e-01
    4.705915e-01
    5.825987e-01
    1.888536e+00
    1.944457e+00
    5.346264e-01
    5.437953e-01
    6.135325e-01
    6.998039e-01
    7.098488e-01
    7.774375e-01
    1.035149e+00
    7.440705e-01
    1.157674e+00
    1.132601e+00
    8.605625e-01
    6.527219e-01
    9.648567e-01
    8.683489e-01
    1.654765e+00
    1.840354e+00
    1.471573e+00
    1.735577e+00
    1.422754e+00
    1.510853e+00
    1.569434e+00
    1.616979e+00
    3.963956e-01
    4.180418e-01
    1.206581e+00
    1.235556e+00
    5.081350e-01
    4.688290e-01
    1.182939e+00
    1.239262e+00
    6.246763e-01
    4.755361e-01
    1.145920e+00
    1.170103e+00
    1.249803e+00
    1.264743e+00
    3.643243e-01
    3.085709e-01
    1.366022e+00
    1.398581e+00
    3.957496e-01
    1.862908e+00
    1.923615e+00
    4.056930e-01
    5.385173e-01
    3.089211e-01
    3.396369e-01
    3.227633e-01
    1.569238e+00
    1.773461e+00
    3.742337e-01
    3.810187e-01
    1.586305e+00
    1.507182e+00
    1.635848e+00
    1.577033e+00
    1.852457e+00
    1.742969e+00
    4.732653e-01
    4.062497e-01
    3.806515e-01
    3.327183e-01
    3.034747e-01
    3.134308e-01
    1.900249e+00
    1.811369e+00
    1.313931e+00
    1.257881e+00
    1.328193e+00
    1.417158e+00
    3.453020e-01
    1.273810e+00
    1.327721e+00
    1.310472e+00
    1.346115e+00
    3.222626e-01
    3.537869e-01
    1.271424e+00
    1.059217e+00
    1.399506e+00
    1.307724e+00
    1.765758e+00
    1.639953e+00
    1.489660e+00
    1.711514e+00
    2.112640e+00
    1.823272e+00
    1.705443e+00
    1.818417e+00
    1.828044e+00
    1.735381e+00
    1.871576e+00
    2.165604e+00
    2.012425e+00
    1.947204e+00
    5.323581e-01
    4.995152e-01
    4.792772e-01
    5.116540e-01
    4.624565e-01
    5.323804e-01
    1.969604e+00
    5.101318e-01
    5.018082e-01
    6.683242e-01
    5.401540e-01
    1.083416e+00
    1.036695e+00
    1.013112e+00
    9.507450e-01
    2.118886e+00
    4.481225e-01
    4.671791e-01
    5.696641e-01
    4.711319e-01
    9.408639e-01
    8.024418e-01
    2.106795e+00
    6.584081e-01
    7.283908e-01
    6.356888e-01
    7.229650e-01
    8.600391e-01
    7.953171e-01
    7.321890e-01
    5.962870e-01
    1.383787e+00
    1.527867e+00
    1.561069e+00
    1.493770e+00
    1.327842e+00
    1.156351e+00
    4.108719e-01
    4.094740e-01
    4.271033e-01
    4.514771e-01
    1.222505e+00
    1.248491e+00
    4.686440e-01
    5.813512e-01
    1.214504e+00
    1.183690e+00
    6.503713e-01
    5.500384e-01
    1.366034e+00
    4.083543e-01
    1.453938e+00
    3.201945e-01
    3.782332e-01
    3.527063e-01
    3.132758e-01
    1.807508e+00
    1.919574e+00
    1.675393e+00
    1.686940e+00
    1.451535e+00
    1.774650e+00
    1.508892e+00
    3.870924e-01
    3.529577e-01
    1.683282e+00
    1.594951e+00
    1.744692e+00
    1.658818e+00
    4.170023e-01
    4.218874e-01
    3.392202e-01
    4.708793e-01
    3.251948e-01
    3.389713e-01
    3.214267e-01
    3.843019e-01
    1.346461e+00
    1.394699e+00
    1.351533e+00
    1.391888e+00
    1.293140e+00
    1.299241e+00
    4.482122e-01
    3.654275e-01
    3.876411e-01
    4.267433e-01
    1.228446e+00
    1.122406e+00
    1.349524e+00
    1.426444e+00
    1.733332e+00
    1.622327e+00
    1.560641e+00
    1.687868e+00
    6.463198e-01
    5.728019e-01
    5.512252e-01
    5.316585e-01
    1.054566e+00
    9.373302e-01
    5.305827e-01
    6.777480e-01
    1.273563e+00
    1.223421e+00
    1.903742e+00
    1.789813e+00
    9.037752e-01
    8.485872e-01
    1.763673e+00
    1.963486e+00
    2.066090e+00
    1.934112e+00
    1.672692e+00
    1.769863e+00
    2.124321e+00
    1.839912e+00
    4.043329e-01
    5.203602e-01
    5.123352e-01
    1.136981e+00
    5.817227e-01
    6.184549e-01
    4.980861e-01
    4.688913e-01
    9.172213e-01
    1.555247e+00
    4.589826e-01
    1.916433e+00
    1.295294e+00
    1.135008e+00
    6.743043e-01
    7.801315e-01
    6.715676e-01
    6.198859e-01
    8.479708e-01
    7.895762e-01
    1.506175e+00
    1.618034e+00
    1.444773e+00
    1.533569e+00
    2.003958e+00
    1.898782e+00
    5.180571e-01
    4.614378e-01
    1.215954e+00
    1.250597e+00
    5.453903e-01
    7.118765e-01
    8.152137e-01
    7.013829e-01
    1.156787e+00
    1.220010e+00
    4.851289e-01
    1.416545e+00
    3.548378e-01
    1.615134e+00
    4.189349e-01
    3.844897e-01
    1.367788e+00
    3.663374e-01
    4.121424e-01
    4.261366e-01
    3.688958e-01
    1.744572e+00
    1.786522e+00
    1.601234e+00
    1.683813e+00
    1.533126e+00
    1.545144e+00
    1.525930e+00
    1.470897e+00
    1.480836e+00
    3.823668e-01
    3.822435e-01
    3.904129e-01
    5.480754e-01
    3.880778e-01
    4.355464e-01
    1.328219e+00
    4.433273e-01
    3.954900e-01
    1.291198e+00
    1.368543e+00
    4.632776e-01
    4.048055e-01
    1.215903e+00
    1.109439e+00
    4.749252e-01
    1.206832e+00
    1.457538e+00
    1.642441e+00
    1.693595e+00
    6.526656e-01
    6.273347e-01
    1.555122e+00
    1.667269e+00
    1.419128e+00
    1.381381e+00
    1.012374e+00
    5.949359e-01
    5.829328e-01
    1.846565e+00
    1.602281e+00
    7.294216e-01
    7.257826e-01
    4.633440e-01
    5.513598e-01
    1.283826e+00
    1.205934e+00
    1.217168e+00
    1.137775e+00
    1.682669e+00
    1.895349e+00
    1.121613e+00
    1.790052e+00
    1.719628e+00
    9.509769e-01
    1.980090e+00
    1.720278e+00
    5.255122e-01
    1.863955e+00
    1.705069e+00
    5.060627e-01
    5.068569e-01
    2.036420e+00
    1.791196e+00
    9.518846e-01
    8.932816e-01
    7.861093e-01
    7.063714e-01
    1.507534e+00
    1.613420e+00
    4.519300e-01
    4.326828e-01
    8.934286e-01
    8.431366e-01
    7.695108e-01
    7.311631e-01
    1.460719e+00
    1.547793e+00
    1.333290e+00
    1.257531e+00
    5.415051e-01
    4.842940e-01
    1.315814e+00
    1.280601e+00
    6.350769e-01
    5.355412e-01
    1.252963e+00
    1.199799e+00
    8.961083e-01
    7.137453e-01
    1.209232e+00
    1.242538e+00
    7.226624e-01
    8.177996e-01
    4.673055e-01
    1.438727e+00
    1.437450e+00
    1.411727e+00
    1.383780e+00
    3.924388e-01
    4.076702e-01
    4.369871e-01
    4.938938e-01
    4.064955e-01
    1.651990e+00
    1.600374e+00
    1.542205e+00
    4.625761e-01
    1.799490e+00
    1.490046e+00
    4.961906e-01
    5.530522e-01
    1.355956e+00
    1.318594e+00
    4.964189e-01
    4.440126e-01
    5.084375e-01
    4.742894e-01
    7.094227e-01
    6.594526e-01
    7.693963e-01
    7.201238e-01
    1.626232e+00
    1.543541e+00
    1.646448e+00
    1.660472e+00
    1.577626e+00
    1.744583e+00
    1.281283e+00
    6.039510e-01
    6.040338e-01
    1.072262e+00
    1.098330e+00
    1.217255e+00
    1.119963e+00
    1.353388e+00
    1.336359e+00
    1.322862e+00
    1.481384e+00
    1.254316e+00
    1.258684e+00
    1.823421e+00
    1.743178e+00
    4.981506e-01
    5.618797e-01
    1.858849e+00
    1.641703e+00
    1.765422e+00
    1.761364e+00
    5.222598e-01
    1.045050e+00
    1.000545e+00
    1.410140e+00
    1.306600e+00
    1.510061e+00
    1.600439e+00
    8.310332e-01
    7.225832e-01
    8.299962e-01
    9.485813e-01
    1.467996e+00
    1.546463e+00
    8.915132e-01
    7.886705e-01
    9.871590e-01
    9.221430e-01
    1.283205e+00
    1.449854e+00
    1.265432e+00
    1.288202e+00
    4.628371e-01
    1.873164e+00
    1.678195e+00
    1.232140e+00
    1.257883e+00
    6.058899e-01
    5.028643e-01
    6.426318e-01
    6.829910e-01
    1.268459e+00
    1.194107e+00
    7.297722e-01
    8.369517e-01
    1.154432e+00
    1.112440e+00
    8.063689e-01
    7.270432e-01
    1.445098e+00
    1.442456e+00
    5.239649e-01
    4.560246e-01
    1.494836e+00
    1.401214e+00
    1.348590e+00
    4.524935e-01
    4.364872e-01
    1.611493e+00
    1.559797e+00
    1.509502e+00
    5.093524e-01
    1.604861e+00
    4.977399e-01
    6.162159e-01
    5.823740e-01
    5.532215e-01
    1.322659e+00
    7.279907e-01
    7.880945e-01
    6.607490e-01
    6.646432e-01
    1.532217e+00
    1.604570e+00
    1.615603e+00
    1.560726e+00
    1.139802e+00
    1.232667e+00
    1.588275e+00
    1.705840e+00
    5.669053e-01
    6.112050e-01
    1.173384e+00
    1.159692e+00
    1.312569e+00
    1.392933e+00
    1.375729e+00
    1.751289e+00
    1.659740e+00
    1.502530e+00
    1.586170e+00
    1.360267e+00
    1.348234e+00
    8.536271e-01
    8.568836e-01
    1.123025e+00
    1.083108e+00
    5.625976e-01
    5.554370e-01
    1.448245e+00
    1.299925e+00
    1.427046e+00
    1.499763e+00
    1.066215e+00
    1.038651e+00
    1.347602e+00
    1.356045e+00
    1.473631e+00
    1.550627e+00
    9.220777e-01
    7.881442e-01
    1.002065e+00
    9.811487e-01
    8.611360e-01
    8.556241e-01
    1.230820e+00
    1.242884e+00
    4.784315e-01
    5.061826e-01
    6.689617e-01
    7.967973e-01
    5.418321e-01
    6.232934e-01
    5.170762e-01
    5.244786e-01
    1.281119e+00
    1.286244e+00
    1.223689e+00
    1.265191e+00
    6.090045e-01
    5.714761e-01
    9.390334e-01
    7.638325e-01
    1.125821e+00
    1.113837e+00
    1.251719e+00
    1.241436e+00
    1.206038e+00
    1.280966e+00
    5.701547e-01
    1.416695e+00
    5.005269e-01
    1.525731e+00
    4.920454e-01
    4.904002e-01
    1.536736e+00
    5.023990e-01
    5.852950e-01
    1.341103e+00
    1.367999e+00
    1.309362e+00
    1.303912e+00
    4.587830e-01
    5.091870e-01
    7.208891e-01
    7.957367e-01
    5.632332e-01
    5.254148e-01
    1.387299e+00
    1.373432e+00
    6.487851e-01
    6.668518e-01
    1.494426e+00
    1.579335e+00
    1.629576e+00
    1.539467e+00
    1.532358e+00
    1.573844e+00
    8.633407e-01
    7.164480e-01
    1.599781e+00
    1.664392e+00
    1.327701e+00
    1.363301e+00
    6.157075e-01
    1.606193e+00
    1.607240e+00
    1.224426e+00
    1.188360e+00
    1.427586e+00
    1.409120e+00
    1.166653e+00
    1.248960e+00
    5.452175e-01
    6.395873e-01
    1.386317e+00
    1.510559e+00
    1.467742e+00
    1.539474e+00
    1.468460e+00
    1.333073e+00
    1.286383e+00
    1.294175e+00
    1.137317e+00
    1.119184e+00
    9.352282e-01
    7.583999e-01
    1.317356e+00
    1.315951e+00
    1.438904e+00
    1.372139e+00
    9.346569e-01
    1.064375e+00
    1.003541e+00
    8.506132e-01
    1.253872e+00
    1.193302e+00
    1.078336e+00
    1.003928e+00
    6.612938e-01
    8.331159e-01
    1.463583e+00
    5.569373e-01
    5.948927e-01
    6.255007e-01
    5.888102e-01
    1.301158e+00
    1.258982e+00
    7.266999e-01
    9.342325e-01
    1.038521e+00
    9.956777e-01
    1.278899e+00
    1.272777e+00
    1.683645e+00
    6.165370e-01
    5.324129e-01
    1.486665e+00
    1.398489e+00
    5.482940e-01
    6.060715e-01
    1.549610e+00
    1.486233e+00
    6.485791e-01
    1.555307e+00
    1.511901e+00
    1.341213e+00
    5.315645e-01
    1.443799e+00
    1.489885e+00
    1.629577e+00
    1.576626e+00
    7.861161e-01
    1.422576e+00
    1.378896e+00
    7.772247e-01
    7.605401e-01
    5.946468e-01
    6.818420e-01
    1.545061e+00
    1.476250e+00
    1.493456e+00
    1.553705e+00
    6.902962e-01
    1.352695e+00
    1.306681e+00
    1.282178e+00
    1.292556e+00
    1.507466e+00
    1.532180e+00
    1.406787e+00
    1.513130e+00
    1.445665e+00
    1.361857e+00
    1.214881e+00
    1.309339e+00
    9.339011e-01
    8.320662e-01
    1.257953e+00
    1.203450e+00
    1.480954e+00
    1.388830e+00
    1.248063e+00
    1.286349e+00
    1.500611e+00
    1.423023e+00
    1.485914e+00
    1.418579e+00
    1.145342e+00
    1.139911e+00
    1.009128e+00
    1.003742e+00
    1.074213e+00
    1.077225e+00
    9.916255e-01
    9.296187e-01
    6.889690e-01
    6.240476e-01
    1.282092e+00
    1.354954e+00
    7.197920e-01
    6.529008e-01
    1.278868e+00
    1.405095e+00
    7.567257e-01
    6.862133e-01
    1.252532e+00
    1.413964e+00
    8.600074e-01
    8.948367e-01
    1.152053e+00
    9.028924e-01
    1.161263e+00
    1.267289e+00
    6.873293e-01
    1.426001e+00
    1.382868e+00
    5.803635e-01
    1.521366e+00
    1.349129e+00
    1.479881e+00
    1.481419e+00
    1.429937e+00
    1.505774e+00
    7.439080e-01
    7.289236e-01
    6.849512e-01
    1.326380e+00
    1.328858e+00
    1.495142e+00
    1.511035e+00
    9.138646e-01
    6.899067e-01
    1.460872e+00
    1.440771e+00
    1.395106e+00
    1.339659e+00
    1.553016e+00
    1.464513e+00
    1.432507e+00
    1.380329e+00
    1.433212e+00
    6.367865e-01
    1.204271e+00
    1.248180e+00
    6.940468e-01
    6.681737e-01
    9.097862e-01
    8.786654e-01
    1.376392e+00
    1.308494e+00
    1.203368e+00
    1.201093e+00
    1.466116e+00
    1.445955e+00
    1.403658e+00
    1.458463e+00
    1.384150e+00
    1.281013e+00
    9.977493e-01
    8.927237e-01
    1.143713e+00
    1.141915e+00
    1.069253e+00
    1.047730e+00
    1.342308e+00
    1.329639e+00
    6.599493e-01
    6.694415e-01
    1.289817e+00
    1.425936e+00
    7.987521e-01
    7.917749e-01
    1.261529e+00
    1.317559e+00
    9.992577e-01
    9.233357e-01
    1.051734e+00
    1.135927e+00
    1.318169e+00
    1.296743e+00
    1.191492e+00
    1.222373e+00
    1.436961e+00
    1.405774e+00
    8.008868e-01
    7.295448e-01
    1.437464e+00
    1.399230e+00
    7.721021e-01
    8.816488e-01
    1.430882e+00
    1.491191e+00
    1.327700e+00
    1.345743e+00
    1.444051e+00
    1.371973e+00
    1.517593e+00
    1.465702e+00
    1.477907e+00
    1.457061e+00
    7.099580e-01
    7.563935e-01
    1.421035e+00
    1.416791e+00
    9.674754e-01
    8.602291e-01
    1.402210e+00
    1.317823e+00
    1.251155e+00
    1.289669e+00
    1.463516e+00
    1.479460e+00
    1.406597e+00
    1.447091e+00
    1.303639e+00
    1.257447e+00
    1.361894e+00
    1.337241e+00
    1.422837e+00
    1.409993e+00
    1.059121e+00
    1.006078e+00
    1.196494e+00
    1.137471e+00
    7.698328e-01
    7.111317e-01
    1.327119e+00
    1.324498e+00
    9.860089e-01
    8.549024e-01
    9.618551e-01
    1.017931e+00
    1.351601e+00
    1.314311e+00
    9.586752e-01
    1.235264e+00
    1.064555e+00
    1.063956e+00
    1.022136e+00
    9.563300e-01
    1.246735e+00
    1.287620e+00
    1.479674e+00
    1.434229e+00
    1.469538e+00
    1.375787e+00
    1.365270e+00
    1.394233e+00
    1.248057e+00
    1.365401e+00
    1.451449e+00
    1.433036e+00
    7.579604e-01
    8.548252e-01
    7.657375e-01
    6.979458e-01
    1.397141e+00
    1.469310e+00
    1.369991e+00
    1.353495e+00
    1.422661e+00
    1.379594e+00
    1.253937e+00
    1.301096e+00
    8.344606e-01
    9.191592e-01
    8.327161e-01
    8.330466e-01
    1.447074e+00
    1.415597e+00
    1.306204e+00
    1.282879e+00
    1.098572e+00
    1.175363e+00
    1.173946e+00
    1.190248e+00
    8.937962e-01
    9.191993e-01
    8.641009e-01
    7.855332e-01
    8.956724e-01
    8.683646e-01
    1.299137e+00
    1.297702e+00
    1.416416e+00
    1.349551e+00
    1.192736e+00
    1.124358e+00
    9.196319e-01
    1.024323e+00
    1.016379e+00
    1.052637e+00
    8.258432e-01
    9.268684e-01
    1.165833e+00
    1.133196e+00
    1.074908e+00
    1.077810e+00
    6.924045e-01
    6.558664e-01
    7.816663e-01
    8.786279e-01
    1.409703e+00
    1.455673e+00
    7.433847e-01
    7.933801e-01
    1.429207e+00
    1.452024e+00
    1.329643e+00
    1.394055e+00
    1.350300e+00
    1.411546e+00
    1.376557e+00
    1.448638e+00
    1.437946e+00
    1.361258e+00
    1.119930e+00
    1.098406e+00
    1.294273e+00
    1.338091e+00
    1.408149e+00
    1.414519e+00
    9.488870e-01
    9.539835e-01
    1.251816e+00
    1.195160e+00
    1.424358e+00
    1.443994e+00
    1.023465e+00
    1.033547e+00
    1.362829e+00
    1.414712e+00
    1.348351e+00
    1.379836e+00
    1.112884e+00
    1.047396e+00
    1.128804e+00
    1.195186e+00
    1.130196e+00
    1.082462e+00
    9.230104e-01
    9.539334e-01
    1.396273e+00
    1.392065e+00
    1.287168e+00
    1.408409e+00
    1.386116e+00
    1.389293e+00
    1.245254e+00
    1.297482e+00
    1.344421e+00
    1.329675e+00
    1.358480e+00
    1.426645e+00
    1.391175e+00
    1.345705e+00
    1.348155e+00
    1.430791e+00
    1.344729e+00
    1.367925e+00
    1.241832e+00
    1.199156e+00
    1.389207e+00
    1.323541e+00
    1.371628e+00
    1.374312e+00
    1.359514e+00
    1.339837e+00
    1.319057e+00
    1.314982e+00
    1.354977e+00
    1.352705e+00
    1.264804e+00
    1.307685e+00
    1.415684e+00
    1.389781e+00
    1.330948e+00
    1.285820e+00
    1.314793e+00
    1.337834e+00
    1.396778e+00
    1.331137e+00
    1.278247e+00
    1.281345e+00
    1.343386e+00
    1.337445e+00
    1.222243e+00
    1.248812e+00
    1.318813e+00
    1.332968e+00
    1.346432e+00
    1.293081e+00
    1.317493e+00
    1.272565e+00
    1.292688e+00
    1.259856e+00
    1.353866e+00
    1.352501e+00
    1.211141e+00
    1.225255e+00
    1.290434e+00
    1.250164e+00
    1.217702e+00
    1.237062e+00
    1.154973e+00
    1.197826e+00
    1.198606e+00
    1.140922e+00
    1.110021e+00
    1.095226e+00
    1.270093e+00
    1.258794e+00
    1.205021e+00
    1.189123e+00
    9.971974e-01
    9.465848e-01
    1.075563e+00
    1.079520e+00
    1.204488e+00
    1.228428e+00
    8.111411e-01
    7.415158e-01
    9.928761e-01
    9.924011e-01
    9.938165e-01
    9.929551e-01
    9.964125e-01
    9.952198e-01
    1.000075e+00
    9.990935e-01
    1.001631e+00
    1.001109e+00
    1.001584e+00
    1.001440e+00
    1.040118e+00
    1.031999e+00
    1.015533e+00
    1.012691e+00
    1.009283e+00
    1.008269e+00
    1.003962e+00
    1.003934e+00
    1.002013e+00
    1.002606e+00
    1.018514e+00
    1.001720e+00
    1.068687e+00
    1.065635e+00
    1.073423e+00
    1.057567e+00
    1.046517e+00
    1.042132e+00
    1.071163e+00
    1.067268e+00
    1.043787e+00
    1.030577e+00
    8.257452e-01
    8.418173e-01
    7.363513e-01
    6.525586e-01
    9.042113e-01
    9.138848e-01
    9.274997e-01
    9.302242e-01
    9.771694e-01
    9.784651e-01
    9.826738e-01
    9.835821e-01
    9.885194e-01
    9.890045e-01
    9.906521e-01
    9.910684e-01
    9.653479e-01
    9.669085e-01
    9.547840e-01
    9.569218e-01
    7.458009e-01
    6.931144e-01
    1.034009e+00
    1.041620e+00
    1.050212e+00
    1.047947e+00
    1.020242e+00
    1.027530e+00
    1.021145e+00
    1.022091e+00
    9.971200e-01
    9.943079e-01
    1.049863e+00
    1.073966e+00
    1.002086e+00
    1.001622e+00
    1.198266e+00
    1.154927e+00
    8.579043e-01
    7.918745e-01
    1.010662e+00
    1.066736e+00
    1.050580e+00
    1.066321e+00
    1.192793e+00
    1.244620e+00
    1.130457e+00
    1.189579e+00
    1.217308e+00
    1.149417e+00
    1.245262e+00
    1.243013e+00
    9.941940e-01
    9.949918e-01
    9.967483e-01
    9.971773e-01
    1.000315e+00
    1.000586e+00
    1.018060e+00
    1.019269e+00
    1.011270e+00
    1.012216e+00
    1.005006e+00
    1.005370e+00
    1.030851e+00
    1.029362e+00
    1.002416e+00
    1.003699e+00
    1.011471e+00
    1.020994e+00
    1.047660e+00
    1.049278e+00
    1.069631e+00
    1.069752e+00
    1.069653e+00
    1.069293e+00
    1.059805e+00
    1.047308e+00
    1.045057e+00
    1.041607e+00
    1.060263e+00
    1.059892e+00
    1.059774e+00
    1.056094e+00
    9.958516e-01
    9.859573e-01
    8.896454e-01
    8.872226e-01
    8.012083e-01
    8.419639e-01
    9.743250e-01
    9.768113e-01
    9.808799e-01
    9.827143e-01
    9.914951e-01
    9.913803e-01
    9.387810e-01
    9.393585e-01
    9.252135e-01
    9.218920e-01
    8.763333e-01
    8.758925e-01
    9.492753e-01
    9.542115e-01
    1.036727e+00
    1.033275e+00
    9.810550e-01
    9.311252e-01
    1.058505e+00
    1.044829e+00
    1.000275e+00
    9.990972e-01
    9.935472e-01
    9.927270e-01
    9.926394e-01
    9.921867e-01
    1.039938e+00
    1.026456e+00
    1.029153e+00
    1.014848e+00
    1.014150e+00
    9.942023e-01
    1.002433e+00
    1.002412e+00
    1.002294e+00
    1.001920e+00
    1.001827e+00
    1.000939e+00
    1.079994e+00
    1.056454e+00
    9.961901e-01
    9.949525e-01
    9.871256e-01
    9.881857e-01
    1.007260e+00
    1.007100e+00
    9.696113e-01
    9.718519e-01
    1.002217e+00
    1.002556e+00
    9.849640e-01
    9.859580e-01
    9.900014e-01
    9.905840e-01
    9.611139e-01
    9.655168e-01
    1.027887e+00
    1.012125e+00
    9.597729e-01
    9.573084e-01
    9.694128e-01
    9.680910e-01
    9.794130e-01
    9.781402e-01
    9.847840e-01
    9.838756e-01
    9.893001e-01
    9.890320e-01
    1.029256e+00
    1.051012e+00
    8.716978e-01
    8.769431e-01
    1.070336e+00
    1.061171e+00
    9.183279e-01
    9.183713e-01
    1.066320e+00
    1.052402e+00
    9.404960e-01
    9.381970e-01
    1.046424e+00
    1.035599e+00
    1.038644e+00
    1.027775e+00
    1.016008e+00
    1.010535e+00
    1.010350e+00
    1.007384e+00
    1.005116e+00
    1.003750e+00
    9.911758e-01
    9.911037e-01
    1.003217e+00
    1.002712e+00
    1.061291e+00
    1.064198e+00
    9.988920e-01
    9.981259e-01
    9.920276e-01
    9.921276e-01
    1.019504e+00
    9.602522e-01
    1.120564e+00
    1.072423e+00
    1.144993e+00
    1.181051e+00
    1.122158e+00
    1.144571e+00
    1.169341e+00
    1.191367e+00
    8.618081e-01
    8.799850e-01
    9.234264e-01
    8.972957e-01
    1.060133e+00
    1.077344e+00
    1.081558e+00
    1.059819e+00
    1.000501e+00
    9.991181e-01
    9.930760e-01
    9.923481e-01
    9.922706e-01
    9.916793e-01
    9.976494e-01
    9.963822e-01
    9.947936e-01
    9.936851e-01
    1.034892e+00
    1.033805e+00
    1.054998e+00
    1.046746e+00
    1.062891e+00
    1.066140e+00
    1.058349e+00
    1.066550e+00
    1.049399e+00
    1.056490e+00
    1.034384e+00
    1.041195e+00
    1.024834e+00
    1.030673e+00
    1.010897e+00
    1.011412e+00
    1.006930e+00
    1.007784e+00
    1.003644e+00
    1.003507e+00
    1.038321e+00
    1.024288e+00
    1.052531e+00
    1.037920e+00
    1.057216e+00
    1.062236e+00
    1.055314e+00
    1.042239e+00
    1.017736e+00
    1.013911e+00
    1.005940e+00
    1.004960e+00
    1.003217e+00
    1.002074e+00
    1.002516e+00
    1.001542e+00
    1.109203e+00
    1.080448e+00
    1.001215e+00
    9.999693e-01
    9.989116e-01
    9.976372e-01
    9.639570e-01
    9.626344e-01
    9.722223e-01
    9.722028e-01
    9.814081e-01
    9.811146e-01
    9.861285e-01
    9.862669e-01
    9.901203e-01
    9.903385e-01
    9.915000e-01
    9.917114e-01
    9.365209e-01
    9.298522e-01
    9.137705e-01
    9.084327e-01
    8.440527e-01
    8.364531e-01
    8.765608e-01
    8.957750e-01
    9.546781e-01
    9.532509e-01
    9.764947e-01
    9.761551e-01
    9.881570e-01
    9.880014e-01
    9.959763e-01
    9.946642e-01
    1.047324e+00
    1.032998e+00
    9.632937e-01
    9.624764e-01
    9.715455e-01
    9.712610e-01
    9.809490e-01
    9.802843e-01
    9.856765e-01
    9.854391e-01
    9.900302e-01
    9.900922e-01
    1.061695e+00
    1.051407e+00
    1.061459e+00
    1.057094e+00
    9.332204e-01
    9.369487e-01
    1.054911e+00
    1.045690e+00
    9.462700e-01
    9.483814e-01
    9.453802e-01
    9.463779e-01
    1.040828e+00
    1.030531e+00
    1.030687e+00
    1.022566e+00
    1.013906e+00
    1.008703e+00
    1.009034e+00
    1.005764e+00
    1.004806e+00
    1.003266e+00
    1.063151e+00
    1.065324e+00
    1.054954e+00
    1.022226e+00
    1.144852e+00
    1.099442e+00
    1.185980e+00
    1.197634e+00
    9.597231e-01
    9.453267e-01
    1.068042e+00
    1.066863e+00
    1.017735e+00
    1.025920e+00
    1.054405e+00
    1.060565e+00
    1.025228e+00
    1.035481e+00
    1.040774e+00
    1.050058e+00
    9.377571e-01
    8.854123e-01
    1.067497e+00
    1.055210e+00
    9.408919e-01
    9.312490e-01
    9.528531e-01
    9.542351e-01
    9.425304e-01
    9.361489e-01
    9.677238e-01
    9.669853e-01
    9.751980e-01
    9.751816e-01
    9.835720e-01
    9.830219e-01
    9.874953e-01
    9.876448e-01
    9.908510e-01
    9.911411e-01
    9.412849e-01
    9.170671e-01
    1.099468e+00
    1.081856e+00
    9.117795e-01
    9.243040e-01
    9.619464e-01
    9.559287e-01
    9.793284e-01
    9.769760e-01
    9.894706e-01
    9.883108e-01
    1.000845e+00
    9.991704e-01
    9.928058e-01
    9.920340e-01
    9.975588e-01
    9.961766e-01
    9.944903e-01
    9.934704e-01
    1.067166e+00
    1.055891e+00
    1.039494e+00
    1.052049e+00
    1.061577e+00
    1.063837e+00
    1.051326e+00
    1.058145e+00
    1.039210e+00
    1.049778e+00
    1.026203e+00
    1.033155e+00
    1.018399e+00
    1.025147e+00
    1.022242e+00
    1.026485e+00
    1.008422e+00
    1.009584e+00
    1.005778e+00
    1.006981e+00
    1.002560e+00
    1.003461e+00
    1.064715e+00
    1.048553e+00
    1.058185e+00
    1.066737e+00
    1.047583e+00
    1.036403e+00
    1.022138e+00
    1.018597e+00
    1.018044e+00
    1.011169e+00
    1.006242e+00
    1.004031e+00
    1.003233e+00
    1.001817e+00
    1.001368e+00
    1.000151e+00
    9.989436e-01
    9.975907e-01
    9.956626e-01
    9.941311e-01
    9.549425e-01
    9.596302e-01
    1.058362e+00
    1.073500e+00
    9.670184e-01
    9.688803e-01
    9.746543e-01
    9.749685e-01
    9.825405e-01
    9.831850e-01
    9.871094e-01
    9.872008e-01
    9.907125e-01
    9.915020e-01
    1.011267e+00
    1.006375e+00
    1.007390e+00
    1.003848e+00
    1.004057e+00
    1.001892e+00
    1.163926e+00
    1.184058e+00
    1.069750e+00
    1.024960e+00
    9.673845e-01
    9.945678e-01
    9.562526e-01
    9.638006e-01
    9.869771e-01
    9.847889e-01
    9.798129e-01
    9.782155e-01
    1.003653e+00
    1.008525e+00
    9.756222e-01
    9.721053e-01
    1.090264e+00
    1.073412e+00
    9.733600e-01
    9.644077e-01
    9.503058e-01
    9.511690e-01
    1.074880e+00
    1.064463e+00
    1.080906e+00
    1.062297e+00
    9.639946e-01
    9.413556e-01
    1.015689e+00
    1.022529e+00
    1.063409e+00
    1.064503e+00
    1.022069e+00
    1.030427e+00
    1.048846e+00
    1.055847e+00
    1.035669e+00
    1.044917e+00
    1.120896e+00
    1.101887e+00
    9.711969e-01
    9.427707e-01
    1.031439e+00
    1.038236e+00
    1.074501e+00
    1.067393e+00
    1.081028e+00
    1.081524e+00
    9.601448e-01
    9.743084e-01
    1.071291e+00
    1.072321e+00
    1.013445e+00
    1.020650e+00
    1.055729e+00
    1.059224e+00
    1.020038e+00
    1.028923e+00
    1.040980e+00
    1.045151e+00
    9.598199e-01
    9.629323e-01
    9.710632e-01
    9.719288e-01
    9.779457e-01
    9.783618e-01
    9.850551e-01
    9.851261e-01
    9.887630e-01
    9.893383e-01
    1.105761e+00
    1.092491e+00
    9.681201e-01
    9.623837e-01
    9.817587e-01
    9.795904e-01
    9.910058e-01
    9.896508e-01
    1.001279e+00
    9.992348e-01
    9.973842e-01
    9.958595e-01
    9.939523e-01
    9.929231e-01
    1.015595e+00
    1.021839e+00
    1.004947e+00
    1.007978e+00
    1.003880e+00
    1.005648e+00
    1.018512e+00
    1.013867e+00
    1.013991e+00
    1.008192e+00
    1.005138e+00
    1.002702e+00
    1.001688e+00
    1.000371e+00
    9.989782e-01
    9.974529e-01
    9.951980e-01
    9.937873e-01
    9.888364e-01
    9.895829e-01
    9.923609e-01
    9.933496e-01
    1.005238e+00
    1.001792e+00
    1.002775e+00
    1.000640e+00
    1.028084e+00
    1.026352e+00
    1.160466e+00
    1.129481e+00
    1.013271e+00
    1.015796e+00
    1.071398e+00
    1.076851e+00
    1.020066e+00
    1.023843e+00
    1.047875e+00
    1.055782e+00
    1.029550e+00
    1.037548e+00
    1.043653e+00
    1.037061e+00
    1.062906e+00
    1.054533e+00
    1.025041e+00
    1.013934e+00
    1.082438e+00
    1.074649e+00
    1.017661e+00
    1.008604e+00
    1.159048e+00
    1.160610e+00
    1.101156e+00
    1.052146e+00
    9.428232e-01
    9.924917e-01
    9.994744e-01
    1.002759e+00
    9.929579e-01
    9.908397e-01
    1.012935e+00
    1.019404e+00
    9.856609e-01
    9.827952e-01
    1.003320e+00
    1.006757e+00
    9.754157e-01
    9.692432e-01
    1.132121e+00
    1.112864e+00
    9.743615e-01
    9.678144e-01
    9.791089e-01
    9.752345e-01
    9.833555e-01
    9.813306e-01
    9.882481e-01
    9.870035e-01
    1.004775e+00
    1.010018e+00
    1.011364e+00
    1.015286e+00
    1.090571e+00
    1.091987e+00
    9.870092e-01
    9.875009e-01
    1.000865e+00
    1.004808e+00
    9.844585e-01
    9.821129e-01
    9.826043e-01
    9.779482e-01
    9.824067e-01
    9.742934e-01
    1.024744e+00
    9.862804e-01
    9.069864e-01
    8.688545e-01
    9.903857e-01
    9.911692e-01
    1.101230e+00
    1.094039e+00
    9.810899e-01
    9.618959e-01
    1.001139e+00
    9.993827e-01
    9.927580e-01
    9.911993e-01
    9.969344e-01
    9.954475e-01
    1.000983e+00
    1.003592e+00
    1.093961e+00
    1.078253e+00
    1.003535e+00
    1.001106e+00
    9.989738e-01
    9.972538e-01
    9.945031e-01
    9.929740e-01
    1.078197e+00
    1.080837e+00
    1.048273e+00
    1.056704e+00
    1.026821e+00
    1.036407e+00
    1.000562e+00
    1.001193e+00
    9.888136e-01
    9.862745e-01
    9.880555e-01
    9.843361e-01
    9.928216e-01
    9.849091e-01
    9.844081e-01
    9.838385e-01
    9.837979e-01
    9.837386e-01
    9.868345e-01
    9.858531e-01
    1.003440e+00
    9.987144e-01
    1.122231e+00
    1.143024e+00
    1.149458e+00
    1.174924e+00
    9.661884e-01
    1.036650e+00
    9.966986e-01
    9.948971e-01
    9.995608e-01
    1.002170e+00
    9.933324e-01
    9.745274e-01
    1.117083e+00
    1.111329e+00
    9.937524e-01
    9.924915e-01
    9.992966e-01
    9.995388e-01
    9.930701e-01
    9.932128e-01
    1.008780e+00
    1.017025e+00
    1.003759e+00
    1.010396e+00
    1.087142e+00
    1.093569e+00
    9.733081e-01
    1.008321e+00
    9.801508e-01
    9.724347e-01
    1.002681e+00
    9.992542e-01
    1.060927e+00
    1.065268e+00
    1.039787e+00
    1.049891e+00
    1.023478e+00
    1.036248e+00
    1.011674e+00
    1.021984e+00
    1.007857e+00
    1.014920e+00
    1.084237e+00
    1.084576e+00
    1.031588e+00
    1.019431e+00
    1.010762e+00
    1.005278e+00
    9.991480e-01
    9.969618e-01
    9.926304e-01
    9.889455e-01
    9.656094e-01
    9.902154e-01
    9.938568e-01
    9.895117e-01
    9.943221e-01
    9.883935e-01
    1.000165e+00
    9.906470e-01
    9.855836e-01
    1.001411e+00
    9.955015e-01
    9.924777e-01
    1.002068e+00
    1.008432e+00
    1.005376e+00
    1.013706e+00
    1.062204e+00
    1.069552e+00
    1.037017e+00
    1.045857e+00
    1.017910e+00
    1.028394e+00
    1.099417e+00
    1.103809e+00
    1.024287e+00
    9.986278e-01
    1.012376e+00
    1.021595e+00
    1.000403e+00
    1.005230e+00
    9.958022e-01
    9.988838e-01
    9.976736e-01
    9.834488e-01
    1.058018e+00
    1.008039e+00
    1.143882e+00
    1.131743e+00
    9.956140e-01
    9.986483e-01
    1.004574e+00
    9.988263e-01
    9.958647e-01
    9.940552e-01
    1.005317e+00
    1.013030e+00
    9.990252e-01
    9.965938e-01
    9.751410e-01
    9.886054e-01
    9.797245e-01
    9.877611e-01
    9.844446e-01
    9.894781e-01
    9.883312e-01
    9.763032e-01
    9.908420e-01
    9.905832e-01
    9.859855e-01
    9.896480e-01
    9.961494e-01
    9.950227e-01
    9.958322e-01
    9.971212e-01
    1.145142e+00
    1.112460e+00
    9.947149e-01
    9.907292e-01
    1.001115e+00
    1.008225e+00
    9.960064e-01
    9.880104e-01
    9.979489e-01
    9.894146e-01
    9.943303e-01
    9.885048e-01
    9.942918e-01
    9.897741e-01
    9.949084e-01
    1.000269e+00
    9.952682e-01
    9.921558e-01
    1.027163e+00
    1.003225e+00
    1.009408e+00
    9.942970e-01
    1.049572e+00
    1.038288e+00
    1.026816e+00
    1.012591e+00
    1.008717e+00
    9.981807e-01
    1.003559e+00
    9.946823e-01
    1.081234e+00
    1.072457e+00
    1.028367e+00
    1.019112e+00
    1.143333e+00
    1.133959e+00
    9.996214e-01
    1.021367e+00
    1.029869e+00
    1.048208e+00
    1.018049e+00
    1.004794e+00
    9.947839e-01
    9.948011e-01
    1.029892e+00
    1.037601e+00
    9.963053e-01
    1.005261e+00
    9.947069e-01
    1.001791e+00
    1.012534e+00
    1.000461e+00
    1.000082e+00
    9.946283e-01
    9.942358e-01
    1.000815e+00
    1.052189e+00
    1.068918e+00
    1.013997e+00
    1.005908e+00
    1.138910e+00
    1.111319e+00
    1.104081e+00
    1.097320e+00
    9.857173e-01
    9.871739e-01
    9.861069e-01
    9.868569e-01
    9.875984e-01
    9.888654e-01
    9.911512e-01
    9.923103e-01
    9.956334e-01
    9.966933e-01
    9.974223e-01
    9.995940e-01
    1.000062e+00
    1.000382e+00
    1.000117e+00
    9.995747e-01
    9.995580e-01
    1.000151e+00
    1.001196e+00
    1.003625e+00
    1.003854e+00
    1.005612e+00
    1.003328e+00
    1.002989e+00
    9.979151e-01
    9.926795e-01
    9.849880e-01
    9.731539e-01
    9.633763e-01
    9.479114e-01
    9.334189e-01
    9.179729e-01
    9.260825e-01
    9.289054e-01
    9.339757e-01
    9.501565e-01
    9.623231e-01
    9.712757e-01
    9.808032e-01
    9.862629e-01
    9.923845e-01
    9.986843e-01
    9.999917e-01
    1.001609e+00
    1.001079e+00
    1.001342e+00
    1.001093e+00
    1.000763e+00
    1.001784e+00
    8.960441e-01
    9.092967e-01
    9.204407e-01
    9.340782e-01
    9.391909e-01
    9.655482e-01
    9.863930e-01
    1.005269e+00
    1.018260e+00
    1.032083e+00
    1.034536e+00
    1.045622e+00
    1.048524e+00
    1.057856e+00
    1.065245e+00
    1.074825e+00
    1.077429e+00
    1.069213e+00
    1.069604e+00
    1.062910e+00
    1.063509e+00
    1.068394e+00
    1.084027e+00
    1.111193e+00
    1.138777e+00
    1.164683e+00
    1.203580e+00
    1.202119e+00
    1.240060e+00
    1.392319e+00
    1.586579e+00
    2.593460e+00
    1.594431e+00
    2.709936e-01
    2.783489e-01
    4.183709e-01
    7.342904e-01
    7.541222e-01
    8.020543e-01
    8.561345e-01
    8.798094e-01
    9.004821e-01
    9.087260e-01
    9.049714e-01
    9.409809e-01
    9.425147e-01
    9.569922e-01
    9.649471e-01
    9.753156e-01
    9.817947e-01
    9.888990e-01
    9.942509e-01
    9.967970e-01
    9.999237e-01
    1.000050e+00
    1.000785e+00
    9.999554e-01
    1.000317e+00
    1.000725e+00
    9.493079e-01
    9.460666e-01
    9.594702e-01
    9.708445e-01
    9.774849e-01
    9.847797e-01
    9.902422e-01
    9.947761e-01
    9.964138e-01
    9.981947e-01
    9.990594e-01
    9.988623e-01
    9.993868e-01
    9.999624e-01
    9.544334e-01
    9.581715e-01
    9.662466e-01
    9.731866e-01
    9.812347e-01
    9.869189e-01
    9.911072e-01
    9.946940e-01
    9.960807e-01
    9.978151e-01
    9.982916e-01
    9.983679e-01
    9.995393e-01
    9.622001e-01
    9.622830e-01
    9.704091e-01
    9.781724e-01
    9.841794e-01
    9.878780e-01
    9.914085e-01
    9.944898e-01
    9.955812e-01
    9.973062e-01
    9.974576e-01
    9.978438e-01
    9.675941e-01
    9.702253e-01
    9.760426e-01
    9.818349e-01
    9.854103e-01
    9.890948e-01
    9.925072e-01
    9.942748e-01
    9.947643e-01
    9.963645e-01
    9.967191e-01
    9.724171e-01
    9.739050e-01
    9.802954e-01
    9.834917e-01
    9.879692e-01
    9.899026e-01
    9.925981e-01
    9.941844e-01
    9.944601e-01
    9.956098e-01
    9.771585e-01
    9.753226e-01
    9.817564e-01
    9.864635e-01
    9.885676e-01
    9.910013e-01
    9.925923e-01
    9.930785e-01
    9.933392e-01
    9.796638e-01
    9.817750e-01
    9.850341e-01
    9.874400e-01
    9.901022e-01
    9.909980e-01
    9.922150e-01
    9.917393e-01
    9.839678e-01
    9.831461e-01
    9.865736e-01
    9.894583e-01
    9.903615e-01
    9.902604e-01
    9.906993e-01
    9.855300e-01
    9.868532e-01
    9.886218e-01
    9.887686e-01
    9.895558e-01
    9.893027e-01
    9.874846e-01
    9.876081e-01
    9.884490e-01
    9.892126e-01
    9.879989e-01
    9.874821e-01
    9.877865e-01
    9.862039e-01
    9.880607e-01
    9.999639e-01
    1.001030e+00
    1.001664e+00
    1.004880e+00
    1.007693e+00
    1.006671e+00
    1.006601e+00
    1.003442e+00
    9.997427e-01
    9.906446e-01
    9.837021e-01
    9.710410e-01
    9.575970e-01
    9.475496e-01
    9.296568e-01
    1.002885e+00
    1.004890e+00
    1.008365e+00
    1.009056e+00
    1.010187e+00
    1.009208e+00
    1.005164e+00
    9.990110e-01
    9.887197e-01
    9.789574e-01
    9.726090e-01
    9.539736e-01
    9.449865e-01
    1.007528e+00
    1.007067e+00
    1.011011e+00
    1.013221e+00
    1.012722e+00
    1.011517e+00
    1.005878e+00
    1.000334e+00
    9.909913e-01
    9.814306e-01
    9.734094e-01
    9.552306e-01
    1.010546e+00
    1.013625e+00
    1.015688e+00
    1.017480e+00
    1.013958e+00
    1.012902e+00
    1.011231e+00
    1.005887e+00
    9.988859e-01
    9.918655e-01
    9.643881e-01
    1.014801e+00
    1.016323e+00
    1.020919e+00
    1.019529e+00
    1.020528e+00
    1.016646e+00
    1.015956e+00
    1.005423e+00
    1.003079e+00
    9.824655e-01
    1.021745e+00
    1.017949e+00
    1.023230e+00
    1.024508e+00
    1.024569e+00
    1.024988e+00
    1.015494e+00
    1.014040e+00
    9.955754e-01
    1.025641e+00
    1.030422e+00
    1.030166e+00
    1.026527e+00
    1.028917e+00
    1.024575e+00
    1.022865e+00
    1.012771e+00
    1.035737e+00
    1.030661e+00
    1.034233e+00
    1.034695e+00
    1.034675e+00
    1.029529e+00
    1.022086e+00
    1.040728e+00
    1.039118e+00
    1.040557e+00
    1.038985e+00
    1.039556e+00
    1.036571e+00
    1.044148e+00
    1.044939e+00
    1.047521e+00
    1.041837e+00
    1.037025e+00
    1.057924e+00
    1.047213e+00
    1.050592e+00
    1.045637e+00
    1.061518e+00
    1.057473e+00
    1.051627e+00
    1.062145e+00
    1.068527e+00
    1.068260e+00
    1.063432e+00
    1.063028e+00
    1.071468e+00
    1.091501e+00
    1.106073e+00
    1.103956e+00
    1.112634e+00
    1.090957e+00
    1.159339e+00
    1.066783e+00
    1.064548e+00
    1.058698e+00
    1.062321e+00
    1.067781e+00
    1.074487e+00
    1.086294e+00
    1.077759e+00
    1.075129e+00
    1.071937e+00
    1.060772e+00
    1.062472e+00
    1.053265e+00
    1.051686e+00
    1.060471e+00
    1.064557e+00
    1.053451e+00
    1.050959e+00
    1.048999e+00
    1.062400e+00
    1.047334e+00
    1.041177e+00
    1.041840e+00
    1.043352e+00
    1.048282e+00
    1.033263e+00
    1.038242e+00
    1.038227e+00
    1.027634e+00
    1.026465e+00
    1.036089e+00
    1.035410e+00
    1.025696e+00
    1.029765e+00
    1.037666e+00
    1.009885e+00
    1.020035e+00
    1.019783e+00
    1.027406e+00
    1.027785e+00
    1.004697e+00
    1.003066e+00
    1.012519e+00
    1.021904e+00
    1.022450e+00
    1.001918e+00
    9.717314e-01
    1.002029e+00
    1.010187e+00
    9.834203e-01
    9.870753e-01
    9.961700e-01
    9.625120e-01
    8.907530e-01
    8.632796e-01
    9.226505e-01
    8.958894e-01
    1.911508e-01
    1.225370e+00
    1.122482e+00
    1.160380e+00
    1.114397e+00
    1.091304e+00
    1.072366e+00
    1.060813e+00
    1.049509e+00
    1.048470e+00
    1.050960e+00
    1.053919e+00
    1.056231e+00
    1.051016e+00
    1.281105e+00
    1.268137e+00
    1.401072e+00
    1.337136e+00
    1.572449e+00
    1.896635e+00
    1.763056e+00
    1.199591e+00
    1.195728e+00
    1.263111e+00
    1.270728e+00
    1.197751e+00
    1.238529e+00
    1.192987e+00
    1.221460e+00
    1.195639e+00
    1.202797e+00
    1.132083e+00
    1.131068e+00
    1.133569e+00
    1.119292e+00
    1.115971e+00
    1.218459e+00
    1.157157e+00
    1.158186e+00
    1.121249e+00
    1.088193e+00
    1.062245e+00
    1.055204e+00
    1.036389e+00
    1.020819e+00
    1.014715e+00
    1.030509e+00
    1.037113e+00
    1.052477e+00
    1.069305e+00
    1.096829e+00
    1.135547e+00
    1.226231e+00
    1.248575e+00
    1.383755e+00
    1.281517e+00
    4.910178e-01
    7.002748e-01
    6.936151e-01
    7.515965e-01
    8.054762e-01
    8.258241e-01
    8.668023e-01
    9.124520e-01
    9.167380e-01
    9.233886e-01
    9.522475e-01
    9.841977e-01
    1.007451e+00
    1.028205e+00
    1.037234e+00
    1.043732e+00
    1.050217e+00
    1.045837e+00
    1.054106e+00
    1.054098e+00
    1.038862e+00
    1.019844e+00
    9.949397e-01
    9.573527e-01
    9.182644e-01
    9.663830e-01
    9.389220e-01
    7.646557e-01
    1.008245e+00
    9.556725e-01
    1.054393e+00
    1.098955e+00
    1.099070e+00
    1.065155e+00
    1.076131e+00
    1.006626e+00
    9.697999e-01
    9.199153e-01
    9.083273e-01
    8.965952e-01
    9.102888e-01
    9.651053e-01
    9.911535e-01
    9.637067e-01
    9.895738e-01
    1.008213e+00
    9.658638e-01
    1.295246e+00
    1.204589e+00
    1.184937e+00
    1.139672e+00
    1.120300e+00
    1.166655e+00
    1.099848e+00
    1.083923e+00
    1.058520e+00
    1.047315e+00
    1.037973e+00
    2.472580e-01
    7.596831e-01
    1.127868e+00
    1.136400e+00
    1.115564e+00
    1.115663e+00
    1.103707e+00
    1.128109e+00
    1.084384e+00
    1.066308e+00
    1.058418e+00
    1.049948e+00
    7.023614e-01
    3.592146e-01
    8.660479e-01
    9.732055e-01
    9.306620e-01
    1.145751e+00
    1.112105e+00
    1.085444e+00
    1.069489e+00
    1.060433e+00
    1.057127e+00
    1.059420e+00
    1.067510e+00
    1.061696e+00
    1.063144e+00
    1.062867e+00
    1.068518e+00
    1.083481e+00
    1.097040e+00
    1.105239e+00
    1.089612e+00
    1.072924e+00
    1.059845e+00
    1.053917e+00
    5.811389e-01
    8.228366e-01
    9.794541e-01
    9.199685e-01
    1.067103e+00
    1.018483e+00
    1.048173e+00
    1.068368e+00
    1.090706e+00
    1.111079e+00
    1.081659e+00
    1.070072e+00
    1.059305e+00
    1.058433e+00
    1.075242e+00
    1.069864e+00
    1.068524e+00
    1.064083e+00
    1.062091e+00
    7.739607e-01
    8.632556e-01
    9.999704e-01
    1.024523e+00
    1.049113e+00
    1.048218e+00
    1.076805e+00
    1.081751e+00
    1.080262e+00
    1.062537e+00
    1.064287e+00
    1.064131e+00
    1.062202e+00
    7.671381e-01
    1.005369e+00
    1.064588e+00
    1.058535e+00
    1.059385e+00
    1.060423e+00
    1.064385e+00
    8.684511e-01
    9.879451e-01
    9.904187e-01
    1.008763e+00
    1.015553e+00
    1.028263e+00
    1.036536e+00
    1.039564e+00
    1.050022e+00
    1.054396e+00
    9.354869e-01
    9.522260e-01
    9.834604e-01
    1.002784e+00
    1.018136e+00
    1.033774e+00
    1.041736e+00
    1.041517e+00
    9.399173e-01
    9.350082e-01
    9.474530e-01
    9.580566e-01
    9.743485e-01
    9.925335e-01
    1.000885e+00
    1.016343e+00
    1.019260e+00
    1.027690e+00
    1.036295e+00
    1.043125e+00
    1.049981e+00
    9.562044e-01
    9.492998e-01
    9.644696e-01
    9.718265e-01
    9.894201e-01
    1.000752e+00
    1.011243e+00
    1.018899e+00
    1.026687e+00
    1.030549e+00
    1.036202e+00
    1.040768e+00
    9.501440e-01
    9.696119e-01
    9.661803e-01
    9.735439e-01
    9.840146e-01
    9.964144e-01
    1.004125e+00
    1.012794e+00
    1.019287e+00
    1.025748e+00
    1.029428e+00
    1.035684e+00
    9.586788e-01
    9.648926e-01
    9.766672e-01
    9.767215e-01
    9.809879e-01
    9.900571e-01
    1.000616e+00
    1.008798e+00
    1.014034e+00
    1.021371e+00
    1.028169e+00
    1.032945e+00
    9.615201e-01
    9.660446e-01
    9.714371e-01
    9.849926e-01
    9.856898e-01
    9.933261e-01
    1.000479e+00
    1.008591e+00
    1.012650e+00
    1.016190e+00
    1.020593e+00
    1.024556e+00
    9.681640e-01
    9.727497e-01
    9.767745e-01
    9.818411e-01
    9.921514e-01
    9.897541e-01
    9.994978e-01
    1.005109e+00
    1.009959e+00
    1.015288e+00
    1.019746e+00
    1.023047e+00
    9.708278e-01
    9.737554e-01
    9.772181e-01
    9.819352e-01
    9.863290e-01
    9.994557e-01
    1.000199e+00
    1.003365e+00
    1.006871e+00
    1.010576e+00
    1.013643e+00
    1.015809e+00
    9.766460e-01
    9.784432e-01
    9.813550e-01
    9.846715e-01
    9.885590e-01
    9.928028e-01
    1.001121e+00
    1.000512e+00
    1.004259e+00
    1.007085e+00
    1.009571e+00
    1.010950e+00
    9.811332e-01
    9.832213e-01
    9.854733e-01
    9.877607e-01
    9.907402e-01
    9.942797e-01
    9.985058e-01
    1.003091e+00
    1.001263e+00
    1.006885e+00
    1.009063e+00
    1.009728e+00
    9.823847e-01
    9.836780e-01
    9.855449e-01
    9.879281e-01
    9.909173e-01
    9.938850e-01
    9.966660e-01
    9.993790e-01
    1.003235e+00
    1.003471e+00
    1.004887e+00
    1.005720e+00
    9.854059e-01
    9.872383e-01
    9.885592e-01
    9.898539e-01
    9.915262e-01
    9.943328e-01
    9.961804e-01
    9.991419e-01
    1.001163e+00
    1.003128e+00
    1.001803e+00
    1.004753e+00
    9.860967e-01
    9.870368e-01
    9.884155e-01
    9.896211e-01
    9.920081e-01
    9.941878e-01
    9.956795e-01
    9.971608e-01
    9.998646e-01
    1.000507e+00
    9.872273e-01
    9.884014e-01
    9.890141e-01
    9.903066e-01
    9.919062e-01
    9.938242e-01
    9.951659e-01
    9.965181e-01
    9.988818e-01
    9.999296e-01
    1.000962e+00
    1.010457e+00
    1.012315e+00
    1.029247e+00
    1.040414e+00
    1.038028e+00
    1.055127e+00
    1.088241e+00
    1.169656e+00
    8.624747e-01
    3.685462e-01
    3.362326e-01
    3.177551e-01
    2.772517e-01
    2.687479e-01
    2.572700e-01
    2.503566e-01
    2.479028e-01
    2.616102e-01
    2.705420e-01
    3.345618e-01
    3.605266e-01
    4.150003e-01
    4.488854e-01
    8.197402e-01
    9.869268e-01
    9.866819e-01
    9.832424e-01
    9.742664e-01
    9.635137e-01
    9.432899e-01
    9.197278e-01
    8.822017e-01
    8.126475e-01
    6.710224e-01
    4.310565e-01
    3.886327e-01
    1.000166e+00
    9.987429e-01
    9.938576e-01
    9.912043e-01
    9.879261e-01
    9.683108e-01
    1.014176e+00
    1.052619e+00
    1.076004e+00
    1.071662e+00
    1.051367e+00
    1.031114e+00
    1.017456e+00
    1.007242e+00
    9.999008e-01
    1.010949e+00
    1.037854e+00
    1.094878e+00
    1.187860e+00
    1.206934e+00
    1.292612e+00
    1.310706e+00
    1.417916e+00
    1.378617e+00
    1.413380e+00
    1.466350e+00
    1.551925e+00
    1.613468e+00
    1.683880e+00
    1.768685e+00
    1.870910e+00
    1.999442e+00
    2.130218e+00
    2.322421e+00
    2.806015e+00
    3.110201e+00
    1.076345e+00
    8.946858e-01
    8.050191e-01
    1.006413e+00
    8.030856e-01
    8.822063e-01
    7.045487e-01
    8.072273e-01
    4.443502e-01
    5.083576e-01
    3.437053e-01
    3.913468e-01
    1.042427e-01
    2.171392e-01
    3.166559e-01
    3.589001e-01
    6.730965e-01
    7.433496e-01
    8.921045e-01
    1.169556e+00
    1.190831e+00
    1.334490e+00
    1.473863e+00
    1.807512e+00
    2.543651e+00
    2.100649e+00
    2.024637e+00
    2.149577e+00
    2.497755e+00
    2.364569e+00
    2.607564e+00
    2.807473e+00
    2.629979e+00
    2.669956e+00
    1.229551e+00
    1.234401e+00
    2.603611e-01
    2.467219e-01
    6.546838e-01
    7.316503e-01
    3.864239e-01
    3.470055e-01
    3.036808e-01
    3.319403e-01
    2.952882e-01
    2.938735e-01
    2.700398e-01
    2.615324e-01
    2.804202e-01
    2.531600e-01
    2.983345e-01
    3.629600e-01
    4.936425e-01
    3.861081e-01
    5.451142e-01
    4.777927e-01
    1.341779e+00
    1.458496e+00
    1.360645e+00
    1.376849e+00
    1.654079e+00
    1.508058e+00
    1.239467e+00
    1.271110e+00
    1.285928e+00
    1.287211e+00
    1.296847e+00
    1.358497e+00
    1.325645e+00
    1.439480e+00
    1.494974e+00
    1.512250e+00
    1.514421e+00
    1.727413e+00
    1.560418e+00
    1.820606e+00
    1.640896e+00
    1.924977e+00
    1.719933e+00
    2.039917e+00
    2.004371e+00
    2.231303e+00
    2.051593e+00
    2.445369e+00
    2.732334e+00
    3.066056e+00
    2.897294e+00
    3.071847e-01
    3.023052e-01
    2.843699e-01
    2.584735e-01
    2.495435e-01
    2.477311e-01
    2.614705e-01
    2.917395e-01
    3.017791e-01
    3.152567e-01
    3.968847e-01
    6.087732e-01
    5.195960e-01
    5.959336e-01
    1.656785e+00
    1.874527e+00
    5.125387e-01
    7.199253e-01
    1.936620e+00
    1.965837e+00
    6.180581e-01
    1.400103e-01
    2.716115e+00
    2.383018e+00
    1.546467e-01
    2.938032e-01
    2.259253e+00
    2.240484e+00
    1.002332e+00
    1.339371e+00
    2.902008e+00
    3.007617e+00
    9.469008e-01
    5.389786e-01
    2.376439e+00
    2.463922e+00
    8.417699e-01
    8.355149e-01
    4.531451e-01
    1.167414e-01
    9.985908e-01
    6.440323e-01
    7.180226e-01
    5.753517e-01
    8.262628e-01
    2.947254e+00
    6.271619e-01
    4.968756e-01
    8.214413e-01
    7.568556e-01
    2.140526e+00
    2.046113e+00
    1.494272e+00
    1.352031e+00
    2.454784e+00
    2.558190e+00
    1.502411e+00
    1.630828e+00
    1.040423e+00
    6.370383e-01
    2.693144e-01
    2.911380e-01
    2.395275e-01
    3.424955e-01
    6.639933e-01
    5.968766e-01
    7.636229e-01
    7.142376e-01
    3.664448e-01
    4.120237e-01
    2.250918e+00
    2.315177e+00
    1.628740e+00
    1.827305e+00
    2.602495e+00
    1.823691e+00
    9.316849e-01
    1.036075e+00
    4.156578e-01
    3.802774e-01
    1.182850e+00
    1.201883e+00
    4.814340e-01
    4.801453e-01
    1.176516e+00
    1.172161e+00
    4.956301e-01
    5.514230e-01
    1.147963e+00
    1.137167e+00
    5.424064e-01
    4.439574e-01
    2.970243e-01
    2.580253e-01
    2.762879e-01
    3.463067e-01
    3.219146e-01
    3.645887e-01
    4.209752e-01
    3.178037e-01
    3.321427e-01
    2.639537e-01
    2.754168e-01
    2.676878e-01
    2.927080e-01
    1.424106e+00
    1.320726e+00
    2.209501e+00
    2.340028e+00
    1.395545e+00
    1.401997e+00
    1.377197e+00
    1.344750e+00
    1.566120e+00
    1.815187e+00
    2.047940e+00
    1.242516e+00
    1.266390e+00
    1.273681e+00
    1.302928e+00
    1.312191e+00
    1.607053e+00
    1.680960e+00
    1.767656e+00
    1.611570e+00
    1.854843e+00
    1.682039e+00
    1.928139e+00
    1.757404e+00
    1.855712e+00
    6.410682e-01
    2.615158e-01
    3.258740e-01
    3.451312e-01
    3.134131e-01
    2.851377e-01
    2.575615e-01
    2.562903e-01
    2.802899e-01
    2.835158e-01
    3.168033e-01
    3.418642e-01
    3.686472e-01
    4.317903e-01
    3.827171e-01
    4.133173e-01
    1.227604e+00
    2.707632e+00
    3.917544e-01
    4.289672e-01
    1.094217e+00
    1.214021e+00
    8.483450e-01
    5.399664e-01
    2.724550e+00
    2.494034e+00
    4.332395e-01
    6.472719e-01
    3.799503e-01
    8.105835e-01
    2.692378e-01
    4.940946e-01
    4.690923e-01
    3.155290e-01
    2.022780e+00
    2.229589e+00
    1.897152e+00
    1.733747e+00
    2.663316e+00
    1.357319e+00
    1.466554e+00
    5.705135e-01
    3.409676e-01
    5.417370e-01
    6.127008e-01
    1.765127e+00
    1.778199e+00
    2.235766e+00
    2.525334e+00
    1.511758e+00
    1.479411e+00
    1.221961e+00
    1.074960e+00
    2.350522e+00
    2.112501e+00
    9.186647e-01
    7.956867e-01
    2.137064e+00
    2.143182e+00
    3.987618e-01
    4.399505e-01
    3.048187e-01
    3.849433e-01
    2.594296e+00
    2.270051e+00
    2.434474e+00
    4.442325e-01
    5.487490e-01
    1.955109e+00
    2.040224e+00
    9.473217e-01
    9.658943e-01
    1.681523e+00
    1.718643e+00
    5.099406e-01
    5.597693e-01
    4.126654e-01
    3.890072e-01
    2.426460e+00
    3.584715e-01
    4.279722e-01
    1.201171e+00
    1.205383e+00
    4.775607e-01
    4.086092e-01
    1.173960e+00
    1.175359e+00
    6.051652e-01
    5.778161e-01
    1.110750e+00
    1.124440e+00
    1.249826e+00
    1.256940e+00
    3.792642e-01
    2.765396e-01
    3.282039e-01
    3.470672e-01
    1.623227e+00
    1.716256e+00
    1.579916e+00
    1.808934e+00
    1.630743e+00
    1.966233e+00
    1.712069e+00
    3.012761e-01
    3.316365e-01
    3.042519e-01
    3.148064e-01
    2.195796e+00
    3.935010e-01
    3.596298e-01
    3.274278e-01
    3.153133e-01
    4.068884e-01
    3.332359e-01
    4.067490e-01
    2.761949e-01
    1.278787e+00
    1.261341e+00
    1.310457e+00
    1.357582e+00
    3.150942e-01
    2.945949e-01
    2.690242e-01
    1.345481e+00
    1.328146e+00
    3.044181e-01
    3.515250e-01
    1.373280e+00
    1.340058e+00
    1.324165e+00
    3.082180e-01
    3.039132e-01
    2.567339e+00
    7.478244e-01
    6.007254e-01
    1.277049e+00
    1.346352e+00
    1.049827e+00
    1.157476e+00
    4.989784e-01
    5.359882e-01
    5.175488e-01
    6.769545e-01
    2.476369e+00
    2.325159e+00
    4.057882e-01
    6.244561e-01
    2.423417e+00
    2.038703e+00
    4.764419e-01
    6.538359e-01
    2.362999e+00
    1.837537e+00
    5.012725e-01
    4.964822e-01
    2.298596e+00
    2.058880e+00
    1.948573e+00
    2.223649e+00
    2.038856e+00
    1.971358e+00
    5.951207e-01
    4.527985e-01
    2.114452e+00
    2.183004e+00
    4.529435e-01
    1.955369e+00
    1.888261e+00
    4.541484e-01
    4.555916e-01
    1.841706e+00
    1.886935e+00
    5.328642e-01
    4.270620e-01
    4.958781e-01
    4.156355e-01
    1.734946e+00
    1.712204e+00
    8.090606e-01
    9.645885e-01
    1.048176e+00
    1.036760e+00
    8.544406e-01
    7.076936e-01
    5.407318e-01
    4.323418e-01
    9.075543e-01
    4.708945e-01
    1.629554e+00
    1.661246e+00
    1.391132e+00
    1.518971e+00
    1.487616e+00
    1.585034e+00
    4.672858e-01
    3.640096e-01
    1.240332e+00
    1.227158e+00
    4.684094e-01
    4.346891e-01
    1.217111e+00
    1.206169e+00
    5.605720e-01
    6.126269e-01
    1.126999e+00
    1.146012e+00
    2.325988e+00
    4.335106e-01
    3.441953e-01
    1.416948e+00
    3.420391e-01
    2.982895e-01
    4.023892e-01
    3.731747e-01
    3.533059e-01
    3.230565e-01
    1.565929e+00
    1.658541e+00
    1.507576e+00
    1.742002e+00
    1.586197e+00
    4.786060e-01
    3.429463e-01
    3.083392e-01
    3.424698e-01
    1.854304e+00
    1.771203e+00
    2.013042e+00
    1.292675e+00
    1.265645e+00
    2.216212e+00
    1.986451e+00
    1.975231e+00
    3.330383e-01
    3.405287e-01
    1.313819e+00
    1.370755e+00
    3.690546e-01
    3.985633e-01
    4.549113e-01
    4.448584e-01
    2.993613e-01
    1.310952e+00
    1.282932e+00
    1.367641e+00
    1.326144e+00
    3.953666e-01
    3.714177e-01
    1.261672e+00
    1.153018e+00
    8.774658e-01
    6.142511e-01
    5.928562e-01
    6.987128e-01
    1.398816e+00
    1.372352e+00
    1.690975e+00
    1.805175e+00
    1.616204e+00
    1.640094e+00
    2.286116e+00
    2.220007e+00
    5.108280e-01
    5.519811e-01
    5.724671e-01
    5.004851e-01
    2.014160e+00
    2.047591e+00
    1.816978e+00
    1.762571e+00
    1.920725e+00
    2.170191e+00
    5.285833e-01
    5.036752e-01
    1.772742e+00
    1.707105e+00
    1.060266e+00
    9.432781e-01
    5.436970e-01
    4.834604e-01
    1.822567e+00
    1.879449e+00
    6.194191e-01
    5.109609e-01
    1.155146e+00
    1.036724e+00
    4.249506e-01
    4.296446e-01
    1.948931e+00
    2.105895e+00
    2.164547e+00
    4.583447e-01
    4.652900e-01
    6.170082e-01
    5.425319e-01
    6.731886e-01
    5.818312e-01
    1.428446e+00
    1.498862e+00
    1.573431e+00
    1.578165e+00
    6.556957e-01
    6.551097e-01
    1.126307e+00
    1.227816e+00
    4.468635e-01
    4.047803e-01
    4.604502e-01
    4.435116e-01
    1.281525e+00
    1.236426e+00
    5.351686e-01
    5.369250e-01
    1.184509e+00
    1.216738e+00
    1.454548e+00
    1.452002e+00
    3.423953e-01
    3.859979e-01
    3.411598e-01
    3.722849e-01
    3.666773e-01
    3.834370e-01
    3.357943e-01
    1.514200e+00
    1.603129e+00
    1.681430e+00
    1.622143e+00
    3.849900e-01
    3.435131e-01
    4.283069e-01
    3.553731e-01
    1.750942e+00
    1.871728e+00
    1.614556e+00
    1.662010e+00
    1.770593e+00
    1.688918e+00
    1.388846e+00
    1.398572e+00
    2.139624e+00
    2.148977e+00
    5.445569e-01
    3.765642e-01
    4.160246e-01
    1.294920e+00
    1.351444e+00
    3.742918e-01
    4.482626e-01
    3.539537e-01
    1.261181e+00
    1.277137e+00
    1.352728e+00
    1.313397e+00
    4.225185e-01
    3.973404e-01
    1.311300e+00
    1.129181e+00
    9.899226e-01
    7.745989e-01
    7.259444e-01
    6.339443e-01
    1.331251e+00
    1.381252e+00
    1.670651e+00
    1.729240e+00
    1.672095e+00
    1.832780e+00
    1.216144e+00
    1.305888e+00
    5.281063e-01
    6.486368e-01
    5.230348e-01
    5.730326e-01
    5.799731e-01
    6.757764e-01
    1.718663e+00
    1.901976e+00
    1.760265e+00
    1.967718e+00
    4.396417e-01
    1.691818e+00
    2.009929e+00
    1.609667e+00
    1.622698e+00
    5.865381e-01
    6.275570e-01
    9.191504e-01
    7.989273e-01
    7.307489e-01
    6.630043e-01
    9.790549e-01
    1.132795e+00
    2.105092e+00
    2.063075e+00
    5.181506e-01
    5.324196e-01
    1.805429e+00
    1.775526e+00
    4.431218e-01
    5.222752e-01
    4.691426e-01
    4.674228e-01
    7.307265e-01
    7.769154e-01
    1.794285e+00
    2.004635e+00
    1.114683e+00
    1.227935e+00
    1.538014e+00
    1.566074e+00
    1.464866e+00
    1.504974e+00
    4.783066e-01
    4.392553e-01
    5.050240e-01
    4.396750e-01
    1.236224e+00
    1.225192e+00
    6.275750e-01
    6.339596e-01
    1.440733e+00
    1.468740e+00
    3.951359e-01
    4.216572e-01
    3.321791e-01
    4.216477e-01
    3.626534e-01
    1.442709e+00
    1.421500e+00
    4.233647e-01
    3.731709e-01
    3.813435e-01
    1.487601e+00
    1.544360e+00
    1.535233e+00
    1.708872e+00
    1.562742e+00
    1.788718e+00
    1.636332e+00
    4.075321e-01
    1.890197e+00
    1.883981e+00
    3.866548e-01
    4.249127e-01
    3.863146e-01
    1.375247e+00
    1.372875e+00
    1.335480e+00
    1.335894e+00
    4.116321e-01
    1.301831e+00
    1.297843e+00
    4.029026e-01
    4.246164e-01
    2.003290e+00
    1.718687e+00
    1.056265e+00
    1.178279e+00
    1.093554e+00
    1.076876e+00
    7.896717e-01
    7.184894e-01
    1.598875e+00
    1.699599e+00
    1.293588e+00
    1.419252e+00
    1.446284e+00
    1.426809e+00
    1.745285e+00
    1.792120e+00
    8.396127e-01
    9.575959e-01
    6.700555e-01
    6.201442e-01
    5.502519e-01
    6.069831e-01
    7.021809e-01
    6.703364e-01
    5.252017e-01
    5.970335e-01
    1.151623e+00
    1.667752e+00
    1.842310e+00
    1.580825e+00
    1.882029e+00
    1.607888e+00
    1.576048e+00
    1.294435e+00
    7.670090e-01
    7.241566e-01
    1.688143e+00
    1.924170e+00
    4.814340e-01
    4.814540e-01
    7.887612e-01
    9.093758e-01
    4.595789e-01
    5.054704e-01
    5.490385e-01
    5.009047e-01
    1.958181e+00
    1.859734e+00
    9.677213e-01
    8.558697e-01
    1.546360e+00
    1.557894e+00
    1.486527e+00
    1.506843e+00
    4.791775e-01
    4.535846e-01
    5.457388e-01
    5.119830e-01
    1.270948e+00
    1.248328e+00
    5.700151e-01
    5.969332e-01
    1.223492e+00
    1.224113e+00
    5.620257e-01
    6.931564e-01
    1.490428e+00
    4.530465e-01
    4.254620e-01
    1.448592e+00
    1.416518e+00
    1.492855e+00
    1.505715e+00
    4.693110e-01
    5.179275e-01
    4.053289e-01
    4.614639e-01
    4.074091e-01
    4.780757e-01
    4.113899e-01
    1.562659e+00
    1.498821e+00
    1.647502e+00
    1.748848e+00
    1.862238e+00
    1.603573e+00
    4.219434e-01
    4.616980e-01
    1.406459e+00
    1.401368e+00
    4.517683e-01
    5.523927e-01
    1.367404e+00
    1.358832e+00
    1.351503e+00
    1.325063e+00
    5.020817e-01
    1.665100e+00
    1.644968e+00
    7.200188e-01
    6.540320e-01
    1.198304e+00
    1.227442e+00
    7.211443e-01
    7.112012e-01
    1.059493e+00
    1.014890e+00
    8.460799e-01
    7.805793e-01
    1.639676e+00
    1.699310e+00
    1.600741e+00
    1.547770e+00
    5.605789e-01
    6.615158e-01
    1.317809e+00
    1.458595e+00
    1.304984e+00
    1.351249e+00
    1.712153e+00
    1.789146e+00
    1.254223e+00
    8.975225e-01
    1.069296e+00
    1.446645e+00
    1.387872e+00
    7.864784e-01
    7.649640e-01
    5.260160e-01
    6.067378e-01
    1.612758e+00
    1.824098e+00
    4.917001e-01
    4.705477e-01
    1.665649e+00
    1.825539e+00
    5.555753e-01
    5.034310e-01
    1.749103e+00
    8.392826e-01
    1.009030e+00
    1.555215e+00
    1.544080e+00
    8.258169e-01
    9.498180e-01
    1.504079e+00
    1.507262e+00
    1.069762e+00
    1.024677e+00
    1.277322e+00
    1.286438e+00
    5.977292e-01
    5.194925e-01
    1.262948e+00
    1.249904e+00
    4.802252e-01
    1.158974e+00
    1.200065e+00
    7.690744e-01
    6.179749e-01
    6.992360e-01
    7.557319e-01
    1.360249e+00
    5.204371e-01
    4.849223e-01
    4.714600e-01
    4.566130e-01
    4.495814e-01
    4.816512e-01
    5.884903e-01
    1.583734e+00
    1.518214e+00
    5.650920e-01
    4.514219e-01
    1.687028e+00
    1.538337e+00
    4.408540e-01
    1.414005e+00
    1.386501e+00
    5.171261e-01
    6.302747e-01
    1.329042e+00
    1.322047e+00
    7.251102e-01
    7.207066e-01
    1.154583e+00
    1.234054e+00
    1.161681e+00
    6.119068e-01
    6.673925e-01
    1.639678e+00
    1.628676e+00
    1.280920e+00
    1.603419e+00
    1.648553e+00
    1.584729e+00
    1.508110e+00
    1.000989e+00
    1.092796e+00
    8.892735e-01
    8.270432e-01
    7.883749e-01
    7.883303e-01
    1.291884e+00
    1.333086e+00
    1.609867e+00
    1.363000e+00
    1.471819e+00
    5.571931e-01
    6.201609e-01
    1.343639e+00
    1.389038e+00
    1.724186e+00
    4.936982e-01
    5.522631e-01
    5.079260e-01
    9.469467e-01
    1.038088e+00
    1.555065e+00
    1.525643e+00
    1.467261e+00
    1.415338e+00
    8.839985e-01
    1.034254e+00
    8.518140e-01
    9.140993e-01
    1.512657e+00
    1.497210e+00
    5.796932e-01
    5.550947e-01
    1.266137e+00
    1.318895e+00
    6.820861e-01
    6.685749e-01
    6.616517e-01
    1.245817e+00
    1.228639e+00
    6.426183e-01
    7.243569e-01
    6.669841e-01
    8.651463e-01
    4.961048e-01
    1.211465e+00
    6.592007e-01
    5.846997e-01
    5.530179e-01
    5.122067e-01
    1.419810e+00
    1.524435e+00
    5.440685e-01
    4.781388e-01
    1.624467e+00
    1.533208e+00
    1.655826e+00
    5.936928e-01
    1.328737e+00
    1.156482e+00
    1.291861e+00
    7.330195e-01
    7.887626e-01
    1.599928e+00
    8.601497e-01
    7.952924e-01
    1.571785e+00
    1.532439e+00
    6.880345e-01
    6.713187e-01
    1.308972e+00
    1.324642e+00
    1.562344e+00
    8.556281e-01
    8.486217e-01
    1.390555e+00
    1.475534e+00
    1.545252e+00
    1.501728e+00
    1.333640e+00
    1.379470e+00
    1.541524e+00
    6.061668e-01
    6.103853e-01
    1.112080e+00
    1.090297e+00
    1.375807e+00
    1.422132e+00
    9.781486e-01
    1.054041e+00
    1.511855e+00
    1.492256e+00
    1.408771e+00
    1.433604e+00
    9.265836e-01
    9.153378e-01
    1.056567e+00
    9.785986e-01
    1.465995e+00
    1.558823e+00
    5.102791e-01
    5.228010e-01
    1.123075e+00
    1.142493e+00
    1.263649e+00
    1.249661e+00
    1.298428e+00
    1.359232e+00
    1.391742e+00
    1.451752e+00
    6.509877e-01
    7.235900e-01
    7.369067e-01
    8.159130e-01
    1.183218e+00
    1.196596e+00
    8.414453e-01
    7.842184e-01
    7.923684e-01
    8.402302e-01
    7.387607e-01
    8.212789e-01
    5.665687e-01
    6.469508e-01
    1.326258e+00
    1.368137e+00
    6.233415e-01
    6.846955e-01
    8.515860e-01
    5.888483e-01
    7.212498e-01
    7.088021e-01
    1.460447e+00
    1.480154e+00
    5.639982e-01
    5.697365e-01
    1.227621e+00
    1.160731e+00
    1.489771e+00
    1.552928e+00
    6.589792e-01
    7.790334e-01
    8.523000e-01
    1.334652e+00
    1.367834e+00
    5.851495e-01
    5.343948e-01
    1.479400e+00
    1.466710e+00
    1.429291e+00
    1.411335e+00
    1.503800e+00
    1.445693e+00
    1.179492e+00
    1.113069e+00
    1.517209e+00
    1.460515e+00
    1.447331e+00
    1.211124e+00
    1.164902e+00
    9.928252e-01
    9.268749e-01
    9.967046e-01
    1.067008e+00
    1.331354e+00
    1.398171e+00
    1.425696e+00
    1.443759e+00
    9.256437e-01
    1.061291e+00
    1.437349e+00
    1.562117e+00
    1.539488e+00
    1.471401e+00
    1.302846e+00
    1.289559e+00
    6.929269e-01
    6.366317e-01
    1.302629e+00
    1.370733e+00
    5.525436e-01
    6.652461e-01
    1.293932e+00
    1.289555e+00
    8.040871e-01
    8.367311e-01
    7.687982e-01
    9.547161e-01
    1.257612e+00
    1.284085e+00
    1.312414e+00
    1.298728e+00
    7.341773e-01
    7.929025e-01
    6.649014e-01
    6.567018e-01
    8.345075e-01
    8.546509e-01
    6.242700e-01
    1.567554e+00
    1.550769e+00
    6.245006e-01
    7.737997e-01
    1.353678e+00
    1.391209e+00
    6.153027e-01
    6.238639e-01
    1.482724e+00
    1.501685e+00
    1.174998e+00
    1.268243e+00
    1.425236e+00
    1.330167e+00
    7.650144e-01
    8.023735e-01
    7.038065e-01
    7.239517e-01
    1.450626e+00
    1.475416e+00
    1.484766e+00
    1.456084e+00
    1.478671e+00
    1.510195e+00
    1.361798e+00
    1.402740e+00
    1.184853e+00
    1.179419e+00
    1.366271e+00
    1.444703e+00
    1.475243e+00
    1.393798e+00
    9.969293e-01
    9.242119e-01
    1.122721e+00
    1.126409e+00
    1.397092e+00
    1.464639e+00
    1.368050e+00
    1.405544e+00
    1.427115e+00
    1.446529e+00
    1.492261e+00
    1.531496e+00
    7.323771e-01
    7.629358e-01
    1.431677e+00
    1.468674e+00
    7.384599e-01
    7.839677e-01
    9.983010e-01
    1.059386e+00
    9.071172e-01
    1.055091e+00
    1.278199e+00
    1.329367e+00
    1.337611e+00
    1.282919e+00
    1.309391e+00
    1.268962e+00
    1.217698e+00
    1.208684e+00
    9.900922e-01
    9.233336e-01
    8.845165e-01
    9.130687e-01
    9.018807e-01
    9.661369e-01
    8.051187e-01
    8.858161e-01
    6.532860e-01
    8.008091e-01
    6.587008e-01
    6.962826e-01
    1.362043e+00
    1.424552e+00
    6.659095e-01
    7.521350e-01
    8.316475e-01
    8.345283e-01
    1.383809e+00
    1.411269e+00
    1.279621e+00
    1.218202e+00
    1.453592e+00
    1.499044e+00
    1.438267e+00
    1.346860e+00
    1.260463e+00
    1.227492e+00
    1.362136e+00
    1.432480e+00
    8.445661e-01
    9.112595e-01
    1.430933e+00
    1.419900e+00
    1.319258e+00
    1.353414e+00
    1.182740e+00
    1.170803e+00
    1.387549e+00
    1.449281e+00
    1.483792e+00
    1.429536e+00
    1.410462e+00
    1.415941e+00
    9.651242e-01
    9.881179e-01
    1.106509e+00
    1.127450e+00
    1.364768e+00
    1.401007e+00
    9.855326e-01
    1.041530e+00
    1.468180e+00
    1.453270e+00
    1.308841e+00
    1.334863e+00
    8.511253e-01
    1.012057e+00
    7.408264e-01
    7.872867e-01
    1.277998e+00
    1.306053e+00
    1.260910e+00
    1.247667e+00
    8.363101e-01
    8.759266e-01
    1.006840e+00
    9.775274e-01
    8.986521e-01
    9.356100e-01
    1.033529e+00
    9.301542e-01
    1.447042e+00
    1.403306e+00
    7.315741e-01
    7.256308e-01
    8.457791e-01
    7.026650e-01
    1.320306e+00
    1.233782e+00
    1.472016e+00
    1.309419e+00
    1.426862e+00
    1.367750e+00
    8.821867e-01
    8.812070e-01
    1.296987e+00
    1.264672e+00
    1.337700e+00
    1.302358e+00
    7.464088e-01
    9.539931e-01
    1.427691e+00
    1.378271e+00
    1.461960e+00
    1.416663e+00
    1.454301e+00
    1.397108e+00
    1.036098e+00
    9.664786e-01
    1.396564e+00
    1.433927e+00
    1.147730e+00
    1.224840e+00
    1.408062e+00
    1.422017e+00
    1.465562e+00
    1.459616e+00
    1.233297e+00
    1.235287e+00
    7.965664e-01
    8.172470e-01
    1.159542e+00
    1.116528e+00
    9.729603e-01
    1.005770e+00
    9.075245e-01
    1.089141e+00
    8.176001e-01
    8.856228e-01
    1.405706e+00
    1.371989e+00
    1.336287e+00
    1.327570e+00
    1.367398e+00
    1.418854e+00
    1.282547e+00
    1.259055e+00
    1.037462e+00
    9.269615e-01
    1.113233e+00
    9.769499e-01
    1.196259e+00
    1.218307e+00
    8.943467e-01
    1.020017e+00
    1.356258e+00
    1.306798e+00
    8.217035e-01
    7.587480e-01
    8.623653e-01
    1.081893e+00
    1.340450e+00
    1.450967e+00
    1.276087e+00
    1.239110e+00
    8.708361e-01
    8.708884e-01
    1.402746e+00
    1.403039e+00
    1.371351e+00
    1.389564e+00
    1.447403e+00
    1.414224e+00
    9.337142e-01
    9.344879e-01
    1.441778e+00
    1.442579e+00
    1.411763e+00
    1.425901e+00
    8.851564e-01
    9.627754e-01
    1.270672e+00
    1.280342e+00
    1.007862e+00
    9.707257e-01
    1.081835e+00
    1.271277e+00
    1.384521e+00
    1.418893e+00
    1.344082e+00
    1.376270e+00
    1.404570e+00
    1.431137e+00
    1.303358e+00
    1.316090e+00
    1.049574e+00
    1.058475e+00
    1.048677e+00
    1.081504e+00
    1.286790e+00
    1.237144e+00
    9.355916e-01
    1.000807e+00
    1.000952e+00
    9.929878e-01
    1.039956e+00
    1.079864e+00
    7.954343e-01
    8.627768e-01
    1.329838e+00
    1.325668e+00
    1.419772e+00
    1.368364e+00
    1.339117e+00
    1.369666e+00
    1.119344e+00
    1.129504e+00
    1.430241e+00
    1.368780e+00
    1.140632e+00
    1.191242e+00
    9.129963e-01
    9.931114e-01
    8.310006e-01
    9.132383e-01
    1.206895e+00
    1.316570e+00
    1.069335e+00
    1.051281e+00
    1.328010e+00
    1.423119e+00
    1.368453e+00
    1.388691e+00
    1.417476e+00
    1.433329e+00
    1.341003e+00
    1.351530e+00
    9.261584e-01
    1.067840e+00
    1.380314e+00
    1.394411e+00
    1.176474e+00
    1.244238e+00
    1.080898e+00
    1.116125e+00
    1.090198e+00
    1.120221e+00
    1.290007e+00
    1.304369e+00
    1.253335e+00
    1.244465e+00
    9.587795e-01
    1.065218e+00
    1.037646e+00
    1.029953e+00
    9.456075e-01
    8.765002e-01
    1.320315e+00
    1.259692e+00
    1.155792e+00
    1.095123e+00
    1.430898e+00
    1.392041e+00
    9.130907e-01
    9.239085e-01
    1.295047e+00
    1.331696e+00
    1.354249e+00
    1.384349e+00
    1.395406e+00
    1.385489e+00
    1.148386e+00
    1.199214e+00
    1.410804e+00
    1.370287e+00
    1.016481e+00
    1.037388e+00
    1.409243e+00
    1.389550e+00
    1.336608e+00
    1.262008e+00
    1.040391e+00
    1.110227e+00
    8.706088e-01
    8.910983e-01
    1.148793e+00
    1.173984e+00
    1.353909e+00
    1.352776e+00
    1.230678e+00
    1.230815e+00
    1.376510e+00
    1.390389e+00
    1.267918e+00
    1.276937e+00
    1.066120e+00
    1.104321e+00
    1.141844e+00
    1.107266e+00
    1.103301e+00
    1.096420e+00
    1.155860e+00
    1.169619e+00
    7.973276e-01
    8.721550e-01
    1.375317e+00
    1.353335e+00
    1.336759e+00
    1.368081e+00
    1.290966e+00
    1.280196e+00
    1.383644e+00
    1.382470e+00
    1.015314e+00
    9.982091e-01
    1.364704e+00
    1.339879e+00
    1.130662e+00
    1.150921e+00
    1.369979e+00
    1.400462e+00
    1.284273e+00
    1.322066e+00
    1.343643e+00
    1.379911e+00
    1.238040e+00
    1.185755e+00
    1.178033e+00
    1.213397e+00
    1.317350e+00
    1.262331e+00
    1.214756e+00
    1.174025e+00
    1.197989e+00
    1.233212e+00
    1.178984e+00
    1.168549e+00
    1.314067e+00
    1.319398e+00
    1.191201e+00
    1.120856e+00
    1.022573e+00
    1.041918e+00
    1.364801e+00
    1.328330e+00
    1.354751e+00
    1.315123e+00
    1.281896e+00
    1.262124e+00
    1.344973e+00
    1.363136e+00
    1.250636e+00
    1.311111e+00
    1.389484e+00
    1.380913e+00
    1.148718e+00
    1.203070e+00
    1.209721e+00
    1.235120e+00
    1.217682e+00
    1.265155e+00
    1.089795e+00
    1.223582e+00
    1.201550e+00
    1.158599e+00
    1.254546e+00
    1.225140e+00
    1.323341e+00
    1.312149e+00
    1.112880e+00
    1.150390e+00
    1.294499e+00
    1.236614e+00
    9.805110e-01
    9.958073e-01
    1.194015e+00
    1.160920e+00
    1.302406e+00
    1.226549e+00
    1.349569e+00
    1.349767e+00
    1.302464e+00
    1.336313e+00
    1.253067e+00
    1.256835e+00
    1.347015e+00
    1.330818e+00
    1.281676e+00
    1.298705e+00
    1.255851e+00
    1.193818e+00
    1.368900e+00
    1.374790e+00
    1.141273e+00
    1.174136e+00
    1.041022e+00
    1.091278e+00
    1.095481e+00
    1.144847e+00
    1.182242e+00
    1.223886e+00
    1.135833e+00
    1.155088e+00
    1.294633e+00
    1.270099e+00
    1.040285e+00
    1.017861e+00
    1.336243e+00
    1.273014e+00
    1.362011e+00
    1.299930e+00
    1.374996e+00
    1.314361e+00
    1.305349e+00
    1.246318e+00
    1.326209e+00
    1.338246e+00
    1.253010e+00
    1.262516e+00
    1.167365e+00
    1.296516e+00
    1.185097e+00
    1.207851e+00
    1.063311e+00
    1.056110e+00
    1.341344e+00
    1.327242e+00
    1.285604e+00
    1.245488e+00
    1.227966e+00
    1.242055e+00
    1.134442e+00
    1.168495e+00
    1.113936e+00
    1.150792e+00
    1.287240e+00
    1.329949e+00
    1.286685e+00
    1.235166e+00
    1.390393e+00
    1.381681e+00
    1.310096e+00
    1.232695e+00
    1.310056e+00
    1.259654e+00
    1.315543e+00
    1.263886e+00
    1.249974e+00
    1.233691e+00
    1.275234e+00
    1.275629e+00
    1.104548e+00
    1.142190e+00
    1.184566e+00
    1.220043e+00
    1.232246e+00
    1.271538e+00
    1.314087e+00
    1.282254e+00
    1.311543e+00
    1.335021e+00
    1.258849e+00
    1.297997e+00
    1.233550e+00
    1.222382e+00
    1.290508e+00
    1.225670e+00
    1.252949e+00
    1.225693e+00
    1.202005e+00
    1.217023e+00
    1.079685e+00
    1.098331e+00
    1.131020e+00
    1.135933e+00
    1.248205e+00
    1.210689e+00
    1.190620e+00
    1.171160e+00
    1.283350e+00
    1.233295e+00
    1.135172e+00
    1.204760e+00
    1.235977e+00
    1.264467e+00
    1.216071e+00
    1.191221e+00
    1.198442e+00
    1.208435e+00
    1.101866e+00
    1.129727e+00
    1.169945e+00
    1.157056e+00
    1.243241e+00
    1.255339e+00
    1.204703e+00
    1.215038e+00
    1.187282e+00
    1.199475e+00
    1.102306e+00
    1.118227e+00
    1.177092e+00
    1.188915e+00
    1.124539e+00
    1.154374e+00
    1.221253e+00
    1.181409e+00
    1.185635e+00
    1.198344e+00
    1.103030e+00
    1.128159e+00
    1.153488e+00
    1.186869e+00
    1.081506e+00
    1.081406e+00
    1.171285e+00
    1.184039e+00
    1.101369e+00
    1.065134e+00
    1.065360e+00
    1.041122e+00
    1.112432e+00
    1.107124e+00
    1.156753e+00
    1.171444e+00
    1.157389e+00
    1.166685e+00
    1.125103e+00
    1.105227e+00
    1.186953e+00
    1.178694e+00
    1.140209e+00
    1.149343e+00
    1.091027e+00
    1.099868e+00
    1.146069e+00
    1.141617e+00
    1.130622e+00
    1.137635e+00
    1.214231e+00
    1.176790e+00
    1.138304e+00
    1.157666e+00
    1.170838e+00
    1.165089e+00
    1.131806e+00
    1.154030e+00
    1.124022e+00
    1.145364e+00
    1.117554e+00
    1.123504e+00
    1.142872e+00
    1.154447e+00
    1.147341e+00
    1.127877e+00
    1.102603e+00
    1.104435e+00
    1.199162e+00
    1.209869e+00
    9.106712e-01
    9.637027e-01
    8.121559e-01
    7.355552e-01
    1.169578e+00
    1.126210e+00
    1.084548e+00
    1.091405e+00
    1.133012e+00
    1.132031e+00
    1.148980e+00
    1.124365e+00
    1.174023e+00
    1.151456e+00
    1.201371e+00
    1.168028e+00
    1.050449e+00
    1.078095e+00
    1.156324e+00
    1.146093e+00
    1.087360e+00
    1.123045e+00
    6.894580e-01
    6.554189e-01
    9.822004e-01
    1.000098e+00
    1.109631e+00
    1.077025e+00
    1.164843e+00
    1.143901e+00
    9.869612e-01
    9.887351e-01
    9.907387e-01
    9.926205e-01
    9.997484e-01
    9.999609e-01
    9.961666e-01
    9.970163e-01
    9.997493e-01
    9.997587e-01
    1.002007e+00
    1.002617e+00
    1.066743e+00
    1.055477e+00
    1.078369e+00
    1.068138e+00
    1.069626e+00
    1.059993e+00
    1.030383e+00
    1.026657e+00
    9.857535e-01
    9.997064e-01
    1.050885e+00
    1.046690e+00
    1.027881e+00
    1.026679e+00
    1.019841e+00
    1.018997e+00
    1.007035e+00
    1.005179e+00
    9.227209e-01
    9.103280e-01
    7.412329e-01
    7.280678e-01
    8.928408e-01
    8.625931e-01
    9.592742e-01
    9.629370e-01
    9.866785e-01
    9.886749e-01
    9.834477e-01
    9.812460e-01
    9.768606e-01
    9.778476e-01
    9.482675e-01
    9.511489e-01
    1.036869e+00
    1.041676e+00
    1.018076e+00
    1.022454e+00
    1.101608e+00
    1.120083e+00
    9.932396e-01
    9.871206e-01
    1.067605e+00
    1.100588e+00
    1.170011e+00
    1.157810e+00
    1.065044e+00
    1.063587e+00
    9.228349e-01
    8.765215e-01
    1.103395e+00
    1.115049e+00
    1.024197e+00
    1.014952e+00
    9.516889e-01
    9.489585e-01
    8.138611e-01
    8.612036e-01
    1.029858e+00
    1.050756e+00
    1.102705e+00
    1.105623e+00
    1.111720e+00
    1.117542e+00
    1.106194e+00
    1.127986e+00
    1.184758e+00
    1.161774e+00
    1.126696e+00
    1.124599e+00
    1.139109e+00
    1.125058e+00
    1.064877e+00
    1.076455e+00
    1.096893e+00
    1.106716e+00
    9.907011e-01
    9.906364e-01
    9.878528e-01
    9.879537e-01
    1.062966e+00
    1.067265e+00
    1.002526e+00
    1.003556e+00
    1.009440e+00
    1.010139e+00
    1.013678e+00
    1.011801e+00
    1.021263e+00
    1.023042e+00
    1.034770e+00
    1.035242e+00
    1.045947e+00
    1.038207e+00
    1.052472e+00
    1.053584e+00
    1.076336e+00
    1.066784e+00
    1.041025e+00
    1.045452e+00
    9.970865e-01
    1.022281e+00
    1.061946e+00
    1.064766e+00
    1.000432e+00
    1.000172e+00
    8.334157e-01
    8.397937e-01
    9.358980e-01
    9.420699e-01
    9.508190e-01
    9.538600e-01
    9.708425e-01
    9.694273e-01
    9.778112e-01
    9.792905e-01
    9.848341e-01
    9.853454e-01
    9.886636e-01
    9.885206e-01
    9.856142e-01
    9.867228e-01
    9.661252e-01
    9.666119e-01
    9.273884e-01
    9.169317e-01
    8.747834e-01
    8.861190e-01
    1.041252e+00
    1.029114e+00
    9.962224e-01
    9.971174e-01
    9.892400e-01
    9.897053e-01
    1.000073e+00
    1.000275e+00
    9.996529e-01
    1.000340e+00
    9.946886e-01
    1.009240e+00
    1.025596e+00
    1.039168e+00
    1.052557e+00
    1.072532e+00
    9.918188e-01
    9.927054e-01
    7.807483e-01
    7.883046e-01
    1.055192e+00
    1.055363e+00
    9.868096e-01
    9.964100e-01
    1.002402e+00
    1.000961e+00
    9.330959e-01
    9.198212e-01
    1.056641e+00
    1.050258e+00
    8.951912e-01
    8.737651e-01
    1.015230e+00
    1.024635e+00
    1.064899e+00
    1.062010e+00
    1.063880e+00
    1.062538e+00
    1.039975e+00
    1.040794e+00
    9.438003e-01
    9.566755e-01
    9.573904e-01
    9.660619e-01
    1.025648e+00
    1.024625e+00
    1.014269e+00
    1.017106e+00
    9.733323e-01
    9.793743e-01
    9.810162e-01
    9.845186e-01
    9.866376e-01
    9.891295e-01
    1.042425e+00
    1.038697e+00
    1.004680e+00
    1.006675e+00
    9.881366e-01
    9.890387e-01
    9.934337e-01
    9.923931e-01
    9.976877e-01
    9.975204e-01
    1.055088e+00
    1.051907e+00
    1.028080e+00
    1.031917e+00
    1.102654e+00
    1.079675e+00
    1.062607e+00
    1.059748e+00
    1.084022e+00
    1.079912e+00
    1.106723e+00
    1.115949e+00
    1.087411e+00
    1.104878e+00
    1.067505e+00
    1.078048e+00
    8.137074e-01
    8.712679e-01
    1.117263e+00
    1.116313e+00
    1.103275e+00
    1.116812e+00
    1.014985e+00
    1.021313e+00
    1.060377e+00
    1.061088e+00
    9.402645e-01
    8.946671e-01
    1.079381e+00
    1.102527e+00
    1.104530e+00
    1.099112e+00
    9.306729e-01
    9.913075e-01
    9.895170e-01
    9.911217e-01
    9.869763e-01
    9.898530e-01
    9.966661e-01
    9.976911e-01
    1.050104e+00
    1.056150e+00
    1.003133e+00
    1.002761e+00
    1.052850e+00
    1.056901e+00
    1.062901e+00
    1.066562e+00
    1.008084e+00
    1.007663e+00
    1.018462e+00
    1.019897e+00
    1.027542e+00
    1.029224e+00
    1.042735e+00
    1.047924e+00
    1.058951e+00
    1.058574e+00
    1.035939e+00
    1.020154e+00
    1.043578e+00
    1.049739e+00
    1.048032e+00
    1.052103e+00
    1.039273e+00
    1.034371e+00
    1.013197e+00
    1.012212e+00
    1.001035e+00
    1.000787e+00
    1.037047e+00
    1.039858e+00
    9.237244e-01
    9.102861e-01
    9.573616e-01
    9.524487e-01
    9.677343e-01
    9.643671e-01
    9.800754e-01
    9.783728e-01
    9.851230e-01
    9.838638e-01
    9.867396e-01
    9.874346e-01
    9.350997e-01
    9.259025e-01
    9.482250e-01
    9.384347e-01
    9.716235e-01
    9.746557e-01
    9.871001e-01
    9.882333e-01
    9.917914e-01
    9.927527e-01
    9.185778e-01
    9.477124e-01
    9.991025e-01
    9.992309e-01
    9.976718e-01
    9.980108e-01
    9.944340e-01
    9.953204e-01
    9.932091e-01
    9.944175e-01
    9.894176e-01
    9.907386e-01
    1.045460e+00
    1.045307e+00
    1.027220e+00
    1.020853e+00
    1.029269e+00
    1.030117e+00
    8.311640e-01
    8.919763e-01
    1.059698e+00
    1.060407e+00
    1.062606e+00
    1.066048e+00
    9.633622e-01
    9.561052e-01
    1.035771e+00
    1.034876e+00
    9.604028e-01
    9.708921e-01
    1.020351e+00
    1.020462e+00
    1.012520e+00
    1.013810e+00
    9.745632e-01
    9.817593e-01
    9.814994e-01
    9.860508e-01
    1.048775e+00
    1.054507e+00
    1.004071e+00
    1.005461e+00
    9.939160e-01
    1.029789e+00
    1.094890e+00
    1.104697e+00
    9.660803e-01
    9.832553e-01
    9.578379e-01
    9.491094e-01
    1.082989e+00
    1.093420e+00
    1.028661e+00
    1.065687e+00
    1.076122e+00
    1.078170e+00
    1.099683e+00
    1.104471e+00
    1.090305e+00
    1.100435e+00
    1.069221e+00
    1.058088e+00
    1.028481e+00
    1.029992e+00
    9.488816e-01
    9.645708e-01
    1.038923e+00
    1.041656e+00
    1.071431e+00
    1.064746e+00
    1.062129e+00
    1.063358e+00
    9.054610e-01
    9.438689e-01
    1.106508e+00
    1.097623e+00
    8.644054e-01
    9.155861e-01
    1.053991e+00
    1.055120e+00
    9.361202e-01
    9.097657e-01
    1.071022e+00
    1.080222e+00
    1.047549e+00
    1.039093e+00
    1.082594e+00
    1.069060e+00
    1.060621e+00
    1.057290e+00
    9.388627e-01
    9.567410e-01
    9.634111e-01
    9.576951e-01
    9.712409e-01
    9.678538e-01
    9.819772e-01
    9.800392e-01
    9.860876e-01
    9.852462e-01
    9.538398e-01
    9.363159e-01
    9.701704e-01
    9.774632e-01
    9.859217e-01
    9.890540e-01
    9.973553e-01
    9.988973e-01
    9.881760e-01
    9.906637e-01
    9.891726e-01
    9.912432e-01
    9.933237e-01
    9.946435e-01
    1.053859e+00
    1.050193e+00
    1.006131e+00
    1.007730e+00
    1.014606e+00
    1.017895e+00
    1.023673e+00
    1.027205e+00
    1.038046e+00
    1.042812e+00
    1.066921e+00
    1.060557e+00
    1.048822e+00
    1.035546e+00
    1.049055e+00
    1.060521e+00
    1.057443e+00
    1.061043e+00
    1.029712e+00
    1.029665e+00
    1.009043e+00
    1.009903e+00
    1.002931e+00
    1.004102e+00
    9.999129e-01
    1.000478e+00
    1.049275e+00
    1.065719e+00
    9.948609e-01
    9.962003e-01
    9.981746e-01
    9.989133e-01
    9.910250e-01
    9.930406e-01
    9.556279e-01
    9.701939e-01
    9.673789e-01
    9.761418e-01
    1.016361e+00
    1.015830e+00
    1.010196e+00
    1.009922e+00
    9.777130e-01
    9.844504e-01
    9.833864e-01
    9.876676e-01
    1.003028e+00
    1.003453e+00
    1.085928e+00
    1.091648e+00
    1.033718e+00
    1.033586e+00
    1.059119e+00
    1.058970e+00
    1.055303e+00
    1.057613e+00
    1.051641e+00
    1.079203e+00
    1.066940e+00
    1.079998e+00
    9.403200e-01
    9.328627e-01
    1.004004e+00
    1.014812e+00
    9.808752e-01
    9.724010e-01
    1.009880e+00
    1.012260e+00
    9.784080e-01
    9.663363e-01
    1.095365e+00
    1.089556e+00
    1.017656e+00
    1.020858e+00
    1.030815e+00
    1.035926e+00
    9.614771e-01
    9.440550e-01
    1.042613e+00
    1.045745e+00
    1.070897e+00
    1.065959e+00
    1.089120e+00
    1.092705e+00
    1.021877e+00
    1.024336e+00
    1.075585e+00
    1.064824e+00
    9.652125e-01
    9.527196e-01
    1.063371e+00
    1.065117e+00
    1.074961e+00
    1.061114e+00
    1.024643e+00
    1.024715e+00
    9.765116e-01
    9.717603e-01
    9.844357e-01
    9.818432e-01
    9.890790e-01
    9.866383e-01
    9.727691e-01
    9.686770e-01
    9.736535e-01
    9.811590e-01
    9.981588e-01
    9.995568e-01
    9.870087e-01
    9.901240e-01
    9.889651e-01
    9.910728e-01
    9.933627e-01
    9.950776e-01
    1.003897e+00
    1.005879e+00
    1.002024e+00
    1.001244e+00
    1.011276e+00
    1.014439e+00
    1.007259e+00
    1.006950e+00
    9.952642e-01
    9.968590e-01
    9.993187e-01
    1.000062e+00
    9.911830e-01
    9.932092e-01
    1.007182e+00
    1.005966e+00
    9.812511e-01
    9.878846e-01
    9.856663e-01
    9.897572e-01
    1.001401e+00
    1.000881e+00
    1.077011e+00
    1.082721e+00
    9.929721e-01
    1.013612e+00
    1.061179e+00
    1.064599e+00
    1.049844e+00
    1.055611e+00
    1.053911e+00
    1.048447e+00
    1.019074e+00
    1.021232e+00
    1.018652e+00
    1.021143e+00
    1.073511e+00
    1.089524e+00
    1.097543e+00
    1.095600e+00
    1.075321e+00
    1.090047e+00
    9.770520e-01
    9.502134e-01
    1.097370e+00
    1.104799e+00
    1.063951e+00
    1.066476e+00
    1.001287e+00
    1.003997e+00
    1.007364e+00
    1.010128e+00
    9.774882e-01
    9.688318e-01
    1.037451e+00
    1.053015e+00
    1.059380e+00
    1.053716e+00
    9.851031e-01
    9.780554e-01
    1.007534e+00
    1.008674e+00
    9.847863e-01
    9.776621e-01
    9.876175e-01
    9.847989e-01
    9.898980e-01
    9.875962e-01
    9.780937e-01
    9.855648e-01
    9.986068e-01
    1.000821e+00
    9.934109e-01
    9.953722e-01
    1.012532e+00
    1.017640e+00
    1.004693e+00
    1.003686e+00
    1.003579e+00
    1.003807e+00
    9.953067e-01
    9.976431e-01
    9.886445e-01
    9.932224e-01
    9.649025e-01
    9.549240e-01
    9.852511e-01
    9.918348e-01
    1.064737e+00
    1.064183e+00
    9.334067e-01
    9.458648e-01
    9.754346e-01
    1.002676e+00
    9.855822e-01
    9.847636e-01
    1.001646e+00
    1.004625e+00
    9.811643e-01
    9.899622e-01
    9.696819e-01
    9.718264e-01
    1.068467e+00
    1.073309e+00
    1.093529e+00
    1.084837e+00
    1.001689e+00
    1.037786e+00
    1.031808e+00
    1.022797e+00
    9.953150e-01
    9.898012e-01
    9.891013e-01
    9.806336e-01
    1.004368e+00
    1.011317e+00
    9.893728e-01
    9.844160e-01
    1.075321e+00
    1.085637e+00
    1.025725e+00
    1.051873e+00
    1.057993e+00
    1.064166e+00
    1.012225e+00
    1.015856e+00
    1.091010e+00
    1.093681e+00
    9.988604e-01
    1.000465e+00
    1.001212e+00
    1.006611e+00
    1.001661e+00
    1.001448e+00
    9.919681e-01
    9.956803e-01
    1.015089e+00
    1.020749e+00
    9.961969e-01
    9.982112e-01
    9.913852e-01
    9.881029e-01
    9.800843e-01
    9.736100e-01
    9.661018e-01
    9.805652e-01
    1.027505e+00
    1.034259e+00
    1.072983e+00
    1.065184e+00
    1.013673e+00
    1.006869e+00
    1.047163e+00
    1.062289e+00
    9.956924e-01
    9.976333e-01
    1.078133e+00
    1.070557e+00
    1.062675e+00
    1.066634e+00
    1.004158e+00
    1.008338e+00
    9.963487e-01
    9.990401e-01
    9.957743e-01
    1.002076e+00
    1.008239e+00
    1.012840e+00
    9.952018e-01
    9.880705e-01
    9.151360e-01
    9.286142e-01
    9.964942e-01
    9.944455e-01
    1.072667e+00
    1.089884e+00
    9.959140e-01
    9.918550e-01
    9.953210e-01
    9.929868e-01
    9.777338e-01
    9.882125e-01
    1.044066e+00
    1.054100e+00
    1.072018e+00
    1.070544e+00
    9.962486e-01
    1.002076e+00
    1.024546e+00
    1.030673e+00
    9.799117e-01
    1.003113e+00
    1.070409e+00
    1.075994e+00
    1.039712e+00
    1.045083e+00
    1.062121e+00
    1.064667e+00
    1.065487e+00
    1.067584e+00
    9.893864e-01
    9.958230e-01
    1.055788e+00
    1.053113e+00
    9.690027e-01
    9.967019e-01
    1.077570e+00
    1.081931e+00
    1.014920e+00
    1.036368e+00
    9.964845e-01
    1.019530e+00
    1.042205e+00
    1.052438e+00
    1.063823e+00
    1.071825e+00
    9.960082e-01
    1.003872e+00
    9.991938e-01
    1.015070e+00
    1.020560e+00
    1.023538e+00
    9.815170e-01
    9.959386e-01
    1.032184e+00
    1.045961e+00
    1.060209e+00
    1.052708e+00
    1.047420e+00
    1.049216e+00
    1.081468e+00
    1.077267e+00
    1.031358e+00
    1.046070e+00
    1.042425e+00
    1.052871e+00
    1.034284e+00
    1.027512e+00
    1.047881e+00
    1.055712e+00
    1.085873e+00
    1.087836e+00
    1.039546e+00
    1.043313e+00
    1.045043e+00
    1.050286e+00
    1.022565e+00
    1.025274e+00
    1.078943e+00
    1.089883e+00
    1.014394e+00
    1.021472e+00
    1.081308e+00
    1.079160e+00
    1.084064e+00
    1.076253e+00
    1.034879e+00
    1.030637e+00
    1.035689e+00
    1.038714e+00
    1.031073e+00
    1.032675e+00
    1.007208e+00
    1.015353e+00
    1.068375e+00
    1.073494e+00
    1.036659e+00
    1.038259e+00
    1.071231e+00
    1.069564e+00
    1.003638e+00
    1.008175e+00
    1.079374e+00
    1.074547e+00
    1.040168e+00
    1.044428e+00
    1.024771e+00
    1.027567e+00
    1.027604e+00
    1.027607e+00
    1.016448e+00
    1.024785e+00
    1.075671e+00
    1.067744e+00
    1.020105e+00
    1.019729e+00
    1.012081e+00
    1.008409e+00
    1.079190e+00
    1.077856e+00
    1.086711e+00
    1.086088e+00
    9.998102e-01
    1.007647e+00
    9.949928e-01
    9.945877e-01
    1.008220e+00
    1.010449e+00
    9.927084e-01
    1.002401e+00
    1.005446e+00
    1.008757e+00
    1.016340e+00
    1.014154e+00
    1.017085e+00
    1.022868e+00
    1.000974e+00
    1.011687e+00
    9.978060e-01
    1.007098e+00

