# vtk DataFile Version 4.0
output of FEM program
ASCII

DATASET UNSTRUCTURED_GRID
POINTS 2692 float
2.5 55 0
2.5 57.5 0
0 55 0
0 0 0
5 0 0
5 27.5 0
7.5 30 0
27.5 30 0
30 27.5 0
30 0 0
35 0 0
35 32.5 0
32.5 35 0
30 35 0
7.5 35 0
5 37.5 0
5 55 0
2.5 55.5 0
2.5 56 0
2.5 56.5 0
2.5 57 0
2.01227 57.452 0
1.54329 57.3097 0
1.11107 57.0787 0
0.732233 56.7678 0
0.421326 56.3889 0
0.190301 55.9567 0
0.0480368 55.4877 0
0.5 55 0
1 55 0
1.5 55 0
2 55 0
0 54.5 0
0 54 0
0 53.5 0
0 53 0
0 52.5 0
0 52 0
0 51.5 0
0 51 0
0 50.5 0
0 50 0
0 49.5 0
0 49 0
0 48.5 0
0 48 0
0 47.5 0
0 47 0
0 46.5 0
0 46 0
0 45.5 0
0 45 0
0 44.5 0
0 44 0
0 43.5 0
0 43 0
0 42.5 0
0 42 0
0 41.5 0
0 41 0
0 40.5 0
0 40 0
0 39.5 0
0 39 0
0 38.5 0
0 38 0
0 37.5 0
0 37 0
0 36.5 0
0 36 0
0 35.5 0
0 35 0
0 34.5 0
0 34 0
0 33.5 0
0 33 0
0 32.5 0
0 32 0
0 31.5 0
0 31 0
0 30.5 0
0 30 0
0 29.5 0
0 29 0
0 28.5 0
0 28 0
0 27.5 0
0 27 0
0 26.5 0
0 26 0
0 25.5 0
0 25 0
0 24.5 0
0 24 0
0 23.5 0
0 23 0
0 22.5 0
0 22 0
0 21.5 0
0 21 0
0 20.5 0
0 20 0
0 19.5 0
0 19 0
0 18.5 0
0 18 0
0 17.5 0
0 17 0
0 16.5 0
0 16 0
0 15.5 0
0 15 0
0 14.5 0
0 14 0
0 13.5 0
0 13 0
0 12.5 0
0 12 0
0 11.5 0
0 11 0
0 10.5 0
0 10 0
0 9.5 0
0 9 0
0 8.5 0
0 8 0
0 7.5 0
0 7 0
0 6.5 0
0 6 0
0 5.5 0
0 5 0
0 4.5 0
0 4 0
0 3.5 0
0 3 0
0 2.5 0
0 2 0
0 1.5 0
0 1 0
0 0.5 0
0.5 0 0
1 0 0
1.5 0 0
2 0 0
2.5 0 0
3 0 0
3.5 0 0
4 0 0
4.5 0 0
5 0.5 0
5 1 0
5 1.5 0
5 2 0
5 2.5 0
5 3 0
5 3.5 0
5 4 0
5 4.5 0
5 5 0
5 5.5 0
5 6 0
5 6.5 0
5 7 0
5 7.5 0
5 8 0
5 8.5 0
5 9 0
5 9.5 0
5 10 0
5 10.5 0
5 11 0
5 11.5 0
5 12 0
5 12.5 0
5 13 0
5 13.5 0
5 14 0
5 14.5 0
5 15 0
5 15.5 0
5 16 0
5 16.5 0
5 17 0
5 17.5 0
5 18 0
5 18.5 0
5 19 0
5 19.5 0
5 20 0
5 20.5 0
5 21 0
5 21.5 0
5 22 0
5 22.5 0
5 23 0
5 23.5 0
5 24 0
5 24.5 0
5 25 0
5 25.5 0
5 26 0
5 26.5 0
5 27 0
5.04804 27.9877 0
5.1903 28.4567 0
5.42133 28.8889 0
5.73223 29.2678 0
6.11107 29.5787 0
6.54329 29.8097 0
7.01227 29.952 0
8 30 0
8.5 30 0
9 30 0
9.5 30 0
10 30 0
10.5 30 0
11 30 0
11.5 30 0
12 30 0
12.5 30 0
13 30 0
13.5 30 0
14 30 0
14.5 30 0
15 30 0
15.5 30 0
16 30 0
16.5 30 0
17 30 0
17.5 30 0
18 30 0
18.5 30 0
19 30 0
19.5 30 0
20 30 0
20.5 30 0
21 30 0
21.5 30 0
22 30 0
22.5 30 0
23 30 0
23.5 30 0
24 30 0
24.5 30 0
25 30 0
25.5 30 0
26 30 0
26.5 30 0
27 30 0
27.9877 29.952 0
28.4567 29.8097 0
28.8889 29.5787 0
29.2678 29.2678 0
29.5787 28.8889 0
29.8097 28.4567 0
29.952 27.9877 0
30 27 0
30 26.5 0
30 26 0
30 25.5 0
30 25 0
30 24.5 0
30 24 0
30 23.5 0
30 23 0
30 22.5 0
30 22 0
30 21.5 0
30 21 0
30 20.5 0
30 20 0
30 19.5 0
30 19 0
30 18.5 0
30 18 0
30 17.5 0
30 17 0
30 16.5 0
30 16 0
30 15.5 0
30 15 0
30 14.5 0
30 14 0
30 13.5 0
30 13 0
30 12.5 0
30 12 0
30 11.5 0
30 11 0
30 10.5 0
30 10 0
30 9.5 0
30 9 0
30 8.5 0
30 8 0
30 7.5 0
30 7 0
30 6.5 0
30 6 0
30 5.5 0
30 5 0
30 4.5 0
30 4 0
30 3.5 0
30 3 0
30 2.5 0
30 2 0
30 1.5 0
30 1 0
30 0.5 0
30.5 0 0
31 0 0
31.5 0 0
32 0 0
32.5 0 0
33 0 0
33.5 0 0
34 0 0
34.5 0 0
35 0.5 0
35 1 0
35 1.5 0
35 2 0
35 2.5 0
35 3 0
35 3.5 0
35 4 0
35 4.5 0
35 5 0
35 5.5 0
35 6 0
35 6.5 0
35 7 0
35 7.5 0
35 8 0
35 8.5 0
35 9 0
35 9.5 0
35 10 0
35 10.5 0
35 11 0
35 11.5 0
35 12 0
35 12.5 0
35 13 0
35 13.5 0
35 14 0
35 14.5 0
35 15 0
35 15.5 0
35 16 0
35 16.5 0
35 17 0
35 17.5 0
35 18 0
35 18.5 0
35 19 0
35 19.5 0
35 20 0
35 20.5 0
35 21 0
35 21.5 0
35 22 0
35 22.5 0
35 23 0
35 23.5 0
35 24 0
35 24.5 0
35 25 0
35 25.5 0
35 26 0
35 26.5 0
35 27 0
35 27.5 0
35 28 0
35 28.5 0
35 29 0
35 29.5 0
35 30 0
35 30.5 0
35 31 0
35 31.5 0
35 32 0
34.952 32.9877 0
34.8097 33.4567 0
34.5787 33.8889 0
34.2678 34.2678 0
33.8889 34.5787 0
33.4567 34.8097 0
32.9877 34.952 0
32 35 0
31.5 35 0
31 35 0
30.5 35 0
29.5 35 0
29 35 0
28.5 35 0
28 35 0
27.5 35 0
27 35 0
26.5 35 0
26 35 0
25.5 35 0
25 35 0
24.5 35 0
24 35 0
23.5 35 0
23 35 0
22.5 35 0
22 35 0
21.5 35 0
21 35 0
20.5 35 0
20 35 0
19.5 35 0
19 35 0
18.5 35 0
18 35 0
17.5 35 0
17 35 0
16.5 35 0
16 35 0
15.5 35 0
15 35 0
14.5 35 0
14 35 0
13.5 35 0
13 35 0
12.5 35 0
12 35 0
11.5 35 0
11 35 0
10.5 35 0
10 35 0
9.5 35 0
9 35 0
8.5 35 0
8 35 0
7.01227 35.048 0
6.54329 35.1903 0
6.11107 35.4213 0
5.73223 35.7322 0
5.42133 36.1111 0
5.1903 36.5433 0
5.04804 37.0123 0
5 38 0
5 38.5 0
5 39 0
5 39.5 0
5 40 0
5 40.5 0
5 41 0
5 41.5 0
5 42 0
5 42.5 0
5 43 0
5 43.5 0
5 44 0
5 44.5 0
5 45 0
5 45.5 0
5 46 0
5 46.5 0
5 47 0
5 47.5 0
5 48 0
5 48.5 0
5 49 0
5 49.5 0
5 50 0
5 50.5 0
5 51 0
5 51.5 0
5 52 0
5 52.5 0
5 53 0
5 53.5 0
5 54 0
5 54.5 0
4.5 55 0
4 55 0
3.5 55 0
3 55 0
4.95196 55.4877 0
4.8097 55.9567 0
4.57867 56.3889 0
4.26777 56.7678 0
3.88893 57.0787 0
3.45671 57.3097 0
2.98773 57.452 0
1.13111 56.5809 0
0.644542 56.0651 0
0.681022 55.5775 0
1.94447 56.8156 0
2.03061 56.2088 0
1.26781 55.4837 0
1.45712 56.8359 0
0.807857 56.3698 0
2.05773 55.6646 0
1.10143 56.0489 0
1.5478 56.3935 0
1.68952 55.4038 0
1.61582 55.8672 0
0.95443 54.0492 0
1.97917 54.03 0
3.02896 53.9414 0
4.04004 54.0788 0
0.901748 52.9 0
2.02525 52.8856 0
3.04799 52.8804 0
4.10359 52.9467 0
0.936698 51.9518 0
2.05596 51.9216 0
3.16344 51.8559 0
4.10906 51.9235 0
0.945692 50.864 0
2.01782 50.8503 0
3.17681 50.8771 0
4.13969 50.8128 0
0.94826 49.6311 0
2.02401 49.6253 0
3.02651 49.7934 0
4.11105 49.6852 0
0.959336 48.5419 0
2.05829 48.6202 0
3.2315 48.6362 0
4.13241 48.5534 0
0.963902 47.5091 0
2.17746 47.4773 0
3.1561 47.6465 0
4.12043 47.5536 0
0.919917 46.5009 0
2.04018 46.455 0
3.17804 46.5605 0
4.10672 46.5237 0
0.903493 45.4999 0
2.02474 45.5548 0
3.1713 45.4593 0
4.10537 45.4867 0
0.942729 44.4956 0
2.13706 44.5527 0
3.11857 44.3461 0
4.11542 44.4468 0
0.981854 43.4665 0
2.16588 43.466 0
3.19689 43.3088 0
4.14544 43.4148 0
0.959461 42.4204 0
2.05299 42.3258 0
3.08698 42.3004 0
4.1213 42.3258 0
0.934498 41.2519 0
2.04803 41.255 0
3.03095 41.3005 0
4.04891 41.2296 0
0.96345 40.0822 0
2.06717 40.1709 0
3.19482 40.1088 0
4.10326 40.0747 0
0.983734 39.0383 0
2.15657 39.0322 0
3.17349 39.1536 0
4.1264 39.0719 0
0.960187 38.0171 0
2.04183 38.0297 0
3.14258 38.1288 0
4.11084 38.0453 0
1.03534 36.9317 0
2.13441 36.9878 0
3.12355 37.1383 0
4.02133 37.0063 0
0.917553 35.9574 0
2.02806 35.9321 0
3.09574 35.931 0
4.1036 35.9132 0
0.957554 34.9818 0
2.04324 34.963 0
3.13793 34.8097 0
4.10618 35.0211 0
5.16173 34.9474 0
6.13583 34.8884 0
0.956803 33.9582 0
2.03186 33.894 0
3.1748 33.8926 0
4.18472 33.8691 0
5.16107 33.8307 0
6.15593 33.7729 0
7.15681 34.003 0
8.19638 33.8416 0
9.23603 33.7327 0
10.262 33.7501 0
11.2815 33.7391 0
12.3331 33.8169 0
13.3538 33.8247 0
14.4904 33.8852 0
15.4764 33.8476 0
16.4537 33.8365 0
17.4886 33.7377 0
18.521 33.7403 0
19.5519 33.8317 0
20.5426 33.8506 0
21.5516 33.8587 0
22.5542 33.8913 0
23.6926 33.817 0
24.7315 33.7943 0
25.7528 33.7922 0
26.77 33.8211 0
27.7463 33.7475 0
28.7891 33.7333 0
29.8394 33.8158 0
30.8459 33.8148 0
31.9159 33.8817 0
32.9426 33.9588 0
34.0611 33.8217 0
0.949217 32.8695 0
2.04099 32.8944 0
3.09014 32.8919 0
4.15192 32.778 0
5.15575 32.7557 0
6.12918 32.7316 0
7.16545 32.7451 0
8.24389 32.7904 0
9.23193 32.8098 0
10.2855 32.8565 0
11.2819 32.8889 0
12.3166 32.848 0
13.3492 32.8457 0
14.4126 32.8208 0
15.4573 32.7962 0
16.5375 32.8126 0
17.5175 32.7711 0
18.546 32.7389 0
19.5906 32.7747 0
20.5759 32.7775 0
21.5968 32.7843 0
22.6286 32.802 0
23.6551 32.8022 0
24.708 32.7025 0
25.7601 32.7772 0
26.7637 32.7587 0
27.706 32.8173 0
28.8469 32.8417 0
29.8551 32.8131 0
30.8793 32.7146 0
31.891 32.8235 0
32.8836 32.8501 0
34.0934 32.8768 0
0.946976 31.6354 0
2.03952 31.6165 0
3.07282 31.6212 0
4.02136 31.6396 0
5.23045 31.6601 0
6.12294 31.7072 0
7.18506 31.6671 0
8.13828 31.8342 0
9.28946 31.7633 0
10.31 31.717 0
11.2831 31.7235 0
12.289 31.7343 0
13.3359 31.7196 0
14.3924 31.702 0
15.4382 31.6997 0
16.4642 31.6834 0
17.507 31.5839 0
18.5674 31.7662 0
19.5843 31.6932 0
20.5917 31.6734 0
21.6336 31.6876 0
22.6588 31.7059 0
23.6599 31.713 0
24.701 31.79 0
25.7467 31.7026 0
26.7284 31.688 0
27.8166 31.7643 0
28.904 31.6757 0
29.8412 31.6997 0
30.9297 31.6827 0
31.9697 31.7663 0
32.9463 31.7604 0
34.0667 31.7364 0
0.955037 30.5558 0
2.03208 30.6457 0
3.08575 30.6448 0
4.15444 30.712 0
5.27723 30.5587 0
6.14089 30.5757 0
7.08783 30.7021 0
8.19701 30.5306 0
9.30569 30.5714 0
10.2796 30.5317 0
11.2807 30.536 0
12.2749 30.6622 0
13.406 30.5809 0
14.4449 30.5789 0
15.4496 30.7262 0
16.4409 30.7351 0
17.4921 30.6689 0
18.5463 30.5862 0
19.5591 30.7179 0
20.5677 30.5791 0
21.7241 30.6592 0
22.6957 30.6899 0
23.7068 30.5368 0
24.7293 30.5342 0
25.7452 30.5334 0
26.7807 30.5514 0
27.8474 30.6614 0
28.8428 30.6507 0
29.7867 30.566 0
30.9116 30.6772 0
31.9258 30.7145 0
32.9341 30.6533 0
34.0384 30.5637 0
0.984231 29.5289 0
2.08659 29.6383 0
3.15446 29.6683 0
4.20444 29.6461 0
5.24077 29.5984 0
29.7898 29.6066 0
30.8646 29.7543 0
31.8289 29.6297 0
32.9487 29.502 0
34.0371 29.5049 0
0.957008 28.4964 0
2.04591 28.4069 0
3.12988 28.5018 0
4.10798 28.5791 0
0.926194 27.4974 0
2.07632 27.467 0
3.16579 27.5082 0
4.12984 27.5107 0
0.948412 26.4964 0
2.08053 26.4591 0
3.21908 26.4938 0
4.12164 26.4759 0
0.973586 25.4708 0
2.02563 25.4066 0
3.13883 25.3854 0
4.12112 25.4413 0
0.954468 24.4456 0
2.03669 24.3647 0
3.16899 24.385 0
4.11231 24.4241 0
0.946738 23.3632 0
2.01708 23.3501 0
3.17627 23.3821 0
4.13956 23.3128 0
0.948268 22.1311 0
2.024 22.1255 0
3.0264 22.2939 0
4.11087 22.1851 0
0.959337 21.0419 0
2.05829 21.1202 0
3.23149 21.1362 0
4.1324 21.0534 0
0.963903 20.0091 0
2.17746 19.9773 0
3.1561 20.1465 0
4.12043 20.0536 0
0.919917 19.0009 0
2.04018 18.955 0
3.17804 19.0605 0
4.10667 19.0237 0
0.903493 17.9999 0
2.02473 18.0548 0
3.1713 17.9593 0
4.10544 17.9865 0
0.942729 16.9956 0
2.13706 17.0527 0
3.11857 16.8461 0
4.11549 16.9468 0
0.981856 15.9665 0
2.16588 15.966 0
3.19696 15.8085 0
4.14554 15.9148 0
0.959472 14.9204 0
2.05331 14.8242 0
3.0904 14.7926 0
4.12497 14.8251 0
0.934442 13.7517 0
2.04257 13.748 0
3.05993 13.7176 0
4.07508 13.7432 0
0.96351 12.5821 0
2.05788 12.6725 0
3.15959 12.6477 0
4.10293 12.5926 0
0.983814 11.538 0
2.15606 11.5309 0
3.17075 11.6561 0
4.12606 11.5729 0
0.95997 10.5167 0
2.04023 10.5278 0
3.14478 10.6269 0
4.11692 10.5542 0
1.03432 9.43321 0
2.12908 9.48923 0
3.12222 9.62807 0
4.11189 9.5239 0
0.918792 8.45986 0
2.02257 8.45489 0
3.18273 8.50047 0
4.11563 8.48483 0
0.95992 7.48092 0
2.06585 7.43365 0
3.15023 7.38918 0
4.11995 7.45169 0
0.957645 6.45622 0
2.06638 6.35154 0
3.23039 6.49219 0
4.11452 6.44278 0
0.946695 5.36656 0
2.01122 5.34098 0
3.13835 5.37515 0
4.1358 5.32096 0
0.949142 4.13429 0
2.02067 4.12854 0
3.05908 4.22182 0
4.13024 4.21216 0
0.957944 3.04065 0
2.09937 3.15383 0
3.14848 3.16272 0
4.10517 3.08138 0
0.914371 2.08725 0
2.00428 2.10411 0
3.03744 2.20569 0
4.08499 2.05956 0
0.992023 0.9127 0
1.98753 0.954304 0
3.01528 0.956468 0
4.05303 0.947076 0
30.9185 28.6042 0
31.8816 28.5854 0
32.8588 28.5431 0
34.0415 28.4629 0
30.8997 26.4696 0
31.8333 26.4475 0
32.8073 26.4222 0
34.0333 26.5127 0
34.136 27.4908 0
32.9747 27.4823 0
31.8772 27.5021 0
30.907 27.5182 0
30.8842 25.4394 0
31.8544 25.3761 0
32.9096 25.4495 0
34.023 25.475 0
30.8927 24.4197 0
31.8697 24.3863 0
32.9922 24.2341 0
34.0297 24.4351 0
30.8508 23.2714 0
31.9548 23.2854 0
32.9792 23.3599 0
34.0497 23.3598 0
30.8509 22.2142 0
31.9516 22.1853 0
32.9775 22.106 0
34.05 22.1292 0
30.8921 21.0687 0
31.8567 21.1016 0
32.9727 21.1137 0
34.0418 21.0428 0
30.8828 20.0481 0
31.8723 20.0965 0
32.9751 20.0737 0
34.0202 20.0137 0
30.8837 19.015 0
31.7916 18.9976 0
32.8882 19.0425 0
34.0267 18.9838 0
30.8875 17.9806 0
31.8618 17.9376 0
32.9153 17.9263 0
34.0435 17.9901 0
30.8858 16.9565 0
31.8633 16.9708 0
32.9456 17.0347 0
34.0327 17.0044 0
30.8766 15.9307 0
31.8503 15.8299 0
32.8288 15.9513 0
34.0103 15.9688 0
30.8878 14.9212 0
31.799 14.8833 0
32.9279 14.8227 0
34.034 14.918 0
30.869 13.7011 0
31.9633 13.6876 0
32.9517 13.7437 0
34.0621 13.7505 0
30.8975 12.6462 0
31.932 12.6817 0
32.9669 12.6684 0
34.0413 12.5807 0
30.8656 11.5747 0
31.836 11.6634 0
32.9489 11.5921 0
34.0183 11.5344 0
30.8883 10.5419 0
31.8836 10.5534 0
32.8941 10.552 0
34.0088 10.4824 0
30.8944 9.51091 0
31.823 9.51895 0
33.0408 9.49925 0
34.0626 9.45124 0
30.8935 8.47612 0
31.8283 8.43634 0
32.9874 8.54827 0
34.0764 8.50184 0
30.8796 7.44631 0
31.8441 7.35145 0
32.7979 7.49527 0
34.0259 7.51232 0
30.8677 6.44656 0
31.7681 6.36425 0
32.9382 6.38084 0
34.0382 6.46163 0
30.8921 5.31838 0
31.9651 5.22719 0
32.9659 5.37034 0
34.0474 5.36773 0
30.8731 4.19364 0
31.9302 4.16843 0
32.972 4.11703 0
34.049 4.13519 0
30.8946 3.07704 0
31.8549 3.13254 0
32.9539 3.13524 0
34.0527 3.07162 0
30.8962 2.05301 0
31.9397 2.10483 0
32.9842 2.17483 0
33.9904 2.1322 0
30.9599 0.921251 0
31.9699 1.0596 0
33.0177 0.97046 0
34.0374 0.948911 0
33.8495 34.1605 0
5.16504 35.5896 0
5.6602 35.2012 0
34.5597 32.6652 0
6.67326 30.3259 0
32.6833 34.5225 0
30.4292 27.7827 0
4.58963 27.777 0
4.54535 37.1592 0
29.3157 29.8266 0
4.95105 28.8579 0
4.9269 36.1513 0
30.3724 28.3735 0
28.3 30.3152 0
34.5456 33.0809 0
33.1077 34.5098 0
7.28697 34.5704 0
5.69776 29.8201 0
6.14424 30.0704 0
30.0697 28.852 0
28.8548 30.0843 0
4.74805 36.6399 0
4.64435 28.3725 0
34.3142 33.4152 0
7.77073 34.5925 0
0.683962 54.5442 0
0.463671 53.7329 0
4.63302 49.7481 0
4.63858 50.7529 0
0.433328 52.7187 0
4.56207 48.7836 0
0.43657 51.7226 0
4.56376 47.7777 0
0.384078 50.7661 0
4.55919 46.7654 0
0.432633 49.2816 0
4.55799 45.2385 0
0.448468 48.2653 0
4.56308 44.2204 0
0.444691 47.2533 0
4.57667 43.2023 0
0.426591 46.2502 0
4.61759 42.1735 0
0.422916 45.2486 0
4.59872 41.3482 0
0.441908 44.2441 0
4.5583 39.7898 0
0.452758 43.2307 0
4.56413 38.7826 0
0.440803 42.2043 0
4.55291 37.7481 0
0.42524 40.8176 0
0.449939 39.7819 0
12.285 34.5821 0
0.452067 38.7646 0
0.44873 37.7534 0
0.45563 36.7265 0
0.436457 35.7378 0
0.448484 34.7409 0
0.442908 33.727 0
0.385185 32.7676 0
0.431252 31.2849 0
0.44752 30.2714 0
4.56475 26.7423 0
0.45346 29.259 0
4.56392 25.7239 0
0.439551 28.2513 0
4.56028 24.7132 0
0.431835 27.2517 0
4.5732 23.6962 0
0.444535 26.2478 0
4.63293 22.248 0
0.450958 25.2359 0
4.56206 21.2836 0
0.44134 24.222 0
4.56376 20.2777 0
0.384363 23.2659 0
4.55911 19.2654 0
0.432635 21.7816 0
4.55543 18.2479 0
0.448468 20.7653 0
4.56013 17.2291 0
0.444691 19.7533 0
4.56962 16.2121 0
0.426591 18.7502 0
4.58017 15.1837 0
0.422916 17.7486 0
4.7049 14.2591 0
0.441908 16.7441 0
4.54781 12.8075 0
0.452759 15.7307 0
4.56419 11.7882 0
0.440809 14.7043 0
4.562 10.7789 0
0.425246 13.3175 0
4.55913 9.76389 0
0.449972 12.2818 0
4.56028 8.74607 0
0.452098 11.2645 0
4.56261 7.72882 0
0.448591 10.2533 0
4.56055 6.72022 0
0.455266 9.22701 0
4.57323 5.70105 0
0.436531 8.23823 0
4.63702 4.25559 0
0.448808 7.2407 0
4.55611 3.29658 0
0.442948 6.22667 0
4.55266 2.28181 0
0.384646 5.26703 0
4.54257 1.26396 0
0.431959 3.78398 0
4.31874 0.454789 0
0.442783 2.77105 0
2.75266 0.448203 0
0.464202 1.77149 0
1.74556 0.443616 0
0.467673 0.675849 0
12.6556 30.3557 0
13.2923 34.5844 0
13.7853 30.3469 0
14.2843 34.611 0
14.823 30.3583 0
15.2546 34.6014 0
15.722 30.3955 0
16.2415 34.5965 0
15.7453 34.6001 0
16.699 30.3951 0
17.2423 34.5889 0
16.7387 34.5931 0
34.5546 24.2197 0
34.5456 25.2366 0
24.7432 34.5776 0
23.7284 34.5845 0
22.7356 34.616 0
30.4474 27.2547 0
34.6144 23.2647 0
30.4563 0.678148 0
31.7328 0.47211 0
32.7538 0.461894 0
34.3142 0.455616 0
34.5244 1.26688 0
34.5363 2.29412 0
30.4381 6.2165 0
30.3682 5.25304 0
30.4362 7.22229 0
34.5507 6.73666 0
34.5533 7.75403 0
34.5678 8.74559 0
30.4315 12.3078 0
30.4335 11.2845 0
30.3983 13.3155 0
34.5739 13.3169 0
34.5733 14.1839 0
30.4396 18.7539 0
30.4408 17.7375 0
30.4379 19.771 0
34.5447 19.7504 0
34.5507 20.7654 0
30.4388 25.2173 0
30.4427 24.2019 0
30.4412 20.7824 0
30.425 21.8081 0
30.4384 16.7236 0
30.4353 15.7132 0
30.4443 14.698 0
30.4405 10.2683 0
30.4445 9.25164 0
30.4409 8.23459 0
30.4303 3.80554 0
30.4424 2.78637 0
30.4482 1.7657 0
34.5668 3.78551 0
34.4587 4.75046 0
34.5654 5.71815 0
34.5449 10.2387 0
34.5448 11.2596 0
34.5515 12.281 0
34.5491 15.2187 0
34.5473 16.7484 0
34.5514 17.7483 0
34.5481 18.7397 0
34.5662 21.7811 0
30.4442 26.2302 0
34.5502 26.2527 0
25.7482 34.5766 0
34.5736 27.2534 0
34.5572 28.234 0
34.5493 29.7595 0
34.5574 30.7892 0
34.6412 31.7433 0
31.7544 34.6079 0
32.2081 34.5901 0
21.7619 34.6078 0
20.7605 34.6052 0
19.7613 34.6004 0
18.7616 34.5894 0
17.7503 34.5877 0
4.55785 51.7066 0
2.24565 54.5384 0
4.55194 53.2345 0
3.26697 54.5281 0
4.54367 54.3219 0
30.3549 23.2412 0
9.2412 34.5741 0
10.2517 34.5776 0
11.2695 34.5769 0
18.2564 34.5872 0
19.2638 34.5946 0
20.2616 34.6042 0
21.2632 34.6071 0
22.2559 34.613 0
26.7493 34.5811 0
27.7524 34.5793 0
28.77 34.5771 0
29.7849 34.5821 0
30.7877 34.585 0
1.22487 54.5525 0
1.73701 54.5497 0
0.480489 1.23197 0
0.439735 2.27716 0
0.44116 3.2758 0
0.384518 4.23362 0
0.537887 4.75023 0
0.431717 5.71793 0
0.447269 6.73352 0
0.442961 7.74117 0
0.435712 8.72937 0
0.461459 9.73567 0
0.448844 10.7596 0
0.454556 11.7721 0
0.441722 12.7982 0
0.357566 13.7511 0
0.423828 14.1836 0
0.448478 15.2182 0
0.450918 16.2373 0
0.4317 17.2473 0
0.42174 18.2498 0
0.433937 19.2517 0
0.448653 20.2583 0
0.442824 21.2737 0
0.384506 22.2327 0
0.537973 22.7488 0
0.43087 23.715 0
0.446803 24.7283 0
0.450282 25.7411 0
0.436958 26.7498 0
0.433112 27.7505 0
0.447997 28.7529 0
0.453352 29.7655 0
0.441099 30.779 0
0.383938 31.734 0
0.538217 32.251 0
0.432274 33.2186 0
0.447105 34.234 0
0.442567 35.2413 0
0.435664 36.2286 0
0.461783 37.2353 0
0.44889 38.2597 0
0.454519 39.2722 0
0.441697 40.2982 0
0.357575 41.2512 0
0.423836 41.6837 0
0.448475 42.7182 0
0.450917 43.7373 0
0.4317 44.7473 0
0.42174 45.7498 0
0.433936 46.7517 0
0.448653 47.7583 0
0.442824 48.7737 0
0.384504 49.7327 0
0.537777 50.2489 0
0.429381 51.2154 0
0.434765 52.2255 0
0.458097 53.218 0
0.420412 54.1652 0
3.77723 0.445744 0
3.26285 0.445284 0
2.24687 0.445621 0
1.2604 0.429774 0
0.84402 0.403665 0
4.56866 27.2538 0
4.56279 26.2324 0
4.5619 25.2179 0
4.55876 24.2062 0
4.63956 23.2526 0
4.48653 22.7526 0
4.56832 21.7973 0
4.56459 20.7792 0
4.56061 19.7729 0
4.55403 18.7572 0
4.55637 17.7384 0
4.56214 16.7199 0
4.57649 15.7017 0
4.621 14.6736 0
4.60654 13.8513 0
4.55123 13.3384 0
4.55713 12.2949 0
4.56252 11.2843 0
4.55907 10.2721 0
4.55831 9.25593 0
4.56034 8.23696 0
4.56145 7.2238 0
4.55938 6.21347 0
4.63934 5.25607 0
4.48965 4.7599 0
4.57078 3.81158 0
4.5553 2.78849 0
4.54141 1.77245 0
4.58287 0.833164 0
27.3776 30.411 0
26.2562 30.3945 0
25.241 30.3907 0
24.228 30.3911 0
23.1351 30.406 0
22.2286 30.4094 0
21.3395 30.3522 0
20.1805 30.3581 0
19.2995 30.3838 0
18.1902 30.3554 0
30.462 1.23163 0
30.4444 2.27901 0
30.4445 3.2947 0
30.3641 4.2493 0
30.518 4.75055 0
30.4324 5.70344 0
30.4354 6.7208 0
30.4394 7.72709 0
30.446 8.74267 0
30.4437 9.76017 0
30.4396 10.7764 0
30.4299 11.7926 0
30.414 12.8169 0
30.3397 13.738 0
30.4275 14.1701 0
30.4395 15.209 0
30.4379 16.2175 0
30.4414 17.2309 0
30.4416 18.245 0
30.4397 19.2628 0
30.4399 20.2769 0
30.4423 21.2924 0
30.354 22.2537 0
30.4879 22.7461 0
30.4242 23.6841 0
30.4417 24.7113 0
30.442 25.7227 0
30.4491 26.7403 0
33.7733 0.447384 0
33.2619 0.450547 0
32.2433 0.476424 0
31.2449 0.441966 0
30.8322 0.408273 0
34.5779 32.169 0
34.5751 31.3103 0
34.5511 30.2739 0
34.5519 29.2485 0
34.5548 28.7387 0
34.5756 27.7394 0
34.5573 26.7577 0
34.5484 25.7435 0
34.5476 24.7261 0
34.567 23.7135 0
34.4606 22.7474 0
34.6154 22.2316 0
34.5568 21.2737 0
34.5464 20.2586 0
34.5461 19.2448 0
34.5526 18.2423 0
34.551 17.251 0
34.5442 16.2401 0
34.5435 15.73 0
34.5569 14.7026 0
34.6418 13.7503 0
34.559 12.7976 0
34.5461 11.7702 0
34.5426 10.7485 0
34.5555 9.73246 0
34.5657 9.23523 0
34.5643 8.25198 0
34.549 7.2476 0
34.5559 6.2272 0
34.6143 5.26727 0
34.6149 4.23423 0
34.5589 3.28303 0
34.5518 2.78679 0
34.5112 1.78813 0
34.5752 0.834282 0
30.2859 34.5832 0
31.2804 34.5937 0
8.7384 34.5755 0
9.74536 34.5779 0
10.7596 34.5789 0
11.7783 34.5786 0
12.787 34.5831 0
13.794 34.5939 0
14.7625 34.6076 0
23.2253 34.5972 0
24.2376 34.5806 0
25.2469 34.577 0
26.2492 34.5783 0
27.2497 34.5835 0
28.2598 34.5794 0
29.2789 34.5787 0
4.538 53.7684 0
4.55659 52.7212 0
4.55738 52.2138 0
4.57383 51.196 0
4.48653 50.2527 0
4.56838 49.2974 0
4.56459 48.2792 0
4.56062 47.2729 0
4.55509 46.2571 0
4.55355 45.7481 0
4.55894 44.7287 0
4.5688 43.7114 0
4.57986 42.6835 0
4.705 41.7588 0
4.5424 40.8298 0
4.54403 40.2994 0
4.56298 39.2871 0
4.55836 38.2735 0
2.75635 54.524 0
3.75505 54.5581 0
4.16775 54.5918 0
8.24644 34.5858 0
11.8486 30.3992 0
10.7697 30.389 0
16.9215 30.8389 0
18.0575 30.8068 0
19.073 30.8246 0
15.9485 30.8582 0
33.5596 33.8306 0
14.9564 30.8221 0
20.0473 30.8158 0
13.91 30.7928 0
21.1332 30.8023 0
32.3466 34.1432 0
34.21 32.3617 0
4.11746 12.0798 0
30.8785 15.427 0
4.16019 15.4008 0
30.8545 12.0844 0
12.8365 30.8171 0
22.1951 30.9219 0
30.8874 24.9297 0
4.11692 24.9312 0
4.09801 2.57369 0
30.8955 2.56654 0
30.8733 6.9407 0
4.11959 6.94703 0
4.12672 48.0593 0
4.12672 20.5592 0
30.8874 20.559 0
4.11895 11.0664 0
30.8874 16.4441 0
4.12613 16.428 0
30.8844 11.0577 0
4.07736 53.4827 0
4.05627 1.52674 0
30.9223 1.51701 0
30.8963 25.9542 0
4.11611 25.9595 0
29.8061 29.19 0
6.69516 34.5774 0
4.10965 19.5403 0
30.8904 7.95966 0
4.11288 7.96828 0
30.888 19.5307 0
4.10968 47.0403 0
1.49052 0.804081 0
34.1892 21.5563 0
31.4609 0.839535 0
34.1919 3.56865 0
34.1579 9.96217 0
34.1598 12.049 0
34.1538 16.4906 0
31.5587 34.2046 0
8.46959 34.1679 0
8.97223 34.1467 0
3.5388 54.1608 0
12.0598 34.1618 0
18.0058 34.1063 0
19.0327 34.1146 0
20.0316 34.1451 0
21.0321 34.154 0
22.0332 34.1658 0
14.0969 34.2086 0
15.9777 34.1415 0
16.971 34.117 0
1.47101 54.1786 0
3.53074 0.814979 0
16.2184 30.3973 0
15.2418 30.3837 0
14.128 30.3437 0
13.0796 30.3508 0
12.2558 30.2834 0
33.5239 0.819359 0
32.5042 0.859362 0
34.1826 28.9868 0
34.1936 27.957 0
34.1904 27.0237 0
34.1725 25.992 0
34.1508 24.9596 0
34.1752 18.4858 0
34.1794 17.4998 0
34.1499 11.0094 0
22.9376 34.2135 0
23.9681 34.1658 0
4.10554 52.4329 0
4.11969 39.5722 0
4.11713 38.5637 0
13.0721 34.1712 0
14.9975 34.1572 0
25.4971 34.1518 0
24.4812 34.1582 0
34.1931 13.1138 0
34.1614 20.5249 0
26.5061 34.1628 0
9.99935 34.1628 0
11.025 34.1596 0
27.497 34.1694 0
28.5263 34.1587 0
29.5632 34.1623 0
30.5682 34.1688 0
2.49892 0.818724 0
34.1853 23.9296 0
34.1553 19.4982 0
9.48942 34.1578 0
10.5132 34.1635 0
24.9905 34.1527 0
26.0041 34.1545 0
26.9995 34.1808 0
28.0101 34.1641 0
4.09896 46.0059 0
4.10625 44.9662 0
4.12614 43.928 0
4.1594 42.9011 0
2.49468 54.1427 0
8.00314 34.2059 0
4.11163 10.0427 0
30.8949 10.0253 0
30.889 17.4673 0
4.10621 17.4662 0
33.794 33.3633 0
30.9091 26.9907 0
4.12051 26.9924 0
4.08599 37.5186 0
23.1806 30.9023 0
11.7908 30.8989 0
5.26656 30.0816 0
29.7725 30.0953 0
4.0991 18.5059 0
30.8896 18.4968 0
30.9009 8.99268 0
4.10938 9.00592 0
24.2055 30.8746 0
7.59271 34.2395 0
26.2521 30.8736 0
25.2317 30.8722 0
30.9024 28.0633 0
4.13581 28.0448 0
10.7735 33.7497 0
28.2693 33.74 0
9.7495 33.7453 0
25.2416 33.6561 0
27.2212 33.7638 0
7.75063 33.8398 0
8.67051 33.6705 0
26.2744 33.6659 0
3.68251 39.3562 0
3.72958 43.1106 0
3.67821 11.8631 0
3.72992 15.6103 0
31.3243 15.6427 0
31.2916 11.8696 0
24.2078 33.6695 0
3.66743 25.1593 0
31.3635 2.34011 0
3.63461 52.6543 0
3.61747 2.36824 0
33.7407 13.13 0
31.3379 25.1567 0
33.76 32.3553 0
33.7427 3.5742 0
33.7318 23.9094 0
3.68054 47.8422 0
3.68054 20.3422 0
3.67453 7.17868 0
31.3195 7.15735 0
31.3407 20.3258 0
11.8366 33.6746 0
23.1531 33.7024 0
29.3517 33.6704 0
33.7414 21.5591 0
3.66386 38.3451 0
3.66746 10.8464 0
3.66528 44.1458 0
3.66528 16.6458 0
31.3557 16.6877 0
31.3568 10.8148 0
33.6452 12.0825 0
3.66253 26.217 0
3.59124 53.7079 0
31.4077 1.2918 0
18.5656 31.1356 0
16.4445 31.1557 0
3.62697 37.3313 0
31.3606 26.1979 0
33.6086 24.9203 0
19.5695 31.1471 0
15.4429 31.1578 0
12.8376 33.6964 0
22.0731 33.6132 0
30.3423 33.6825 0
20.5892 31.1116 0
14.4146 31.122 0
3.64773 19.3005 0
3.65049 8.2246 0
3.64775 46.8005 0
31.3534 8.19856 0
31.3447 19.2699 0
33.6513 20.5504 0
21.6615 31.1507 0
13.3601 31.129 0
3.6575 9.81966 0
3.64234 45.2123 0
3.64235 17.7123 0
31.3561 9.76906 0
31.3401 17.7087 0
22.6776 31.1821 0
12.2952 31.1681 0
33.6226 11.0214 0
33.6274 16.4942 0
3.54228 1.27542 0
31.3972 28.3234 0
11.5418 34.1484 0
31.0679 34.1768 0
15.4903 34.2696 0
30.064 34.1658 0
12.5624 34.1686 0
13.5839 34.1813 0
14.5263 34.2939 0
29.0465 34.1468 0
3.66589 27.2444 0
4.79945 29.8721 0
5.70337 30.3074 0
21.0572 33.5962 0
13.8889 33.71 0
31.361 33.6963 0
33.7273 28.9873 0
33.7047 25.9777 0
23.6834 31.1534 0
11.2853 31.1541 0
2.5027 1.28633 0
32.5274 1.31963 0
2.4664 53.6818 0
3.67659 27.7631 0
3.63314 45.7418 0
3.63317 18.2417 0
3.64196 9.29039 0
31.3517 18.2317 0
31.3661 9.24955 0
33.6364 19.5092 0
30.2549 29.9014 0
33.609 9.90253 0
33.7243 17.4995 0
31.3863 27.2467 0
1.48153 1.27853 0
33.5187 1.27977 0
1.46671 53.702 0
20.0565 33.5862 0
14.9683 33.6109 0
31.3757 26.7206 0
33.6549 27.8642 0
33.6473 27.1041 0
33.7012 18.4816 0
31.3425 18.7535 0
31.3669 8.72262 0
3.63464 46.2739 0
3.63466 18.7739 0
3.64855 8.75441 0
3.66392 28.2818 0
3.6702 26.732 0
31.3926 27.7821 0
27.9983 33.305 0
10.5246 33.3386 0
8.10466 33.3672 0
33.4969 32.8607 0
3.67419 38.8554 0
3.67651 39.8451 0
3.69196 43.6258 0
3.674 11.3574 0
3.66715 12.3684 0
3.69204 16.1257 0
31.3521 16.1566 0
31.32 15.1504 0
31.3386 11.3456 0
23.6732 33.3582 0
3.64931 25.6885 0
3.61491 53.1808 0
3.64545 2.87063 0
3.56109 1.8343 0
31.382 1.81542 0
33.4678 12.6493 0
33.4824 3.11279 0
3.70492 48.3329 0
3.65186 47.3268 0
3.70491 20.8329 0
3.65185 19.8268 0
3.64736 7.69552 0
31.295 6.66701 0
31.3484 7.67252 0
31.3579 19.7972 0
31.3428 24.6515 0
31.3576 25.6756 0
26.8532 33.3349 0
25.7581 33.3331 0
3.65175 37.8307 0
29.8529 33.3624 0
22.6098 33.3617 0
33.4393 24.3392 0
12.3322 33.3803 0
33.4729 21.0975 0
9.50838 33.3224 0
3.66392 10.3337 0
3.63925 44.6757 0
3.63926 17.1757 0
31.3416 17.2053 0
31.3641 10.2864 0
3.58924 36.8841 0
33.4344 11.5628 0
3.29607 28.0062 0
18.0673 31.3924 0
16.9411 31.3851 0
19.0785 31.4253 0
15.9502 31.4207 0
30.8611 33.3453 0
13.3586 33.3865 0
21.5763 33.3293 0
20.0762 31.3988 0
14.9272 31.4138 0
4.75305 29.3309 0
4.90849 30.3099 0
33.4486 20.0427 0
21.1181 31.3952 0
13.8788 31.4107 0
33.4233 25.4753 0
22.1607 31.4348 0
12.8203 31.4307 0
33.4517 17.0335 0
33.3898 10.4839 0
31.8803 33.3692 0
3.02689 1.56901 0
3.23884 26.9774 0
14.4332 33.3697 0
20.563 33.3194 0
23.1683 31.4386 0
11.786 31.4488 0
1.99247 1.56416 0
33.0105 1.572 0
1.97972 53.4191 0
33.4208 18.9757 0
33.4379 28.4895 0
33.5539 9.3612 0
33.4448 17.9773 0
33.4116 26.4732 0
0.968141 1.5313 0
34.0139 1.54066 0
0.952637 53.4456 0
15.4621 33.3311 0
19.5772 33.3048 0
3.6357 28.816 0
3.1805 9.03503 0
31.7906 18.5016 0
30.317 29.3292 0
10.7866 30.867 0
24.1821 31.4491 0
27.3313 30.9855 0
33.2392 33.3737 0
4.5923 35.7747 0
4.48433 28.9113 0
30.5176 28.8594 0
4.43683 36.2743 0
29.3243 30.3293 0
24.7193 33.3221 0
31.3981 28.8673 0
24.7126 31.1612 0
31.8815 28.0401 0
7.44764 33.3889 0
11.0177 33.3441 0
28.5267 33.3069 0
25.7411 31.1438 0
26.742 31.1619 0
31.8603 26.9725 0
34.1899 14.3863 0
0.804907 14.388 0
0.807409 13.1147 0
0.80491 41.8881 0
0.807382 40.6148 0
34.1929 31.1005 0
0.811737 3.55912 0
0.801352 51.4377 0
0.807147 23.9354 0
0.807209 31.0647 0
34.1875 5.94378 0
0.809659 33.4437 0
0.810189 21.5568 0
0.810187 49.0568 0
0.809091 5.9423 0
34.1522 15.4508 0
0.841778 42.9517 0
0.845219 39.5512 0
0.841782 15.4517 0
0.845294 12.0511 0
22.7119 30.3011 0
34.1632 30.0293 0
34.17 2.58377 0
0.834943 24.9636 0
0.838688 30.0376 0
0.818269 2.53615 0
0.800116 52.4523 0
5.65418 34.634 0
31.3413 20.834 0
3.68545 6.69372 0
6.58796 30.8847 0
28.3067 30.801 0
34.1592 6.98764 0
0.833013 6.97347 0
0.832134 34.4749 0
0.835809 20.5223 0
0.835809 48.0223 0
6.14616 34.328 0
0.833987 43.9842 0
0.833987 16.4842 0
0.838529 38.5226 0
0.838511 11.0223 0
0.832598 25.9858 0
0.843404 29.0098 0
31.35 2.85168 0
3.65531 52.1434 0
3.67066 24.6536 0
15.9627 33.594 0
5.70302 30.7373 0
34.1901 8.01079 0
0.805377 7.97821 0
0.806061 19.5047 0
0.803387 35.4774 0
0.806061 47.0047 0
4.45411 30.2549 0
33.1942 17.488 0
33.0835 18.4773 0
3.90632 36.4639 0
4.77104 30.7864 0
1.26218 40.6317 0
33.7343 14.3683 0
1.25837 41.872 0
1.25825 14.3716 0
1.26207 13.1314 0
1.25604 31.0723 0
1.26918 3.56284 0
1.2482 51.4344 0
1.25624 23.9273 0
33.7364 31.1145 0
3.31891 39.6235 0
3.30696 12.1398 0
31.6855 15.3678 0
4.07624 29.0912 0
33.7359 5.94081 0
1.26012 5.93333 0
1.26149 49.0599 0
1.2615 21.5599 0
1.25832 33.4414 0
3.29597 24.8924 0
3.25311 2.67058 0
3.26423 52.3632 0
31.7383 2.62153 0
1.37304 39.5827 0
33.622 15.4176 0
1.36904 42.9211 0
1.36904 15.4211 0
1.373 12.0823 0
31.7159 24.8929 0
3.32826 48.1189 0
3.32826 20.6189 0
3.3221 6.92876 0
31.6714 6.88049 0
31.7194 20.5926 0
1.35635 30.0746 0
1.33648 2.50775 0
33.7316 2.6433 0
1.29413 52.4547 0
1.34672 24.9329 0
30.9031 29.1379 0
33.646 30.0472 0
3.64216 40.3296 0
3.64368 12.8879 0
31.3437 14.6603 0
3.66905 24.1476 0
3.66466 51.639 0
3.64715 3.38015 0
31.3527 3.36251 0
31.3552 24.1296 0
33.6244 6.98075 0
1.3505 6.94917 0
1.36044 48.0361 0
1.36044 20.5361 0
1.34308 34.4565 0
3.73892 48.7749 0
3.73891 21.2749 0
3.65976 6.19441 0
31.2612 6.22568 0
31.3513 21.3535 0
7.17912 30.297 0
1.35648 38.5282 0
1.35915 16.4875 0
1.35915 43.9875 0
1.35633 11.0271 0
27.4551 33.3193 0
10.0159 33.3313 0
23.1523 31.9813 0
24.1837 33.0602 0
33.2188 13.1479 0
33.2229 3.58701 0
23.144 33.0926 0
29.3768 33.0965 0
11.8363 33.1206 0
33.2269 21.5701 0
33.2 11.9304 0
17.6871 31.1161 0
32.3669 33.639 0
31.3843 33.0795 0
30.3527 33.071 0
22.1009 33.0675 0
12.834 33.1233 0
33.2133 20.4018 0
9.06159 33.328 0
33.1814 16.6854 0
33.1534 10.8696 0
33.2252 23.8715 0
13.885 33.1165 0
21.0764 33.0517 0
32.5112 1.84614 0
2.50162 1.85422 0
2.47258 53.1498 0
33.7817 8.96651 0
1.48326 1.90806 0
14.9446 33.0767 0
20.0737 33.0446 0
19.0837 33.5492 0
1.37919 29.0033 0
1.34743 25.9695 0
33.1403 25.0959 0
32.3113 26.6974 0
10.301 31.1491 0
32.3515 28.2997 0
33.7317 8.03536 0
1.26179 7.96988 0
1.26276 19.4937 0
1.26276 46.9937 0
1.24695 35.4665 0
6.02868 31.1366 0
22.1378 31.9697 0
26.2434 31.4226 0
25.2325 31.4417 0
28.5816 31.1861 0
21.1041 31.9527 0
5.36654 31.1044 0
27.9582 31.2155 0
6.98054 31.148 0
32.2396 18.3355 0
2.68314 9.26231 0
2.8592 27.136 0
33.2208 32.3475 0
20.0835 31.9562 0
32.367 27.7615 0
3.22688 53.4236 0
31.7684 1.57289 0
16.4765 34.2569 0
2.84479 27.984 0
6.74664 33.4429 0
5.16157 34.3799 0
10.7941 31.4334 0
32.3532 27.226 0
19.1139 31.9799 0
31.8095 10.0096 0
3.17864 17.4344 0
3.17864 44.9344 0
1.47612 53.0616 0
33.4999 1.83106 0
31.8215 19.507 0
3.16807 7.9729 0
30.1543 30.3238 0
3.18633 25.9823 0
31.8003 11.0939 0
3.28476 16.3439 0
3.28473 43.844 0
15.9733 33.0664 0
16.9894 31.9217 0
18.0072 31.9362 0
27.1126 31.4387 0
16.4438 33.343 0
28.9782 33.3298 0
11.4508 33.3535 0
6.58014 34.0248 0
3.18303 29.1009 0
3.25764 36.4888 0
33.1477 25.9407 0
31.8251 16.4082 0
3.27851 11.1348 0
3.27796 38.6346 0
31.8123 25.9357 0
32.758 33.3848 0
31.8091 7.91997 0
3.19648 19.5773 0
3.19649 47.0773 0
5.65476 34.0809 0
31.714 17.4536 0
3.28453 10.1126 0
3.27609 37.6176 0
32.6777 11.0808 0
32.7249 16.5439 0
32.7824 20.5932 0
32.7047 24.9818 0
32.6445 18.2608 0
31.3894 29.4136 0
32.7691 12.1365 0
8.66796 33.1034 0
30.6001 30.2793 0
30.326 30.7795 0
32.6793 17.4654 0
2.47051 52.6394 0
32.4641 2.29846 0
32.7162 21.5773 0
32.7138 26.9422 0
32.7367 23.8742 0
32.7053 3.60012 0
32.7083 13.1509 0
33.4944 31.9467 0
32.7617 32.3156 0
27.2631 31.9022 0
32.739 28.0319 0
3.59691 35.9838 0
4.33158 36.7087 0
4.37951 29.2449 0
31.9567 34.2855 0
1.54821 40.1511 0
33.4475 14.8466 0
1.54203 42.3508 0
1.54203 14.8504 0
1.54652 12.6511 0
1.52908 30.6203 0
1.56667 3.07917 0
1.50709 51.9087 0
1.52793 24.3857 0
33.4557 30.6278 0
33.4534 6.40967 0
1.53904 6.39045 0
1.54114 48.595 0
1.54114 21.095 0
1.52707 33.9071 0
1.58859 39.0494 0
33.3982 15.9553 0
1.59125 43.4571 0
1.59125 15.9571 0
1.58843 11.5484 0
4.66813 34.1258 0
1.58833 29.5624 0
1.54663 25.4381 0
4.06382 40.6033 0
4.0872 13.1322 0
30.9075 14.3791 0
33.4586 29.4874 0
4.11852 23.9034 0
4.10597 3.61414 0
4.11722 51.4017 0
30.8948 3.60237 0
33.3666 7.58055 0
1.54878 7.48239 0
1.57003 47.4761 0
1.57003 19.9761 0
1.52749 34.9886 0
4.10575 49.0632 0
4.1057 21.5632 0
4.11324 5.9214 0
30.8951 5.93807 0
30.8891 21.6057 0
30.8899 23.8808 0
1.54967 37.9993 0
1.54353 44.5399 0
1.54353 17.0399 0
1.54859 10.4981 0
33.4907 13.5452 0
33.491 3.97427 0
33.4938 21.9636 0
33.2185 20.7513 0
33.1674 11.2253 0
18.5155 34.2276 0
32.1433 1.58062 0
2.84856 53.4154 0
33.2819 8.98203 0
1.54215 28.4402 0
19.1044 33.0245 0
1.53907 26.5022 0
33.1792 19.3663 0
5.65485 33.5399 0
33.4916 23.5067 0
33.5129 8.52045 0
1.48414 8.45785 0
1.49873 18.9862 0
1.49873 46.4862 0
1.47162 35.9493 0
9.80762 30.881 0
29.1434 31.148 0
15.9799 32.5201 0
7.42978 31.068 0
6.58635 31.4165 0
2.6143 27.4991 0
2.55436 9.75944 0
32.4173 17.8952 0
10.7942 31.9958 0
32.3578 33.1064 0
16.4916 32.2288 0
18.3745 32.2298 0
3.9082 30.213 0
27.4964 31.4612 0
32.2648 26.1812 0
16.9082 33.5739 0
2.71717 28.9177 0
3.65133 29.356 0
26.2477 31.9606 0
32.6226 25.8511 0
2.69721 36.7556 0
2.73139 38.6854 0
2.8311 37.6545 0
33.0693 24.6643 0
25.2657 31.9831 0
33.2226 2.67351 0
32.348 28.8551 0
19.5947 32.236 0
20.5872 32.2281 0
21.6137 32.2354 0
22.6404 32.2505 0
2.8315 10.1507 0
2.69208 17.235 0
2.69208 44.735 0
32.1615 17.4551 0
32.2555 10.1656 0
2.72573 47.2804 0
2.72573 19.7804 0
2.76942 7.76193 0
32.2847 7.70736 0
32.246 19.6981 0
2.75888 25.7903 0
2.74535 43.7867 0
2.74536 16.2867 0
2.73088 11.1845 0
32.3032 16.1802 0
32.1887 11.2802 0
33.0282 10.0871 0
23.6476 32.2543 0
16.8366 33.1713 0
32.1811 24.9043 0
32.1398 18.7382 0
2.7934 8.7911 0
9.81573 31.448 0
2.88356 26.7747 0
32.1879 2.66544 0
2.81024 2.74142 0
2.82363 52.2978 0
2.825 24.8839 0
32.1912 20.599 0
32.1246 6.85683 0
2.86986 6.89497 0
2.87331 20.6415 0
2.87331 48.1415 0
17.5069 32.1899 0
7.75687 32.9366 0
4.65468 34.6879 0
17.2587 33.2341 0
2.4292 26.9479 0
2.68574 26.334 0
2.31765 8.88432 0
2.60087 8.28812 0
32.3142 19.1788 0
2.4441 2.39148 0
2.32083 27.9593 0
32.7524 19.5974 0
4.1616 34.4173 0
19.1161 32.5002 0
32.4338 17.0148 0
32.4253 10.5843 0
32.4699 20.1096 0
32.4325 11.6539 0
2.06467 52.4261 0
32.4534 21.0966 0
32.4112 25.3835 0
32.4326 3.14007 0
32.5388 24.4182 0
32.367 32.5732 0
32.4587 12.66 0
32.1931 25.7455 0
29.7433 31.1205 0
26.7494 32.2162 0
1.79566 40.6523 0
33.201 14.3456 0
1.78667 41.8514 0
1.7859 14.3487 0
1.78895 13.151 0
1.77792 31.088 0
1.79775 3.58641 0
1.77636 51.4192 0
1.77701 23.9049 0
33.2012 31.1431 0
33.2094 5.92155 0
1.78469 5.89778 0
1.78634 49.0784 0
1.78634 21.5784 0
1.77784 33.433 0
1.84626 39.4184 0
33.1454 15.5757 0
1.84625 43.0819 0
1.84626 15.5819 0
1.84575 11.9181 0
1.81244 29.9419 0
1.78752 25.0803 0
3.51015 40.8591 0
3.61461 13.4241 0
31.4647 14.1189 0
3.67316 23.6353 0
3.67204 51.131 0
3.63426 3.91121 0
31.3649 3.88266 0
33.1351 7.14466 0
1.8073 7.09925 0
1.84122 47.8654 0
1.84122 20.3654 0
3.52366 49.2833 0
3.52359 21.7833 0
3.6425 5.66066 0
31.4764 5.72241 0
31.3654 21.9076 0
1.78717 38.3487 0
1.30729 37.5141 0
1.78668 34.6185 0
1.81493 44.1815 0
1.23927 45.0127 0
1.30578 10.0141 0
1.78646 10.8471 0
1.23927 17.5127 0
1.81493 16.6815 0
1.82511 28.7763 0
1.25559 27.9793 0
9.77858 30.3968 0
1.25578 26.9921 0
1.80087 26.1174 0
18.7056 33.2634 0
1.21907 45.9994 0
1.21907 18.4994 0
1.18276 8.86646 0
31.3669 23.5723 0
3.82838 35.5256 0
33.1931 29.8745 0
1.18082 36.3625 0
29.3681 30.7629 0
3.61584 30.6684 0
7.61401 30.5063 0
2.8055 29.3354 0
2.55009 28.4355 0
33.1969 29.0141 0
17.0126 32.4691 0
2.64307 39.2326 0
2.54447 38.1089 0
32.7076 2.68126 0
2.55874 37.26 0
20.0843 32.5029 0
21.0924 32.5049 0
22.1197 32.5182 0
2.54387 10.6068 0
2.58068 44.2863 0
2.79751 45.1815 0
2.79751 17.6815 0
2.58068 16.7863 0
2.53677 25.3743 0
32.1732 9.77189 0
2.64314 47.7287 0
2.64314 20.2287 0
2.57789 7.36363 0
32.3522 7.26232 0
2.65231 43.2425 0
2.65237 15.7423 0
2.6404 11.7348 0
32.3651 15.7288 0
32.1951 10.9185 0
32.6388 10.2468 0
23.1447 32.5305 0
24.1402 31.9928 0
2.59369 3.19029 0
2.57096 24.3811 0
2.60276 51.8389 0
2.60572 48.6264 0
2.60572 21.1264 0
2.67298 6.31641 0
32.3918 6.37351 0
17.9962 32.4609 0
9.82436 32.0012 0
33.4788 23.027 0
7.82355 32.3851 0
33.1109 26.8848 0
31.869 29.1398 0
4.66857 33.5835 0
33.488 13.9507 0
8.70472 32.6519 0
15.4484 32.2493 0
33.2205 8.09207 0
33.1331 28.0822 0
33.489 31.5402 0
32.2041 8.15291 0
2.81714 19.3357 0
2.81714 46.8357 0
32.23 16.6236 0
4.65643 35.2513 0
11.2862 32.2911 0
2.7903 36.2876 0
25.7581 32.2361 0
9.3533 31.1712 0
2.24096 28.8336 0
2.17797 10.9817 0
2.21142 16.515 0
2.21142 44.015 0
2.17865 38.4833 0
2.23218 34.4185 0
2.28774 20.5999 0
2.28774 48.0999 0
2.26661 6.8861 0
32.7024 6.89707 0
32.7223 30.0841 0
2.2245 24.8893 0
2.24114 30.1465 0
2.36649 46.8959 0
2.36649 19.3959 0
32.7022 8.06314 0
2.34115 45.121 0
2.34114 17.621 0
2.62274 18.8473 0
2.62275 46.3473 0
32.3981 8.64298 0
2.31823 36.3943 0
2.61486 45.6687 0
2.61486 18.1687 0
32.3862 9.32254 0
2.28063 12.1382 0
2.28268 15.3494 0
2.28244 42.8503 0
32.7078 15.3513 0
2.28802 39.6352 0
2.58508 29.7056 0
2.58487 35.8895 0
2.2996 33.4307 0
2.31562 21.6074 0
2.31562 49.1074 0
2.31447 5.84139 0
32.6804 5.89221 0
2.30888 23.8787 0
2.31823 51.3801 0
2.30959 3.62027 0
2.29554 31.0947 0
2.30617 13.154 0
2.30371 14.3341 0
2.30298 41.8438 0
32.6574 14.3359 0
2.33842 40.6589 0
32.3943 32.0504 0
1.79279 27.9555 0
33.2098 12.2934 0
32.5516 18.6722 0
1.93085 2.62028 0
33.1983 19.7178 0
32.1784 12.1719 0
31.9215 32.2901 0
32.1994 21.5943 0
32.1883 3.61165 0
32.2017 13.1472 0
27.2317 32.4841 0
1.50973 31.4743 0
1.51083 41.0497 0
1.50768 41.456 0
1.50828 13.5478 0
1.50589 13.9536 0
1.51195 3.97456 0
3.84581 31.1429 0
3.37501 30.1959 0
1.50268 51.0204 0
1.50451 23.5159 0
33.4856 5.52741 0
1.50382 5.51424 0
1.50842 49.4704 0
1.50843 21.9704 0
1.78467 24.7306 0
3.30814 23.8863 0
0.802291 27.995 0
3.3067 51.3736 0
31.7382 3.63156 0
3.18679 5.9689 0
1.80597 6.7353 0
1.88506 37.5226 0
0.842665 37.4903 0
1.79404 45.0486 0
1.79404 17.5486 0
0.842024 9.99061 0
1.88204 10.0223 0
31.7449 21.6285 0
1.82853 43.8214 0
1.82853 16.3214 0
1.81614 26.9747 0
1.5113 33.0361 0
1.68052 9.02724 0
0.778161 46 0
1.74409 46.002 0
0.778161 18.5 0
1.74409 18.502 0
1.78417 34.2589 0
1.68065 36.523 0
2.87128 39.6503 0
2.85625 12.1623 0
2.86201 42.7955 0
2.86288 15.2932 0
32.132 15.3341 0
2.85526 23.8838 0
2.81661 3.64566 0
2.86132 51.3685 0
2.40351 52.2248 0
2.87506 49.1632 0
2.87503 21.6633 0
32.122 5.84093 0
3.39608 35.5963 0
10.3018 32.275 0
30.3199 31.3931 0
15.9621 31.967 0
14.9293 32.5319 0
3.69733 34.1394 0
17.0326 32.8916 0
31.4439 29.9582 0
25.2705 32.4975 0
10.7893 32.5503 0
11.7878 32.0126 0
8.42734 32.286 0
32.2218 23.8833 0
18.2634 33.2549 0
2.24045 25.8926 0
5.15912 33.2954 0
8.9518 30.9713 0
1.82076 12.2924 0
33.1701 15.2028 0
1.82454 39.7917 0
1.77446 35.4518 0
1.81927 19.464 0
1.81927 46.964 0
1.84804 7.96258 0
33.0218 7.80776 0
7.8925 30.946 0
24.1411 32.5092 0
26.2594 32.5017 0
32.9864 22.7349 0
7.7891 31.4352 0
3.51182 35.1649 0
8.41778 31.1793 0
2.83202 30.1663 0
24.5158 32.247 0
2.58674 34.8953 0
1.7922 25.7648 0
3.14245 46.0086 0
3.14246 18.5086 0
31.8614 8.98216 0
31.0585 30.2439 0
32.357 29.4916 0
2.5656 33.9075 0
2.55045 30.6332 0
2.61541 40.1475 0
2.56605 42.3261 0
2.57906 12.6544 0
2.56804 14.8191 0
1.52047 27.4777 0
31.4388 32.523 0
4.38214 31.2386 0
27.7049 32.2626 0
32.4494 13.5319 0
1.60855 37.0958 0
1.48745 45.5196 0
1.48745 18.0196 0
1.60635 9.59723 0
2.34476 7.82251 0
11.7998 32.5768 0
30.7403 31.1245 0
8.94178 31.3747 0
8.72871 30.5421 0
2.32748 35.4188 0
32.4699 21.9837 0
3.65226 34.6554 0
3.70315 33.6173 0
8.96174 32.2626 0
32.4585 3.99035 0
33.4807 22.4511 0
32.5068 23.0086 0
26.2782 33.0619 0
1.51441 4.46038 0
1.52811 31.9616 0
32.0205 30.1559 0
4.66087 33.0368 0
3.33539 31.1115 0
1.7269 52.267 0
2.34508 10.1546 0
14.9216 31.9776 0
32.4095 31.589 0
31.6914 13.1593 0
2.34748 37.6561 0
27.2019 32.9429 0
9.80489 32.5323 0
29.4029 31.5263 0
32.3802 14.8429 0
31.4824 31.9927 0
5.65102 33.0095 0
17.7612 33.254 0
2.59694 23.3936 0
2.59986 50.8899 0
4.25738 35.4972 0
17.4916 34.2275 0
2.54331 22.0391 0
2.54334 49.5389 0
32.446 5.46499 0
10.7798 32.9957 0
3.65869 29.8158 0
9.76932 32.9705 0
3.26112 3.66431 0
31.7537 23.8514 0
25.2429 33.0481 0
33.904 22.7429 0
2.39193 29.2697 0
5.68373 31.517 0
2.20932 46.0056 0
2.20932 18.5056 0
32.8189 8.99901 0
28.2675 32.8685 0
34.2108 8.98008 0
4.17498 33.3289 0
32.7419 29.0812 0
31.3921 4.34028 0
3.64517 50.6805 0
3.6451 23.1824 0
31.3906 22.4663 0
3.6302 5.18685 0
6.15079 33.2382 0
33.475 4.45873 0
1.51466 50.5302 0
1.51501 23.0294 0
18.7436 32.243 0
19.5282 34.2573 0
1.81305 11.187 0
33.1521 16.326 0
1.81349 38.6884 0
29.372 32.5403 0
18.0169 32.896 0
12.8208 32.5715 0
30.3292 32.5041 0
13.8718 32.5578 0
32.6608 31.1679 0
2.94867 35.3865 0
5.65131 32.484 0
31.2095 31.0839 0
3.57232 31.4938 0
31.4601 30.5483 0
2.81614 31.0977 0
1.81855 42.706 0
1.81866 15.2054 0
31.0878 32.2266 0
6.56034 32.9268 0
18.008 33.6187 0
1.71742 52.619 0
2.83266 34.3839 0
2.83175 33.4228 0
2.80764 41.8416 0
2.8156 14.3168 0
12.3031 32.2933 0
24.8922 32.244 0
32.4799 23.4823 0
4.87646 31.3227 0
7.66152 31.9022 0
14.3979 32.2648 0
31.4277 12.6987 0
8.69606 31.7833 0
32.5054 22.4584 0
31.5538 31.4549 0
32.4158 13.9259 0
28.1551 32.1069 0
9.42248 32.2739 0
32.0501 14.3277 0
29.3818 31.9908 0
3.35751 22.8147 0
3.35783 50.3132 0
31.6592 4.72159 0
3.35717 4.80218 0
31.7666 22.7367 0
28.4676 32.4322 0
32.4911 4.45363 0
32.0806 31.1942 0
5.66505 31.9665 0
2.81857 13.1474 0
2.94047 40.6616 0
32.4929 4.99464 0
2.46927 22.5111 0
2.46945 50.0103 0
28.9211 32.2504 0
3.88654 22.7694 0
3.88669 50.2688 0
31.1267 4.74446 0
29.8515 32.2505 0
2.38405 50.4763 0
2.38318 22.9776 0
3.89169 4.77716 0
30.9952 22.7424 0
13.3404 32.285 0
3.2961 33.3827 0
2.0433 32.2533 0
32.9778 4.7385 0
1.98362 4.73686 0
1.98867 50.2416 0
1.98843 22.7418 0
1.09853 32.2519 0
33.8999 4.74974 0
1.09291 4.74881 0
1.09368 50.2463 0
1.09401 22.746 0
32.5871 9.84886 0
0.799836 26.9975 0
3.37599 42.7437 0
3.37736 15.2411 0
4.64717 32.4658 0
0.788021 17.5008 0
0.788021 45.0008 0
30.33 31.9583 0
31.4346 13.565 0
3.79558 15.1698 0
3.7938 42.6715 0
6.59982 32.4662 0
32.3907 30.6616 0
2.56501 33.0368 0
31.1795 13.1504 0
31.6475 12.2327 0
3.29899 34.3762 0
28.3283 31.6618 0
2.83493 22.8955 0
2.83575 50.3934 0
32.1077 4.7131 0
2.82806 4.87082 0
32.1371 22.7349 0
12.8182 32.0057 0
6.13021 32.2185 0
33.4753 5.03541 0
2.55951 31.9609 0
1.52857 32.5445 0
2.46642 4.49071 0
1.50878 5.02797 0
1.51295 49.9575 0
1.51302 22.4574 0
28.5552 32.0254 0
2.55528 13.932 0
2.55343 41.4614 0
7.36564 32.1816 0
3.32371 14.2991 0
3.30921 41.8199 0
3.3219 40.4898 0
3.58295 42.2771 0
3.58886 14.7712 0
3.67278 33.0875 0
31.6644 14.4976 0
30.7112 32.2173 0
4.63427 31.8182 0
5.164 32.1917 0
4.11023 32.1969 0
28.0602 32.4975 0
3.57986 31.9545 0
6.60283 31.9473 0
3.83305 14.3014 0
3.81792 41.804 0
33.1902 30.2574 0
31.2237 12.3063 0
2.57387 5.36139 0
2.53447 4.0214 0
2.55671 31.4782 0
2.56349 32.5477 0
2.5565 13.5398 0
2.58226 41.0675 0
3.61449 32.5263 0
6.98376 32.2015 0
13.8695 31.99 0
3.08005 32.2504 0
31.3875 23.0124 0
31.4239 5.1468 0
3.58115 49.8688 0
3.58098 22.3693 0
3.54343 41.4026 0
3.58128 13.8971 0
2.77729 5.77265 0
2.37264 4.96015 0
3.25928 13.1649 0
4.32759 14.2756 0
4.31824 41.7733 0
1.81777 20.7433 0
1.81777 48.2433 0
33.1707 6.7626 0
33.4857 2.29098 0
17.8479 30.3662 0
1.79422 30.2858 0
2.20406 8.13202 0
18.8838 30.3589 0
20.5257 34.2718 0
30.7516 13.126 0
17.3098 31.1186 0
0.805001 36.4413 0
0.805369 8.94318 0
27.8026 30.2679 0
19.7644 30.3793 0
21.7584 30.2842 0
20.9081 30.3467 0
5.21968 29.1888 0
21.5284 34.2787 0
2.22764 9.8564 0
2.23142 37.3566 0
33.4675 34.308 0
1.91868 29.1806 0
3.61449 4.38491 0
22.5033 34.2999 0
23.4508 34.1801 0
2.37565 2.81946 0
1.68872 2.28505 0
31.646 30.9992 0
17.1225 30.3806 0
3.7991 56.6061 0
4.1073 56.3092 0
3.031 56.8298 0
4.35217 56.0131 0
4.32405 55.5405 0
3.50819 56.8528 0
2.95213 56.2244 0
2.94082 55.6707 0
3.74011 55.4548 0
3.72 56.2286 0
3.4025 56.4402 0
3.31711 55.405 0
3.94137 55.9076 0
3.43058 55.9045 0

CELLS 4904 19616
3 491 23 24 
3 493 26 27 
3 493 492 26 
3 20 1 21 
3 494 20 21 
3 498 24 25 
3 500 493 496 
3 494 21 22 
3 497 23 491 
3 500 492 493 
3 493 27 28 
3 27 2 28 
3 502 31 499 
3 499 18 495 
3 503 495 501 
3 31 0 17 
3 495 19 494 
3 501 494 497 
3 492 25 26 
3 496 493 29 
3 493 28 29 
3 496 29 30 
3 494 19 20 
3 497 494 22 
3 503 501 500 
3 495 18 19 
3 503 502 499 
3 500 498 492 
3 497 22 23 
3 501 497 491 
3 498 491 24 
3 498 25 492 
3 499 31 17 
3 499 17 18 
3 503 496 502 
3 500 491 498 
3 501 495 494 
3 501 491 500 
3 502 496 30 
3 502 30 31 
3 503 500 496 
3 503 499 495 
3 965 28 32 
3 1216 32 33 
3 1215 969 508 
3 2518 1929 1832 
3 2240 514 2110 
3 2488 519 2171 
3 1349 470 471 
3 1349 523 967 
3 968 471 472 
3 1348 519 968 
3 1781 1450 1520 
3 1885 1597 1702 
3 1159 505 1140 
3 1611 505 1431 
3 1929 1611 1710 
3 1710 966 1215 
3 1214 971 512 
3 2152 1994 1802 
3 2592 518 2465 
3 2178 2023 523 
3 1350 970 468 
3 2023 1350 523 
3 1762 969 1214 
3 1213 973 516 
3 2494 517 2333 
3 2469 2301 2373 
3 1647 1392 527 
3 1351 972 466 
3 1392 972 1351 
3 1743 971 1213 
3 1212 40 41 
3 2337 1811 2157 
3 2116 1824 526 
3 1956 1560 1648 
3 1352 974 464 
3 1410 974 1352 
3 1212 516 973 
3 975 42 43 
3 2649 1846 2176 
3 2089 1956 530 
3 2412 1599 1620 
3 1354 461 462 
3 1353 462 463 
3 1211 975 520 
3 977 44 45 
3 2398 2280 529 
3 2286 534 2260 
3 1928 1667 1567 
3 1355 459 460 
3 1355 543 978 
3 1210 977 524 
3 979 46 47 
3 2398 2051 533 
3 2221 1928 538 
3 1538 1477 543 
3 1356 457 458 
3 1356 547 980 
3 1209 979 528 
3 1207 983 536 
3 2429 2187 2348 
3 2095 1937 542 
3 1512 1478 547 
3 1357 455 456 
3 1357 551 982 
3 2358 2198 532 
3 1206 985 540 
3 2186 2030 1857 
3 2230 546 2095 
3 2612 551 2583 
3 1358 453 454 
3 2647 984 1358 
3 2579 2187 536 
3 1205 987 544 
3 2162 2004 1820 
3 2521 2420 2310 
3 2167 2010 555 
3 1360 986 450 
3 1359 984 555 
3 1774 985 1205 
3 1204 989 548 
3 2147 1989 1797 
3 2632 2607 553 
3 1631 1451 559 
3 1361 988 448 
3 986 449 450 
3 1752 987 1204 
3 1203 1202 552 
3 2326 1795 2145 
3 2419 2296 2364 
3 1630 1452 563 
3 1362 990 446 
3 988 447 448 
3 1739 989 1203 
3 991 59 60 
3 2395 1818 2160 
3 2074 1951 562 
3 1659 1488 567 
3 1984 1793 1724 
3 1488 948 990 
3 1202 991 552 
3 992 61 62 
3 2500 1855 2183 
3 2075 1960 566 
3 1671 571 1548 
3 942 442 941 
3 1763 581 942 
3 1921 1730 588 
3 2248 622 2118 
3 2435 2266 656 
3 2194 2053 689 
3 2194 690 2053 
3 1368 216 217 
3 1368 690 216 
3 1367 218 219 
3 1699 1490 1572 
3 2433 2263 2386 
3 1944 592 1731 
3 1577 1147 1461 
3 1470 1461 1333 
3 2471 1627 624 
3 2263 2061 658 
3 1717 1368 691 
3 1594 691 1490 
3 1490 691 1367 
3 1201 992 556 
3 994 63 64 
3 2183 2029 565 
3 2073 1947 570 
3 2202 575 1983 
3 2119 2007 1922 
3 2046 587 1957 
3 2584 621 2516 
3 2405 2056 2401 
3 2436 689 2392 
3 2436 213 689 
3 1200 994 560 
3 1198 996 568 
3 2363 568 2204 
3 2298 574 2264 
3 2439 2129 579 
3 2251 586 2007 
3 2508 620 2462 
3 2057 1910 654 
3 2401 2207 688 
3 2207 211 688 
3 2347 2184 564 
3 1197 997 572 
3 2396 2052 1901 
3 2519 2410 2272 
3 2440 585 2381 
3 2577 619 2449 
3 2479 1908 1902 
3 958 209 944 
3 1854 944 210 
3 2659 2204 568 
3 1196 998 576 
3 2185 2022 1848 
3 2520 2417 2299 
3 2633 2621 2619 
3 2617 2425 2526 
3 1587 957 958 
3 1788 997 1196 
3 1195 999 582 
3 2159 2001 1813 
3 2636 2630 2599 
3 2331 2206 684 
3 1684 1491 685 
3 2665 207 718 
3 1587 1491 957 
3 1770 998 1195 
3 1194 1000 615 
3 2600 2563 616 
3 2629 2307 2512 
3 2206 2065 684 
3 2665 1683 950 
3 2665 950 206 
3 1747 999 1194 
3 1193 76 77 
3 2325 1800 2150 
3 2418 2279 2408 
3 2070 1946 1713 
3 962 947 204 
3 1722 962 950 
3 1193 615 1000 
3 1001 78 79 
3 2653 1829 2165 
3 2208 1946 716 
3 1673 1598 1623 
3 1222 1003 203 
3 947 5 204 
3 1192 1001 648 
3 1002 80 81 
3 2670 1891 2192 
3 1920 1673 726 
3 1695 1585 730 
3 1223 1005 201 
3 1003 202 203 
3 1191 1002 681 
3 1004 82 83 
3 2192 2042 725 
3 1913 1695 730 
3 1934 1640 1543 
3 1224 1007 199 
3 1005 200 201 
3 1190 1004 714 
3 1188 1008 728 
3 2423 2195 2355 
3 2122 1934 734 
3 1518 1387 739 
3 1225 1009 197 
3 1007 198 199 
3 2341 2193 724 
3 1187 1010 732 
3 2196 2044 1892 
3 2111 1814 738 
3 1839 743 1782 
3 1227 751 1011 
3 1009 196 197 
3 2574 2195 728 
3 1186 1012 736 
3 2166 2009 1833 
3 2239 742 2111 
3 2489 747 2170 
3 2024 1228 751 
3 1227 194 195 
3 1778 1010 1186 
3 1185 1014 740 
3 2153 1995 1803 
3 2591 746 2464 
3 2179 2024 751 
3 1393 1015 1229 
3 1228 1013 192 
3 1759 1012 1185 
3 1184 1016 744 
3 2495 745 2334 
3 2468 2300 2374 
3 1649 1393 755 
3 1406 1017 1230 
3 1229 1015 190 
3 1744 1014 1184 
3 1183 95 96 
3 2338 1812 2158 
3 2115 1825 754 
3 1955 1558 1650 
3 1231 1019 186 
3 1230 1017 188 
3 1183 744 1016 
3 1018 97 98 
3 2648 1847 2177 
3 2090 1955 758 
3 2413 1600 1621 
3 1232 1021 184 
3 1019 185 186 
3 1182 1018 748 
3 1020 99 100 
3 2397 2281 757 
3 2285 762 2259 
3 1927 1668 1568 
3 1233 1023 182 
3 1021 183 184 
3 1181 1020 752 
3 1022 101 102 
3 2397 2050 761 
3 2222 1927 766 
3 1539 1397 771 
3 1234 1025 180 
3 1023 181 182 
3 1180 1022 756 
3 1178 1026 764 
3 2430 2190 2349 
3 2096 1936 770 
3 1514 1382 775 
3 1235 1027 178 
3 1025 179 180 
3 2360 2199 760 
3 1177 1028 768 
3 2191 2031 1856 
3 2231 774 2096 
3 2613 779 2582 
3 2011 1029 1237 
3 1027 177 178 
3 2578 2190 764 
3 1176 1030 772 
3 2163 2005 1821 
3 2522 2422 2309 
3 2168 2011 783 
3 1380 1031 1238 
3 1237 1236 783 
3 1775 1028 1176 
3 1175 1032 776 
3 2148 1990 1798 
3 2631 2606 781 
3 1634 1380 787 
3 1395 1033 1239 
3 1238 1031 173 
3 1754 1030 1175 
3 1174 1173 780 
3 2328 1799 2149 
3 2421 2292 2365 
3 1633 1395 791 
3 1481 1035 1240 
3 1239 1033 171 
3 1737 1032 1174 
3 1034 114 115 
3 2393 1822 2164 
3 2097 1950 790 
3 1959 1566 1666 
3 1241 1037 167 
3 1240 1035 169 
3 1173 1034 780 
3 1036 116 117 
3 2498 1858 2189 
3 2084 1959 794 
3 1714 1622 1601 
3 1242 1039 165 
3 1037 166 167 
3 1172 1036 784 
3 1038 118 119 
3 2189 2032 793 
3 1912 1714 798 
3 1932 1651 1559 
3 1243 1041 163 
3 1039 164 165 
3 1171 1038 788 
3 1169 1042 796 
3 2357 796 2200 
3 2124 1932 802 
3 1529 1391 807 
3 1244 1043 161 
3 1041 162 163 
3 2350 2188 792 
3 1168 1044 800 
3 2399 2049 1898 
3 2114 1826 806 
3 1851 811 1765 
3 1246 819 1045 
3 1043 160 161 
3 2660 2200 796 
3 1167 1046 804 
3 2175 2019 1845 
3 2243 810 2114 
3 2491 815 2180 
3 2015 1247 819 
3 1246 158 159 
3 1786 1044 1167 
3 1166 1048 808 
3 2156 1998 1810 
3 2601 2565 817 
3 2172 2015 819 
3 1388 1049 1248 
3 1247 1047 156 
3 1769 1046 1166 
3 1165 1050 812 
3 2602 2565 813 
3 2628 2306 2370 
3 1642 1388 823 
3 1400 1051 1249 
3 1248 1049 154 
3 1750 1048 1165 
3 1164 131 132 
3 2330 1801 2151 
3 2109 1815 822 
3 1643 1400 827 
3 1250 1053 150 
3 1249 1051 152 
3 1164 812 1050 
3 1052 133 134 
3 2317 1993 1830 
3 1884 1595 1694 
3 1217 147 148 
3 1053 149 150 
3 1163 1052 816 
3 1054 135 136 
3 1887 1609 1700 
3 1219 829 1057 
3 1218 146 147 
3 1162 1054 820 
3 1056 137 138 
3 1411 1220 1057 
3 1219 144 145 
3 1161 1056 824 
3 1708 1160 828 
3 1221 141 142 
3 1367 691 218 
3 1059 220 221 
3 1690 1384 1565 
3 2523 2503 626 
3 1663 1553 593 
3 1335 1060 428 
3 1437 1059 692 
3 1061 222 223 
3 1687 1376 1557 
3 2561 2505 627 
3 1679 1589 594 
3 1336 1062 426 
3 1061 693 222 
3 1063 224 225 
3 1682 1374 1552 
3 2380 2254 629 
3 1696 1613 595 
3 1337 424 425 
3 1063 694 224 
3 1065 226 227 
3 1677 1372 1547 
3 2254 2055 629 
3 1938 1783 1711 
3 1067 1066 422 
3 1067 423 1064 
3 1434 1065 695 
3 1068 228 229 
3 1675 663 1547 
3 2211 630 2063 
3 2068 597 1942 
3 1070 1069 420 
3 1070 421 1066 
3 1433 1068 696 
3 2652 230 231 
3 2655 232 233 
3 2662 234 235 
3 2664 236 237 
3 2663 701 1257 
3 1756 702 1256 
3 703 242 243 
3 704 244 245 
3 705 246 247 
3 706 248 249 
3 2661 707 1251 
3 949 253 719 
3 946 256 8 
3 1614 1486 836 
3 2072 838 2067 
3 1550 1444 847 
3 1302 368 369 
3 1302 851 1071 
3 1072 369 370 
3 1301 847 1072 
3 2249 1975 838 
3 1916 1896 1729 
3 1727 832 1576 
3 1605 1492 719 
3 2054 1906 708 
3 2534 2426 674 
3 2457 1859 1657 
3 1472 1459 1341 
3 1073 404 405 
3 1074 406 407 
3 1075 408 409 
3 2673 1074 1338 
3 1865 1661 636 
3 2101 1861 670 
3 1593 1489 703 
3 1255 241 242 
3 1288 257 258 
3 1656 1549 1402 
3 2137 1964 846 
3 1526 1467 851 
3 1303 366 367 
3 1303 855 1077 
3 1261 1112 308 
3 1078 309 310 
3 1293 311 312 
3 1413 1292 1079 
3 1439 1291 1080 
3 1289 1081 939 
3 1328 320 321 
3 1327 1083 935 
3 1709 1082 1327 
3 1326 1325 931 
3 1864 1646 1525 
3 2593 925 2544 
3 2181 2026 920 
3 1390 1086 1267 
3 1266 1085 920 
3 2026 1084 1266 
3 1265 301 302 
3 2173 924 2017 
3 2214 2108 1973 
3 1930 1610 1709 
3 2078 1831 1646 
3 1831 1758 931 
3 1407 1109 1268 
3 1267 1086 297 
3 1652 1390 916 
3 2113 1827 917 
3 2650 1844 2174 
3 1087 332 333 
3 1321 1087 333 
3 1088 334 335 
3 1321 1088 915 
3 1319 1318 907 
3 1705 1606 906 
3 2234 2132 1961 
3 1516 1383 896 
3 1273 1092 285 
3 1090 286 287 
3 1273 1090 892 
3 1091 288 289 
3 1670 1482 1569 
3 2482 2291 2287 
3 1897 1785 911 
3 2048 1886 2041 
3 2041 1886 1705 
3 2012 1106 1275 
3 1092 284 285 
3 2587 2455 2581 
3 2323 2141 1978 
3 1863 1645 1522 
3 1457 1093 891 
3 1314 1093 346 
3 1094 347 348 
3 1313 1094 348 
3 1313 1119 887 
3 2499 1574 1878 
3 2087 1971 2060 
3 1715 1618 1602 
3 1280 1097 272 
3 1095 273 274 
3 1280 1095 868 
3 1278 1104 876 
3 1540 876 1396 
3 2233 882 2098 
3 1988 1796 887 
3 2394 1819 2161 
3 1819 1751 883 
3 1281 1102 270 
3 1097 271 272 
3 1931 1654 1562 
3 2125 1931 869 
3 2045 1703 1604 
3 1468 1098 867 
3 1307 1098 359 
3 1099 360 361 
3 1306 1099 361 
3 1412 1306 1123 
3 2443 2404 858 
3 2525 2444 854 
3 1655 1386 848 
3 1402 1124 1287 
3 1286 1101 848 
3 1386 1100 1286 
3 1285 1144 852 
3 2637 2560 2490 
3 2438 2321 1974 
3 1563 1458 863 
3 1868 1664 1535 
3 1535 1412 859 
3 1282 1103 268 
3 1102 269 270 
3 1531 1394 864 
3 2133 2112 865 
3 1876 1685 1563 
3 2136 2112 1963 
3 2321 2136 1974 
3 2182 856 2027 
3 1103 267 268 
3 1853 860 1764 
3 1764 1394 1531 
3 1483 1096 1278 
3 1277 1105 880 
3 1515 880 1381 
3 2460 2311 886 
3 2033 1522 891 
3 2252 2146 890 
3 1396 1104 1277 
3 1276 1106 884 
3 1838 885 1637 
3 2427 2323 1978 
3 2533 2427 890 
3 1381 1105 1276 
3 1275 1274 888 
3 2581 2455 889 
3 2169 2012 888 
3 1272 1091 896 
3 1107 290 291 
3 1603 1569 904 
3 2282 2258 2092 
3 1844 1768 915 
3 2255 2018 1897 
3 1271 1107 900 
3 1108 292 293 
3 1653 1561 1407 
3 2276 2229 2113 
3 2092 1954 913 
3 1270 1108 904 
3 1268 1109 295 
3 1530 912 1390 
3 1954 1561 1653 
3 1265 920 1085 
3 1110 303 304 
3 1780 1389 1519 
3 1883 1596 1701 
3 1290 938 1080 
3 1610 938 1438 
3 1264 1110 924 
3 1111 305 306 
3 1644 1401 1545 
3 1291 937 1079 
3 1596 937 1439 
3 1263 1111 928 
3 1112 307 308 
3 1413 1079 937 
3 1545 1401 936 
3 1758 1083 1326 
3 1113 326 327 
3 2493 926 2034 
3 2470 2303 2375 
3 2026 1852 916 
3 1414 1325 1113 
3 1114 328 329 
3 2335 1809 2155 
3 2375 2244 917 
3 1324 1114 927 
3 1115 330 331 
3 1809 1746 919 
3 1323 1115 923 
3 2484 1886 911 
3 1415 1318 1116 
3 1879 1692 1573 
3 2134 2099 1961 
3 2626 1383 1516 
3 1116 339 340 
3 1317 903 1116 
3 1869 1672 1542 
3 2319 1967 2141 
3 1316 1117 342 
3 1416 1316 1118 
3 1542 1416 895 
3 1315 1118 344 
3 1312 1119 350 
3 1417 1120 879 
3 1791 1691 1607 
3 1911 1715 873 
3 1618 868 1494 
3 1120 352 353 
3 1310 879 1120 
3 1792 1706 1617 
3 2316 1911 1965 
3 1121 354 355 
3 1309 875 1121 
3 1617 1445 871 
3 1122 356 357 
3 1305 1123 363 
3 1304 1077 855 
3 2047 1526 1880 
3 2137 2103 1964 
3 1952 1549 1656 
3 1486 1076 1288 
3 1287 1124 259 
3 1125 371 372 
3 1300 839 1125 
3 1616 1615 841 
3 2079 833 1896 
3 2383 720 1966 
3 1970 709 1933 
3 2552 2537 2501 
3 2483 1626 641 
3 1473 1462 1342 
3 1126 402 403 
3 1127 373 374 
3 1299 840 1127 
3 2210 1704 1591 
3 2448 2416 2277 
3 2509 2434 710 
3 2580 2504 2556 
3 1866 643 1660 
3 1474 1463 1343 
3 1128 375 376 
3 1297 377 378 
3 2203 2013 1835 
3 2585 2506 2545 
3 2461 2320 2424 
3 1873 644 1678 
3 1584 1464 1344 
3 1129 378 379 
3 1757 1129 1296 
3 2154 1996 1804 
3 2313 679 1980 
3 1872 645 1693 
3 1580 1465 1329 
3 1130 380 381 
3 1741 1130 1295 
3 1979 1524 1914 
3 2062 1953 1871 
3 1418 1132 1330 
3 1131 382 383 
3 1294 680 1131 
3 1720 1485 1373 
3 1378 945 1133 
3 1578 1157 1465 
3 1133 391 1132 
3 943 11 384 
3 963 647 954 
3 2669 1373 940 
3 2669 389 955 
3 386 387 614 
3 1134 410 411 
3 2672 1152 1427 
3 1874 1680 635 
3 2083 1903 669 
3 1571 1385 702 
3 1256 239 240 
3 1135 412 413 
3 2666 1151 1426 
3 1882 1697 634 
3 2082 1907 668 
3 1564 1377 701 
3 1257 237 238 
3 1136 414 415 
3 2656 1150 1425 
3 1889 1712 633 
3 2081 1915 667 
3 1556 1375 700 
3 1258 235 236 
3 1137 416 417 
3 2497 1149 1424 
3 2043 1712 1890 
3 2080 1925 666 
3 1551 1371 699 
3 1259 233 234 
3 1138 419 1069 
3 2038 1148 1423 
3 2502 2389 2463 
3 2064 1940 665 
3 1546 1370 698 
3 1260 231 232 
3 1469 1460 1332 
3 2473 2458 624 
3 2377 2246 657 
3 2106 2053 1895 
3 1895 690 1717 
3 1480 1419 1366 
3 1420 1145 1331 
3 1968 623 1877 
3 2530 2387 655 
3 2441 623 2253 
3 1498 1480 964 
3 1498 956 588 
3 2118 1628 1730 
3 1730 1628 1508 
3 1405 588 956 
3 1405 956 439 
3 941 442 443 
3 1139 473 474 
3 1347 515 1139 
3 1641 1399 1544 
3 1363 506 1142 
3 1159 31 30 
3 1141 476 477 
3 1345 1141 477 
3 1421 1142 506 
3 1363 483 0 
3 1143 478 479 
3 1365 480 481 
3 1284 852 1144 
3 1284 265 266 
3 2028 1101 1285 
3 1597 506 1479 
3 1544 1399 507 
3 2372 2110 1972 
3 2110 510 1972 
3 1520 1450 511 
3 1832 1762 512 
3 2171 519 2016 
3 2342 2171 1840 
3 1802 1743 516 
3 2371 2342 514 
3 2603 2571 520 
3 2551 521 2469 
3 2639 2554 2539 
3 1811 1749 524 
3 2274 2241 525 
3 1849 526 1647 
3 1846 1772 528 
3 2274 2226 2116 
3 1527 531 1392 
3 1900 1789 532 
3 2280 2260 2089 
3 1648 1560 1410 
3 2429 2198 536 
3 2480 2289 2286 
3 1599 1567 539 
3 2030 540 1857 
3 2220 2086 541 
3 1667 1476 1567 
3 1857 1774 544 
3 2230 2095 545 
3 1632 1477 1538 
3 1820 1752 548 
3 2420 2294 549 
3 2583 1478 1512 
3 2327 552 2326 
3 2607 2521 2310 
3 2641 2624 2610 
3 1987 1795 556 
3 2419 2312 557 
3 1836 558 1631 
3 1818 1753 560 
3 2212 561 2074 
3 1511 563 1451 
3 1855 1776 564 
3 2271 2213 2074 
3 1536 567 1452 
3 2428 2184 568 
3 2456 2215 2075 
3 1548 571 1488 
3 2052 572 1901 
3 2288 2264 2073 
3 1983 1793 1947 
3 2262 2119 580 
3 1721 941 951 
3 961 951 444 
3 1901 1788 576 
3 2507 2410 578 
3 2376 1983 574 
3 942 581 441 
3 1331 436 437 
3 1332 1146 434 
3 1422 993 1334 
3 1333 1147 432 
3 2467 1423 1138 
3 2038 1424 1137 
3 2497 1425 1136 
3 2656 1426 1135 
3 2666 1427 1134 
3 1338 407 408 
3 1339 405 406 
3 1341 401 402 
3 1342 399 400 
3 1343 397 398 
3 1344 395 396 
3 1329 394 13 
3 1848 1770 582 
3 2417 2272 583 
3 2381 585 2129 
3 2007 586 1922 
3 1957 587 1773 
3 1509 590 1420 
3 1505 591 1460 
3 1867 626 1663 
3 1731 1503 1627 
3 1581 1453 1335 
3 1428 1062 1336 
3 1583 1454 1337 
3 1429 1066 1067 
3 1430 1069 1070 
3 2389 2197 599 
3 2197 2043 1890 
3 1612 601 1425 
3 1588 602 1426 
3 1554 603 1427 
3 1661 1533 603 
3 1862 1639 637 
3 2476 1658 1506 
3 2445 1510 1658 
3 1510 607 1459 
3 1517 605 1456 
3 1506 606 1455 
3 1507 608 1462 
3 1504 609 1463 
3 1534 610 1464 
3 1555 611 1465 
3 1590 612 1418 
3 1871 612 1693 
3 1373 614 940 
3 1813 1747 615 
3 2586 2520 2299 
3 2614 2562 617 
3 2485 2251 585 
3 2462 2046 2391 
3 2516 1921 2492 
3 2458 2246 2377 
3 2386 2263 658 
3 2385 2263 625 
3 1875 627 1679 
3 1881 628 1696 
3 1888 629 1711 
3 1942 1783 1938 
3 2102 1942 630 
3 2245 2117 1940 
3 2130 2080 633 
3 2216 2081 634 
3 2217 2082 635 
3 2218 2083 636 
3 2236 2101 637 
3 2237 2101 670 
3 2524 2384 638 
3 2403 2265 2071 
3 2324 2144 1981 
3 2426 1981 674 
3 2402 2101 2237 
3 2384 2265 639 
3 2403 2071 2144 
3 2605 2543 2534 
3 2501 643 1866 
3 2504 644 1873 
3 2515 2424 644 
3 2140 646 2062 
3 1524 1379 647 
3 2447 648 2325 
3 2599 2563 649 
3 2621 2510 651 
3 2619 2617 2577 
3 2546 652 2479 
3 2622 2584 2597 
3 2527 2405 655 
3 2596 1690 660 
3 2635 2505 2561 
3 2453 2254 2380 
3 2379 2254 662 
3 1939 663 1675 
3 1674 1546 665 
3 1676 1371 1551 
3 1681 1375 1556 
3 1686 1377 1564 
3 1689 1385 1571 
3 1698 1489 1593 
3 1718 1593 1497 
3 1905 1728 1500 
3 1904 1733 1499 
3 1941 1734 1719 
3 1909 1767 1906 
3 2590 1909 1906 
3 1728 1718 1497 
3 1905 1500 1733 
3 1904 1499 1734 
3 2066 1719 1909 
3 2459 2054 2143 
3 2378 676 2143 
3 2676 711 2545 
3 2454 679 2313 
3 1804 1741 680 
3 1800 1745 681 
3 2418 2307 682 
3 2450 2206 2331 
3 1794 684 1790 
3 1784 685 1587 
3 1766 686 944 
3 2056 1910 687 
3 2436 2392 2407 
3 1384 692 1059 
3 1376 693 1061 
3 1374 694 1063 
3 1372 695 1065 
3 1369 696 1068 
3 1254 243 244 
3 1253 245 246 
3 1499 1252 706 
3 1719 1251 707 
3 953 250 251 
3 949 252 253 
3 1725 1492 709 
3 1969 1933 1605 
3 2511 2509 710 
3 2585 2277 712 
3 1835 1757 713 
3 1829 1760 714 
3 2478 2297 715 
3 2472 2332 716 
3 1683 1586 717 
3 1723 1716 959 
3 1723 952 832 
3 1966 1834 1727 
3 2486 2416 2079 
3 1591 1440 723 
3 1891 1779 724 
3 2267 2209 2069 
3 1713 726 1623 
3 2423 2193 728 
3 2127 2058 1920 
3 1623 1598 1502 
3 2044 732 1892 
3 2121 2107 1913 
3 1624 1487 1585 
3 1892 1778 736 
3 2390 2224 2094 
3 1640 1403 1543 
3 1833 1759 740 
3 2278 2239 2111 
3 1782 1387 1518 
3 1803 1744 744 
3 2369 2340 742 
3 2170 747 2014 
3 2604 2572 748 
3 2550 749 2468 
3 2640 2553 2538 
3 1812 1748 752 
3 2273 2242 753 
3 1850 754 1649 
3 1847 1771 756 
3 2273 2227 2115 
3 1528 759 1393 
3 1899 1787 760 
3 2281 2259 2090 
3 1650 1558 1406 
3 2430 2199 764 
3 2481 2290 2285 
3 1600 1568 767 
3 2031 768 1856 
3 2223 2085 769 
3 1668 1484 1568 
3 1856 1775 772 
3 2231 2096 773 
3 1635 1397 1539 
3 1821 1754 776 
3 2422 2293 777 
3 2582 1382 1514 
3 2329 780 2328 
3 2606 2522 2309 
3 2642 2623 2609 
3 1991 1799 784 
3 2421 2308 785 
3 1837 786 1634 
3 1822 1755 788 
3 2232 789 2097 
3 1513 791 1380 
3 1858 1777 792 
3 2268 2219 2097 
3 1537 795 1395 
3 2431 2188 796 
3 2059 797 1912 
3 1666 1566 1481 
3 2049 800 1898 
3 2123 2105 1912 
3 1622 803 1496 
3 1898 1786 804 
3 2432 2228 2091 
3 1651 1408 1559 
3 1845 1769 808 
3 2275 2243 2114 
3 1765 1391 1529 
3 1810 1750 812 
3 2643 2627 814 
3 2180 815 2025 
3 2446 816 2330 
3 2594 818 2541 
3 2671 2559 2541 
3 1801 1742 820 
3 2674 2317 2126 
3 1841 822 1642 
3 1830 1761 824 
3 2674 2109 2238 
3 1521 827 1388 
3 1609 828 1411 
3 1595 829 1466 
3 1575 1432 831 
3 1625 843 1608 
3 1625 1501 843 
3 1896 833 1729 
3 1615 1441 835 
3 959 255 952 
3 1614 836 1549 
3 1924 1735 1894 
3 1894 1735 837 
3 1948 1688 1592 
3 1592 1443 839 
3 1616 1442 840 
3 2072 1948 838 
3 1523 844 1386 
3 2201 2028 852 
3 2028 1843 848 
3 2076 1550 1893 
3 2139 850 2076 
3 2595 2542 857 
3 2444 2404 854 
3 2247 855 2047 
3 2490 856 2182 
3 1654 1409 1562 
3 2133 866 1963 
3 1604 1468 867 
3 1958 1570 1669 
3 1669 1570 1483 
3 2060 874 1965 
3 1607 1446 875 
3 2261 1962 2131 
3 2261 1949 2098 
3 1574 1417 879 
3 1636 1396 880 
3 1637 1381 884 
3 2460 2295 2368 
3 1541 1398 900 
3 1638 1398 1541 
3 2134 898 1967 
3 1573 1447 899 
3 2225 1926 905 
3 2132 902 1961 
3 1606 1415 903 
3 1926 1670 1569 
3 2414 1603 1619 
3 2287 909 2258 
3 2487 924 2173 
3 2638 2555 2540 
3 2564 2549 2544 
3 2598 2569 923 
3 2322 2138 1977 
3 2442 1977 926 
3 1525 1414 927 
3 1842 928 1780 
3 1519 1389 932 
3 2108 933 1973 
3 28 2 32 
3 1158 29 965 
3 1431 1158 504 
3 140 3 141 
3 1160 139 1058 
3 1161 136 137 
3 1162 134 135 
3 1163 132 133 
3 1164 1163 816 
3 1165 130 1050 
3 1166 128 1048 
3 1167 126 1046 
3 1168 124 1044 
3 1169 122 1042 
3 1170 120 1040 
3 1171 117 118 
3 1172 115 116 
3 1173 113 114 
3 1174 113 1173 
3 1175 111 1032 
3 1176 109 1030 
3 1177 107 1028 
3 1178 105 1026 
3 1179 103 1024 
3 1180 100 101 
3 1181 98 99 
3 1182 96 97 
3 1183 1182 748 
3 1184 94 1016 
3 1185 92 1014 
3 1186 90 1012 
3 1187 88 1010 
3 1188 86 1008 
3 1189 84 1006 
3 1190 81 82 
3 1191 79 80 
3 1192 77 78 
3 1193 1192 648 
3 1194 75 1000 
3 1195 73 999 
3 1196 71 998 
3 1197 69 997 
3 1198 67 996 
3 1199 65 995 
3 1200 62 63 
3 1201 60 61 
3 1202 58 59 
3 1203 58 1202 
3 1204 56 989 
3 1205 54 987 
3 1206 52 985 
3 1207 50 983 
3 1208 48 981 
3 1209 45 46 
3 1210 43 44 
3 1211 41 42 
3 1212 1211 520 
3 1213 39 973 
3 1214 37 971 
3 1215 35 969 
3 1216 966 504 
3 149 4 150 
3 1217 148 1053 
3 1432 1218 1217 
3 1219 1057 144 
3 1220 142 143 
3 1221 1220 828 
3 1222 203 5 
3 1223 201 202 
3 1224 199 200 
3 1225 197 198 
3 1226 195 196 
3 1227 1226 747 
3 1228 193 1011 
3 1229 191 1013 
3 1230 189 1015 
3 1231 187 1017 
3 1232 184 185 
3 1233 182 183 
3 1234 180 181 
3 1235 178 179 
3 1236 176 177 
3 1237 176 1236 
3 1238 174 1029 
3 1239 172 1031 
3 1240 170 1033 
3 1241 168 1035 
3 1242 165 166 
3 1243 163 164 
3 1244 161 162 
3 1245 159 160 
3 1246 1245 815 
3 1247 157 1045 
3 1248 155 1047 
3 1249 153 1049 
3 1250 151 1051 
3 1854 210 6 
3 944 209 210 
3 957 207 208 
3 962 204 205 
3 1251 249 7 
3 1252 247 248 
3 1253 246 705 
3 1254 244 704 
3 1255 242 703 
3 1756 1256 240 
3 2663 1257 238 
3 1258 236 700 
3 2662 1259 234 
3 1260 232 698 
3 2677 230 697 
3 1433 228 1068 
3 1434 226 1065 
3 1435 224 694 
3 1436 222 693 
3 1437 220 1059 
3 217 218 691 
3 215 216 690 
3 213 214 689 
3 211 212 688 
3 952 255 256 
3 1404 253 254 
3 960 251 252 
3 960 953 251 
3 310 9 311 
3 1261 308 309 
3 1262 306 307 
3 1263 304 305 
3 1264 302 303 
3 1265 1264 924 
3 1266 300 1085 
3 1267 298 1084 
3 1268 296 1086 
3 1269 294 1109 
3 1270 291 292 
3 1271 289 290 
3 1272 287 288 
3 1273 285 286 
3 1274 283 284 
3 1275 283 1274 
3 1276 281 1106 
3 1277 279 1105 
3 1278 277 1104 
3 1279 275 1096 
3 1280 272 273 
3 1281 270 271 
3 1282 268 269 
3 1283 266 267 
3 1284 1283 856 
3 1285 264 1144 
3 1286 262 1101 
3 1287 260 1100 
3 1288 258 1124 
3 319 10 320 
3 1289 318 1081 
3 1438 1289 939 
3 1439 1080 938 
3 1292 312 313 
3 1293 1292 936 
3 1294 1131 383 
3 1295 382 1131 
3 1296 380 1130 
3 1297 378 1129 
3 1440 1298 1297 
3 1441 1299 1128 
3 1442 1127 840 
3 1443 1125 839 
3 1444 1072 847 
3 1303 1077 366 
3 1304 364 365 
3 1305 363 364 
3 1306 361 362 
3 1307 359 360 
3 1308 1122 357 
3 1445 1309 1122 
3 1446 1121 875 
3 1311 351 352 
3 1312 350 351 
3 1313 348 349 
3 1314 346 347 
3 1315 344 345 
3 1316 342 343 
3 1447 1317 1117 
3 1318 338 339 
3 1319 338 1318 
3 1320 336 1089 
3 1321 333 334 
3 1322 331 332 
3 1323 329 330 
3 1324 327 328 
3 1325 325 326 
3 1326 325 1325 
3 1327 323 1083 
3 1328 1082 939 
3 954 943 384 
3 963 954 385 
3 940 387 388 
3 955 390 945 
3 945 390 12 
3 1329 1157 394 
3 1330 393 1157 
3 964 438 14 
3 1331 1145 436 
3 1332 435 1145 
3 1333 433 1146 
3 1334 431 1147 
3 1335 429 993 
3 1336 427 1060 
3 1337 1064 424 
3 2672 1448 1075 
3 2673 1449 1074 
3 1340 1126 403 
3 1341 1153 401 
3 1342 1154 399 
3 1343 1155 397 
3 1344 1156 395 
3 948 445 15 
3 961 445 948 
3 1405 440 581 
3 479 16 480 
3 1345 477 478 
3 1346 475 476 
3 1450 1346 511 
3 2016 1139 515 
3 1349 968 519 
3 1350 469 967 
3 1351 467 970 
3 1352 465 972 
3 1353 463 974 
3 1354 976 461 
3 1355 978 459 
3 1356 980 457 
3 1357 982 455 
3 1358 984 453 
3 1359 452 984 
3 1360 450 451 
3 1361 448 449 
3 1362 446 447 
3 1363 1142 483 
3 1364 481 482 
3 1365 1364 507 
3 1076 946 8 
3 440 441 581 
3 940 614 387 
3 2669 388 389 
3 942 941 580 
3 951 941 443 
3 1763 942 580 
3 942 441 442 
3 954 384 385 
3 1379 1294 943 
3 1766 944 687 
3 958 944 686 
3 1986 1133 1132 
3 955 945 613 
3 1501 946 843 
3 1501 952 946 
3 1502 947 962 
3 1222 947 731 
3 990 948 15 
3 1984 948 571 
3 1492 949 719 
3 1725 949 1492 
3 1985 1808 1722 
3 950 205 206 
3 1724 1721 951 
3 951 443 444 
3 952 256 946 
3 1834 1716 1723 
3 1767 953 708 
3 2661 953 707 
3 963 385 386 
3 954 647 943 
3 2669 613 1373 
3 955 389 390 
3 956 14 439 
3 1405 439 440 
3 957 718 207 
3 958 957 208 
3 958 208 209 
3 1587 685 1491 
3 1716 1404 959 
3 959 254 255 
3 960 708 953 
3 960 252 949 
3 961 444 445 
3 1793 571 1671 
3 962 205 950 
3 1502 962 727 
3 963 386 614 
3 1485 963 614 
3 1480 1366 964 
3 964 14 956 
3 1158 965 504 
3 965 29 28 
3 1216 504 965 
3 966 33 34 
3 2023 970 1350 
3 967 469 470 
3 1348 472 473 
3 2554 1349 519 
3 1710 1611 504 
3 969 35 36 
3 1392 1351 527 
3 970 467 468 
3 1762 1214 512 
3 971 37 38 
3 1410 1352 531 
3 972 465 466 
3 1743 1213 516 
3 973 39 40 
3 1353 974 535 
3 974 463 464 
3 1210 975 43 
3 1749 975 1210 
3 1476 1355 976 
3 976 460 461 
3 1209 977 45 
3 1772 977 1209 
3 1477 1356 978 
3 978 458 459 
3 1208 981 532 
3 1789 979 1208 
3 1478 1357 980 
3 980 456 457 
3 1789 1208 532 
3 981 48 49 
3 2647 551 2624 
3 982 454 455 
3 2358 536 2198 
3 983 50 51 
3 2010 1359 555 
3 984 452 453 
3 2579 540 2187 
3 985 52 53 
3 1451 986 559 
3 1451 1361 986 
3 1774 1205 544 
3 987 54 55 
3 1452 988 563 
3 1452 1362 988 
3 1752 1204 548 
3 989 56 57 
3 990 15 446 
3 1488 990 567 
3 1201 991 60 
3 1740 991 1201 
3 1200 992 62 
3 1753 992 1200 
3 1453 1060 1335 
3 993 429 430 
3 1199 995 564 
3 1776 994 1199 
3 1776 1199 564 
3 995 65 66 
3 2347 568 2184 
3 996 67 68 
3 2659 572 2204 
3 997 69 70 
3 1788 1196 576 
3 998 71 72 
3 1770 1195 582 
3 999 73 74 
3 1747 1194 615 
3 1000 75 76 
3 1191 1001 79 
3 1745 1001 1191 
3 1190 1002 81 
3 1760 1002 1190 
3 1487 1003 1222 
3 1223 1003 735 
3 1189 1006 724 
3 1779 1004 1189 
3 1403 1005 1223 
3 1224 1005 739 
3 1779 1189 724 
3 1006 84 85 
3 1387 1007 1224 
3 1225 1007 743 
3 2341 728 2193 
3 1008 86 87 
3 2014 1009 1225 
3 1226 1009 747 
3 2574 732 2195 
3 1010 88 89 
3 2024 1013 1228 
3 1011 193 194 
3 1778 1186 736 
3 1012 90 91 
3 1393 1229 755 
3 1013 191 192 
3 1759 1185 740 
3 1014 92 93 
3 1406 1230 759 
3 1015 189 190 
3 1744 1184 744 
3 1016 94 95 
3 1493 1231 763 
3 1017 187 188 
3 1181 1018 98 
3 1748 1018 1181 
3 1493 1019 1231 
3 1232 1019 767 
3 1180 1020 100 
3 1771 1020 1180 
3 1484 1021 1232 
3 1233 1021 771 
3 1179 1024 760 
3 1787 1022 1179 
3 1397 1023 1233 
3 1234 1023 775 
3 1787 1179 760 
3 1024 103 104 
3 1382 1025 1234 
3 1235 1025 779 
3 2360 764 2199 
3 1026 105 106 
3 2646 779 2623 
3 2646 1236 1027 
3 2578 768 2190 
3 1028 107 108 
3 1380 1238 787 
3 1029 174 175 
3 1775 1176 772 
3 1030 109 110 
3 1395 1239 791 
3 1031 172 173 
3 1754 1175 776 
3 1032 111 112 
3 1481 1240 795 
3 1033 170 171 
3 1172 1034 115 
3 1738 1034 1172 
3 1241 1035 799 
3 1035 168 169 
3 1171 1036 117 
3 1755 1036 1171 
3 1496 1037 1241 
3 1242 1037 803 
3 1170 1040 792 
3 1777 1038 1170 
3 1408 1039 1242 
3 1243 1039 807 
3 1777 1170 792 
3 1040 120 121 
3 1391 1041 1243 
3 1244 1041 811 
3 2350 796 2188 
3 1042 122 123 
3 2025 1043 1244 
3 1245 1043 815 
3 2660 800 2200 
3 1044 124 125 
3 2015 1047 1247 
3 1045 157 158 
3 1786 1167 804 
3 1046 126 127 
3 1388 1248 823 
3 1047 155 156 
3 1769 1166 808 
3 1048 128 129 
3 1400 1249 827 
3 1049 153 154 
3 1750 1165 812 
3 1050 130 131 
3 1250 1051 831 
3 1051 151 152 
3 1162 1052 134 
3 1742 1052 1162 
3 1217 1053 831 
3 1053 148 149 
3 1161 1054 136 
3 1761 1054 1161 
3 1466 1055 830 
3 1055 145 146 
3 1160 1058 828 
3 1708 828 1609 
3 1411 1057 829 
3 1057 143 144 
3 1058 139 140 
3 1058 140 141 
3 1436 1059 221 
3 1436 1384 1059 
3 1582 1428 1336 
3 1060 427 428 
3 1435 1061 223 
3 1435 1376 1061 
3 1454 1064 1337 
3 1062 425 426 
3 1434 1063 225 
3 1434 1374 1063 
3 1579 1429 1067 
3 1064 423 424 
3 1433 1065 227 
3 1433 1372 1065 
3 1919 1430 1070 
3 1066 421 422 
3 1067 422 423 
3 1579 1064 1454 
3 2677 1068 229 
3 2677 1369 1068 
3 2467 1138 1069 
3 1069 419 420 
3 1070 420 421 
3 1919 1070 1066 
3 1467 1303 1071 
3 1071 367 368 
3 1301 370 371 
3 1444 1302 1072 
3 1471 1455 1340 
3 1455 1126 1340 
3 1449 1339 1074 
3 1456 1073 1339 
3 1152 409 410 
3 1448 1338 1075 
3 1076 843 946 
3 1076 8 257 
3 2477 1304 855 
3 1077 365 366 
3 1261 1078 936 
3 1078 310 311 
3 1079 313 314 
3 1291 314 315 
3 1080 315 316 
3 1290 316 317 
3 1081 318 319 
3 1081 319 320 
3 1328 939 1081 
3 1082 321 322 
3 1709 1610 939 
3 1083 323 324 
3 1390 1267 916 
3 1084 298 299 
3 2026 1266 920 
3 1085 300 301 
3 1407 1268 912 
3 1086 296 297 
3 1768 1087 1321 
3 1322 1087 919 
3 1320 1089 911 
3 1785 1088 1320 
3 1785 1320 911 
3 1089 336 337 
3 1272 1090 287 
3 1383 1090 1272 
3 1271 1091 289 
3 1398 1091 1271 
3 2657 892 2587 
3 1274 1092 888 
3 1457 1315 1093 
3 1093 345 346 
3 1736 1094 1313 
3 1314 1094 891 
3 1279 1095 274 
3 1494 1095 1279 
3 1279 1096 872 
3 1096 275 276 
3 1409 1097 1280 
3 1281 1097 864 
3 1308 871 1122 
3 1098 358 359 
3 1458 1099 863 
3 1458 1307 1099 
3 1402 1287 844 
3 1100 260 261 
3 1386 1286 848 
3 1101 262 263 
3 1394 1102 1281 
3 1282 1102 860 
3 2027 1103 1282 
3 1283 1103 856 
3 1483 1278 876 
3 1104 277 278 
3 1396 1277 880 
3 1105 279 280 
3 1381 1276 884 
3 1106 281 282 
3 1270 1107 291 
3 1482 1107 1270 
3 1269 1109 908 
3 1495 1108 1269 
3 1495 1269 908 
3 1109 294 295 
3 1263 1110 304 
3 2017 1110 1263 
3 1262 1111 306 
3 1389 1111 1262 
3 1401 1112 1261 
3 1262 1112 932 
3 1324 1113 327 
3 1414 1113 927 
3 1323 1114 329 
3 2569 1114 923 
3 1322 1115 331 
3 1746 1115 1322 
3 1317 340 341 
3 1415 1116 903 
3 1117 341 342 
3 1447 1117 899 
3 1118 343 344 
3 1416 1118 895 
3 1119 349 350 
3 1751 1119 1312 
3 1310 353 354 
3 1417 1311 1120 
3 1309 355 356 
3 1446 1310 1121 
3 1308 357 358 
3 1445 1122 871 
3 1123 362 363 
3 1412 1123 859 
3 1288 1124 836 
3 1124 258 259 
3 1300 372 373 
3 1443 1301 1125 
3 1459 1153 1341 
3 1340 403 404 
3 1299 374 375 
3 1442 1300 1127 
3 1298 376 377 
3 1441 1128 835 
3 1296 1130 713 
3 1297 1129 723 
3 1295 1131 680 
3 1757 1296 713 
3 1294 383 11 
3 1741 1295 680 
3 1986 1378 1133 
3 1132 391 392 
3 1133 945 12 
3 1133 12 391 
3 1151 411 412 
3 1427 1152 1134 
3 1150 413 414 
3 1426 1151 1135 
3 1149 415 416 
3 1425 1150 1136 
3 1148 417 418 
3 1424 1149 1137 
3 1423 1148 1138 
3 1138 418 419 
3 1347 474 475 
3 2016 1348 1139 
3 1479 1363 1140 
3 1140 0 31 
3 1399 1141 1345 
3 1346 1141 511 
3 1421 1364 1142 
3 1142 482 483 
3 1345 1143 507 
3 1143 479 480 
3 2028 1285 852 
3 1144 264 265 
3 1460 1146 1332 
3 1145 435 436 
3 1461 1147 1333 
3 1146 433 434 
3 1577 1422 1334 
3 1147 431 432 
3 1148 1137 417 
3 1148 418 1138 
3 1149 1136 415 
3 1149 416 1137 
3 1150 1135 413 
3 1150 414 1136 
3 1151 1134 411 
3 1151 412 1135 
3 1152 1075 409 
3 1152 410 1134 
3 1462 1154 1342 
3 1153 400 401 
3 1463 1155 1343 
3 1154 398 399 
3 1464 1156 1344 
3 1155 396 397 
3 1465 1157 1329 
3 1156 13 395 
3 1578 1418 1330 
3 1157 393 394 
3 1431 1159 1158 
3 1158 30 29 
3 1159 1140 31 
3 1159 30 1158 
3 1160 1056 138 
3 1160 138 139 
3 1161 137 1056 
3 1761 1161 824 
3 1162 135 1054 
3 1742 1162 820 
3 1163 133 1052 
3 2570 1164 816 
3 1164 1050 131 
3 1164 132 1163 
3 1165 1048 129 
3 1165 129 130 
3 1166 1046 127 
3 1166 127 128 
3 1167 1044 125 
3 1167 125 126 
3 1168 1042 123 
3 1168 123 124 
3 1169 1040 121 
3 1169 121 122 
3 1170 1038 119 
3 1170 119 120 
3 1171 118 1038 
3 1755 1171 788 
3 1172 116 1036 
3 1738 1172 784 
3 1173 114 1034 
3 1737 1174 780 
3 1174 1032 112 
3 1174 112 113 
3 1175 1030 110 
3 1175 110 111 
3 1176 1028 108 
3 1176 108 109 
3 1177 1026 106 
3 1177 106 107 
3 1178 1024 104 
3 1178 104 105 
3 1179 1022 102 
3 1179 102 103 
3 1180 101 1022 
3 1771 1180 756 
3 1181 99 1020 
3 1748 1181 752 
3 1182 97 1018 
3 2572 1183 748 
3 1183 1016 95 
3 1183 96 1182 
3 1184 1014 93 
3 1184 93 94 
3 1185 1012 91 
3 1185 91 92 
3 1186 1010 89 
3 1186 89 90 
3 1187 1008 87 
3 1187 87 88 
3 1188 1006 85 
3 1188 85 86 
3 1189 1004 83 
3 1189 83 84 
3 1190 82 1004 
3 1760 1190 714 
3 1191 80 1002 
3 1745 1191 681 
3 1192 78 1001 
3 2568 1193 648 
3 1193 1000 76 
3 1193 77 1192 
3 1194 999 74 
3 1194 74 75 
3 1195 998 72 
3 1195 72 73 
3 1196 997 70 
3 1196 70 71 
3 1197 996 68 
3 1197 68 69 
3 1198 995 66 
3 1198 66 67 
3 1199 994 64 
3 1199 64 65 
3 1200 63 994 
3 1753 1200 560 
3 1201 61 992 
3 1740 1201 556 
3 1202 59 991 
3 1739 1203 552 
3 1203 989 57 
3 1203 57 58 
3 1204 987 55 
3 1204 55 56 
3 1205 985 53 
3 1205 53 54 
3 1206 983 51 
3 1206 51 52 
3 1207 981 49 
3 1207 49 50 
3 1208 979 47 
3 1208 47 48 
3 1209 46 979 
3 1772 1209 528 
3 1210 44 977 
3 1749 1210 524 
3 1211 42 975 
3 2571 1212 520 
3 1212 973 40 
3 1212 41 1211 
3 1213 971 38 
3 1213 38 39 
3 1214 969 36 
3 1214 36 37 
3 1215 966 34 
3 1215 34 35 
3 1216 965 32 
3 1216 33 966 
3 1432 1217 831 
3 1218 830 1055 
3 1218 1055 146 
3 1218 147 1217 
3 1219 145 1055 
3 1466 1219 1055 
3 1220 143 1057 
3 1221 828 1058 
3 1221 1058 141 
3 1221 142 1220 
3 1222 5 947 
3 1487 1222 731 
3 1223 202 1003 
3 1403 1223 735 
3 1224 200 1005 
3 1387 1224 739 
3 1225 198 1007 
3 2014 1225 743 
3 1226 196 1009 
3 2553 1227 747 
3 1227 1011 194 
3 1227 195 1226 
3 1228 192 193 
3 1228 1011 751 
3 1229 190 191 
3 1229 1013 755 
3 1230 188 189 
3 1230 1015 759 
3 1231 186 187 
3 1231 1017 763 
3 1232 185 1019 
3 1484 1232 767 
3 1233 183 1021 
3 1397 1233 771 
3 1234 181 1023 
3 1382 1234 775 
3 1235 179 1025 
3 2646 1235 779 
3 1236 177 1027 
3 2011 1237 783 
3 1237 1029 175 
3 1237 175 176 
3 1238 173 174 
3 1238 1029 787 
3 1239 171 172 
3 1239 1031 791 
3 1240 169 170 
3 1240 1033 795 
3 1241 167 168 
3 1496 1241 799 
3 1242 166 1037 
3 1408 1242 803 
3 1243 164 1039 
3 1391 1243 807 
3 1244 162 1041 
3 2025 1244 811 
3 1245 160 1043 
3 2559 1246 815 
3 1246 1045 158 
3 1246 159 1245 
3 1247 156 157 
3 1247 1045 819 
3 1248 154 155 
3 1248 1047 823 
3 1249 152 153 
3 1249 1049 827 
3 1250 150 151 
3 1250 831 1053 
3 1251 706 249 
3 2661 1251 7 
3 1252 705 247 
3 1252 248 706 
3 1500 1253 705 
3 1253 704 245 
3 1497 1254 704 
3 1254 703 243 
3 1489 1255 703 
3 1756 1255 702 
3 1385 1256 702 
3 2663 1256 701 
3 1377 1257 701 
3 2664 1257 1377 
3 1375 1258 700 
3 2662 1258 1375 
3 1371 1259 699 
3 2655 1259 1371 
3 1370 1260 698 
3 2652 1260 1370 
3 1261 309 1078 
3 1401 1261 936 
3 1262 307 1112 
3 1389 1262 932 
3 1263 305 1111 
3 2017 1263 928 
3 1264 303 1110 
3 2555 1265 924 
3 1265 1085 301 
3 1265 302 1264 
3 1266 1084 299 
3 1266 299 300 
3 1267 297 298 
3 1267 1084 916 
3 1268 295 296 
3 1268 1086 912 
3 1269 1108 293 
3 1269 293 294 
3 1270 292 1108 
3 1482 1270 904 
3 1271 290 1107 
3 1398 1271 900 
3 1272 288 1091 
3 1383 1272 896 
3 1273 286 1090 
3 2657 1273 892 
3 1274 284 1092 
3 2012 1275 888 
3 1275 1106 282 
3 1275 282 283 
3 1276 1105 280 
3 1276 280 281 
3 1277 1104 278 
3 1277 278 279 
3 1278 1096 276 
3 1278 276 277 
3 1279 274 275 
3 1494 1279 872 
3 1280 273 1095 
3 1409 1280 868 
3 1281 271 1097 
3 1394 1281 864 
3 1282 269 1102 
3 2027 1282 860 
3 1283 267 1103 
3 2560 1284 856 
3 1284 1144 265 
3 1284 266 1283 
3 1285 1101 263 
3 1285 263 264 
3 1286 1100 261 
3 1286 261 262 
3 1287 259 260 
3 1287 1100 844 
3 1486 1288 836 
3 1288 1076 257 
3 1438 1290 1289 
3 1289 317 318 
3 1290 1080 316 
3 1290 317 1289 
3 1291 1079 314 
3 1291 315 1080 
3 1293 936 1078 
3 1292 313 1079 
3 1293 1078 311 
3 1293 312 1292 
3 1294 11 943 
3 1379 943 647 
3 1295 1130 381 
3 1295 381 382 
3 1296 1129 379 
3 1296 379 380 
3 1440 1297 723 
3 1298 835 1128 
3 1298 1128 376 
3 1298 377 1297 
3 1299 1127 374 
3 1299 375 1128 
3 1300 1125 372 
3 1300 373 1127 
3 1301 1072 370 
3 1301 371 1125 
3 1302 1071 368 
3 1302 369 1072 
3 1303 367 1071 
3 1467 1071 851 
3 1305 1304 859 
3 1304 365 1077 
3 1305 364 1304 
3 1305 859 1123 
3 1306 362 1123 
3 1306 863 1099 
3 1307 360 1099 
3 1307 867 1098 
3 1308 358 1098 
3 1468 1308 1098 
3 1309 1121 355 
3 1309 356 1122 
3 1310 1120 353 
3 1310 354 1121 
3 1312 1311 883 
3 1311 352 1120 
3 1312 351 1311 
3 1751 1312 883 
3 1313 349 1119 
3 1736 1313 887 
3 1314 347 1094 
3 1314 891 1093 
3 1315 345 1093 
3 1315 895 1118 
3 1316 343 1118 
3 1316 899 1117 
3 1317 1116 340 
3 1317 341 1117 
3 1318 339 1116 
3 2484 907 1886 
3 1319 1089 337 
3 1319 337 338 
3 1320 1088 335 
3 1320 335 336 
3 1321 334 1088 
3 1768 1321 915 
3 1322 332 1087 
3 1746 1322 919 
3 1323 330 1115 
3 1323 923 1114 
3 1324 328 1114 
3 1324 927 1113 
3 1325 326 1113 
3 1758 1326 931 
3 1326 1083 324 
3 1326 324 325 
3 1327 1082 322 
3 1327 322 323 
3 1328 1081 320 
3 1328 321 1082 
3 1329 13 1156 
3 1580 1156 1464 
3 1330 1132 392 
3 1330 392 393 
3 1366 1331 437 
3 1419 1331 1366 
3 1332 434 435 
3 1469 1145 1420 
3 1333 432 433 
3 1470 1146 1460 
3 1334 993 430 
3 1334 430 431 
3 1335 428 429 
3 1581 993 1422 
3 1336 426 427 
3 1582 1060 1453 
3 1337 425 1062 
3 1583 1062 1428 
3 1338 1074 407 
3 1338 408 1075 
3 1339 1073 405 
3 1339 406 1074 
3 1340 404 1073 
3 1471 1073 1456 
3 1341 402 1126 
3 1472 1126 1455 
3 1342 400 1153 
3 1473 1153 1459 
3 1343 398 1154 
3 1474 1154 1462 
3 1344 396 1155 
3 1584 1155 1463 
3 1345 478 1143 
3 1399 1345 507 
3 1346 476 1141 
3 1450 1347 1346 
3 1347 1139 474 
3 1347 475 1346 
3 1348 968 472 
3 1348 473 1139 
3 1349 967 470 
3 1349 471 968 
3 1350 468 469 
3 1350 967 523 
3 1351 466 467 
3 1351 970 527 
3 1352 464 465 
3 1352 972 531 
3 1475 1353 535 
3 1475 1354 1353 
3 1354 539 976 
3 1354 462 1353 
3 1355 460 976 
3 1476 976 539 
3 1356 458 978 
3 1477 978 543 
3 1357 456 980 
3 1478 980 547 
3 1358 454 982 
3 2647 982 551 
3 2010 1360 1359 
3 1359 451 452 
3 1360 451 1359 
3 1360 559 986 
3 1361 449 986 
3 1361 563 988 
3 1362 447 988 
3 1362 567 990 
3 1363 0 1140 
3 1479 1140 505 
3 1365 507 1143 
3 1364 482 1142 
3 1365 1143 480 
3 1365 481 1364 
3 1366 437 438 
3 1366 438 964 
3 1437 1367 219 
3 1490 1367 692 
3 1368 217 691 
3 1717 691 1594 
3 2658 1369 697 
3 1675 1547 1369 
3 1870 1370 1674 
3 2652 1370 697 
3 1676 1546 1371 
3 2655 1371 698 
3 1547 1372 696 
3 1677 1552 1372 
3 1720 646 1629 
3 1720 1629 1485 
3 1552 1374 695 
3 1682 1557 1374 
3 1681 1551 1375 
3 2662 1375 699 
3 1557 1376 694 
3 1687 1565 1376 
3 1686 1556 1377 
3 2664 1377 700 
3 1871 1378 612 
3 1378 613 945 
3 1629 1524 647 
3 1379 680 1294 
3 1634 1513 1380 
3 1380 791 1031 
3 1637 1515 1381 
3 1381 880 1105 
3 1635 775 1397 
3 1382 779 1025 
3 1638 896 1398 
3 1383 892 1090 
3 1565 1384 693 
3 1690 1572 1384 
3 1689 1564 1385 
3 1385 701 1256 
3 1655 1523 1386 
3 1386 844 1100 
3 1640 1518 739 
3 1387 743 1007 
3 1642 1521 1388 
3 1388 827 1049 
3 1644 932 1401 
3 1389 928 1111 
3 1652 1530 1390 
3 1390 912 1086 
3 1651 1529 807 
3 1391 811 1041 
3 1647 1527 1392 
3 1392 531 972 
3 1649 1528 1393 
3 1393 759 1015 
3 1654 1531 864 
3 1394 860 1102 
3 1633 791 1513 
3 1395 795 1033 
3 1636 880 1515 
3 1396 876 1104 
3 1668 1539 771 
3 1397 775 1023 
3 1670 1541 900 
3 1398 896 1091 
3 1544 507 1421 
3 1399 511 1141 
3 1643 1575 1400 
3 1400 831 1051 
3 1545 936 1413 
3 1401 932 1112 
3 1656 1402 844 
3 1402 836 1124 
3 1543 1403 735 
3 1403 739 1005 
3 1404 719 253 
3 1404 254 959 
3 1773 1405 581 
3 1945 1405 1773 
3 1650 1406 759 
3 1406 763 1017 
3 1653 1407 912 
3 1407 908 1109 
3 1559 1408 803 
3 1408 807 1039 
3 1562 1409 868 
3 1409 864 1097 
3 1648 1410 531 
3 1410 535 974 
3 1609 1411 829 
3 1411 828 1220 
3 2035 1535 859 
3 1412 863 1306 
3 1545 1413 937 
3 1413 936 1292 
3 2034 1525 927 
3 1414 931 1325 
3 1692 1606 903 
3 1415 907 1318 
3 1645 1542 895 
3 1416 899 1316 
3 1691 1574 879 
3 1417 883 1311 
3 1590 1418 1578 
3 1986 1418 612 
3 1509 1419 589 
3 1509 1420 1419 
3 1469 1420 590 
3 1420 1331 1419 
3 1544 1421 506 
3 1421 507 1364 
3 1577 1532 1422 
3 1581 1422 593 
3 2517 598 2463 
3 2038 1423 599 
3 1890 1424 599 
3 2497 1424 600 
3 1612 1425 600 
3 2656 1425 601 
3 1588 1426 601 
3 2666 1426 602 
3 1554 1427 602 
3 2672 1427 603 
3 1589 1428 1582 
3 1583 1428 595 
3 1783 1429 596 
3 1919 1429 597 
3 2068 1430 597 
3 2467 1430 598 
3 1611 1431 504 
3 1431 505 1159 
3 1575 831 1400 
3 1432 830 1218 
3 1433 227 228 
3 1433 696 1372 
3 1434 225 226 
3 1434 695 1374 
3 1435 223 224 
3 1435 694 1376 
3 1436 221 222 
3 1436 693 1384 
3 1437 219 220 
3 1437 692 1367 
3 1610 1438 939 
3 1438 938 1290 
3 1596 1439 938 
3 1439 937 1291 
3 2013 1591 723 
3 1440 835 1298 
3 1704 1615 835 
3 1441 840 1299 
3 1616 840 1615 
3 1442 839 1300 
3 1707 1592 839 
3 1443 847 1301 
3 1688 1550 847 
3 1444 851 1302 
3 1703 1617 871 
3 1445 875 1309 
3 1706 875 1617 
3 1446 879 1310 
3 1672 1573 899 
3 1447 903 1317 
3 1533 1448 603 
3 2673 1448 1533 
3 1517 1449 604 
3 1517 1456 1449 
3 1641 511 1399 
3 1450 515 1347 
3 1631 1511 1451 
3 1451 563 1361 
3 1630 563 1511 
3 1452 567 1362 
3 1581 1553 1453 
3 1582 1453 594 
3 1613 1454 595 
3 1579 1454 596 
3 1506 1455 1471 
3 1472 1455 606 
3 1471 1456 605 
3 1456 1339 1449 
3 1522 1457 891 
3 1457 895 1315 
3 1664 1563 863 
3 1458 867 1307 
3 1510 1459 1472 
3 1473 1459 607 
3 1505 1460 1469 
3 1470 1460 591 
3 1503 1461 1470 
3 1577 1461 592 
3 1507 1462 1473 
3 1474 1462 608 
3 1504 1463 1474 
3 1584 1463 609 
3 1584 1534 1464 
3 1580 1464 610 
3 1580 1555 1465 
3 1578 1465 611 
3 1595 1466 830 
3 1466 829 1219 
3 1662 1526 851 
3 1467 855 1303 
3 1685 1604 867 
3 1468 871 1308 
3 1469 1332 1145 
3 1505 1469 590 
3 1470 1333 1146 
3 1503 1470 591 
3 1471 1340 1073 
3 1506 1471 605 
3 1472 1341 1126 
3 1510 1472 606 
3 1473 1342 1153 
3 1507 1473 607 
3 1474 1343 1154 
3 1504 1474 608 
3 1620 535 1560 
3 1475 539 1354 
3 1567 1476 539 
3 1476 543 1355 
3 1667 1538 543 
3 1477 547 1356 
3 1632 547 1477 
3 1478 551 1357 
3 1597 1479 505 
3 1479 506 1363 
3 1508 1480 1498 
3 1480 589 1419 
3 1666 1481 795 
3 1481 799 1035 
3 1569 1482 904 
3 1482 900 1107 
3 1669 1483 876 
3 1483 872 1096 
3 1568 1484 767 
3 1484 771 1021 
3 1485 647 963 
3 1485 614 1373 
3 1735 1608 1614 
3 1486 843 1076 
3 1585 1487 731 
3 1487 735 1003 
3 1659 567 1536 
3 1488 571 948 
3 1698 1571 1489 
3 1489 702 1255 
3 1572 1490 692 
3 1699 1594 1490 
3 1684 1586 1491 
3 1491 718 957 
3 1716 1605 719 
3 2205 2054 708 
3 1621 763 1558 
3 1493 767 1019 
3 1602 872 1570 
3 1494 868 1095 
3 1619 908 1561 
3 1495 904 1108 
3 1601 799 1566 
3 1496 803 1037 
3 1497 703 1254 
3 1728 1497 704 
3 1498 964 956 
3 1508 1498 588 
3 1499 705 1252 
3 1734 1499 706 
3 1500 704 1253 
3 1733 1500 705 
3 1729 1576 1625 
3 1501 832 952 
3 1623 1502 727 
3 1502 731 947 
3 1503 592 1461 
3 1627 1503 591 
3 1626 1504 608 
3 1732 1504 1626 
3 1665 1505 590 
3 1860 1627 591 
3 1726 1506 605 
3 2476 1506 1726 
3 1657 1507 607 
3 1859 1626 608 
3 1508 589 1480 
3 1730 1508 588 
3 1628 1509 589 
3 1877 1665 590 
3 1658 1510 606 
3 2445 1657 1510 
3 1805 1511 1631 
3 1630 1536 1452 
3 2575 546 2366 
3 2612 550 2610 
3 1806 1513 1634 
3 1633 1537 1395 
3 2576 774 2367 
3 2613 778 2609 
3 1807 1515 1637 
3 1636 1540 1396 
3 2588 897 2319 
3 2626 2529 892 
3 1639 1517 604 
3 1862 1726 1517 
3 1814 1518 738 
3 1814 1782 1518 
3 1817 1519 933 
3 1817 1780 1519 
3 1816 1520 510 
3 1816 1781 1520 
3 1815 1521 1642 
3 1694 1643 826 
3 2033 1863 1522 
3 1522 895 1457 
3 1823 1523 1655 
3 1656 1523 845 
3 1914 1524 1629 
3 1524 680 1379 
3 2034 1864 1525 
3 1525 931 1414 
3 1880 1526 1662 
3 1526 855 1467 
3 1824 1527 1647 
3 1648 1527 530 
3 1825 1528 1649 
3 1650 1528 758 
3 1826 1529 806 
3 1826 1765 1529 
3 1827 1530 1652 
3 1653 1530 913 
3 1828 1531 865 
3 1828 1764 1531 
3 1867 1663 1532 
3 1532 593 1422 
3 1865 1639 1533 
3 2673 1533 604 
3 1943 609 1732 
3 1866 1660 1534 
3 2035 1868 1535 
3 1535 863 1412 
3 1951 1536 1630 
3 1659 1548 1488 
3 1950 1537 1633 
3 1666 1537 794 
3 1937 1538 542 
3 1937 1632 1538 
3 1936 1539 770 
3 1936 1635 1539 
3 1949 1540 1636 
3 1669 1540 877 
3 1935 1541 901 
3 1935 1638 1541 
3 2315 1542 1645 
3 1542 899 1416 
3 1624 1543 735 
3 1934 1543 734 
3 1917 1544 506 
3 1917 1641 1544 
3 1918 1545 937 
3 1918 1644 1545 
3 1546 698 1371 
3 1940 1674 665 
3 1677 1547 663 
3 1547 696 1369 
3 1960 1548 1659 
3 1671 1548 570 
3 1614 1608 1486 
3 1549 836 1402 
3 1893 1550 1688 
3 1550 851 1444 
3 1551 699 1375 
3 1676 1551 666 
3 1682 1552 662 
3 1552 695 1372 
3 1875 1679 1553 
3 1553 594 1453 
3 1680 1554 602 
3 1874 1661 1554 
3 1660 1555 610 
3 1873 1678 1555 
3 1681 1556 667 
3 1556 700 1377 
3 1557 694 1374 
3 1687 1557 661 
3 1621 1600 1493 
3 1558 763 1406 
3 1622 1496 1601 
3 1932 1559 802 
3 1620 1599 1475 
3 1560 535 1410 
3 1619 1603 1495 
3 1561 908 1407 
3 1618 1494 1602 
3 1931 1562 869 
3 2036 1563 1664 
3 1563 867 1458 
3 1686 1564 668 
3 1564 701 1385 
3 1565 693 1376 
3 1690 1565 660 
3 1601 1566 798 
3 1566 799 1481 
3 1599 539 1475 
3 1928 1567 538 
3 1600 767 1493 
3 1927 1568 766 
3 1603 904 1495 
3 1926 1569 905 
3 1602 1570 873 
3 1570 872 1483 
3 1689 1571 669 
3 1571 702 1489 
3 1572 692 1384 
3 1699 1572 659 
3 2037 1573 1672 
3 1573 903 1447 
3 1878 1574 1691 
3 1574 883 1417 
3 1694 1575 1643 
3 1575 830 1432 
3 1727 1576 833 
3 1576 832 1501 
3 1577 1334 1147 
3 1577 592 1532 
3 1578 1330 1157 
3 1590 1578 611 
3 1579 1067 1064 
3 1579 596 1429 
3 1580 1329 1156 
3 1580 610 1555 
3 1581 1335 993 
3 1581 593 1553 
3 1582 1336 1060 
3 1589 1582 594 
3 1583 1337 1062 
3 1583 595 1454 
3 1584 1344 1155 
3 1584 609 1534 
3 1598 1585 731 
3 1695 1624 1585 
3 1790 1586 1684 
3 1586 718 1491 
3 1587 958 686 
3 1784 1587 686 
3 1697 1588 601 
3 1882 1680 1588 
3 1881 1696 1589 
3 1589 595 1428 
3 1678 1590 611 
3 1872 1693 1590 
3 2210 1591 2013 
3 1591 835 1440 
3 1948 1592 1707 
3 1592 847 1443 
3 1698 1593 670 
3 1593 703 1497 
3 1923 1594 658 
3 1923 1717 1594 
3 1694 1595 830 
3 1884 1700 1595 
3 1701 1596 938 
3 2039 1918 937 
3 1702 1597 505 
3 2040 1917 506 
3 1598 730 1585 
3 1598 731 1502 
3 1620 1475 535 
3 1599 538 1567 
3 1621 1493 763 
3 1600 766 1568 
3 1714 1601 798 
3 1601 1496 799 
3 1715 1602 873 
3 1602 1494 872 
3 1619 1495 908 
3 1603 905 1569 
3 2318 1604 1685 
3 1604 871 1468 
3 1969 1605 720 
3 1933 1492 1605 
3 2100 1606 1692 
3 1606 907 1415 
3 1791 1607 1706 
3 1607 879 1446 
3 1625 1608 842 
3 1608 843 1486 
3 1700 1609 829 
3 1887 1708 1609 
3 1709 939 1082 
3 1930 1701 1610 
3 1710 504 966 
3 1929 1702 1611 
3 1712 1612 600 
3 1889 1697 1612 
3 1888 1711 1613 
3 1613 596 1454 
3 1614 1549 837 
3 1735 1614 837 
3 2256 1982 841 
3 1615 840 1441 
3 2249 841 1975 
3 1616 839 1442 
3 1792 1617 1703 
3 1617 875 1445 
3 1618 869 1562 
3 1618 1562 868 
3 1619 1561 909 
3 2414 1619 909 
3 1620 1560 534 
3 2412 1620 534 
3 1621 1558 762 
3 2413 1621 762 
3 1622 802 1559 
3 1622 1559 803 
3 1713 1623 727 
3 1673 1623 726 
3 1624 734 1543 
3 1624 735 1487 
3 1729 1625 842 
3 1625 1576 1501 
3 1859 608 1507 
3 2483 1732 1626 
3 1860 591 1505 
3 2471 2385 625 
3 1968 1877 1509 
3 1628 589 1508 
3 1914 1629 646 
3 1629 647 1485 
3 1630 1511 562 
3 1951 1630 562 
3 1836 1631 559 
3 1805 1631 558 
3 1632 546 1512 
3 1632 1512 547 
3 1633 1513 790 
3 1950 1633 790 
3 1837 1634 787 
3 1806 1634 786 
3 1635 774 1514 
3 1635 1514 775 
3 1636 1515 881 
3 1949 1636 881 
3 1838 1637 884 
3 1807 1637 885 
3 1638 897 1516 
3 1638 1516 896 
3 1639 604 1533 
3 2402 1862 637 
3 1640 738 1518 
3 1640 739 1403 
3 1641 510 1520 
3 1641 1520 511 
3 1841 1642 823 
3 1815 1642 822 
3 1643 827 1521 
3 1643 1521 826 
3 1644 933 1519 
3 1644 1519 932 
3 1645 895 1522 
3 2315 1869 1542 
3 1646 931 1525 
3 2078 1646 930 
3 1849 1647 527 
3 1824 1647 526 
3 1648 531 1527 
3 1956 1648 530 
3 1850 1649 755 
3 1825 1649 754 
3 1650 759 1528 
3 1955 1650 758 
3 1651 806 1529 
3 1651 807 1408 
3 1852 1652 916 
3 1827 1652 917 
3 1653 912 1530 
3 1954 1653 913 
3 1654 865 1531 
3 1654 864 1409 
3 1843 1655 848 
3 1823 1655 849 
3 1656 844 1523 
3 1952 1656 845 
3 1657 607 1510 
3 2457 1657 640 
3 2445 1658 639 
3 1658 606 1506 
3 1659 1536 566 
3 1960 1659 566 
3 1873 1660 643 
3 1660 610 1534 
3 1661 603 1554 
3 2236 1865 636 
3 1880 1662 850 
3 1662 851 1550 
3 1875 1663 626 
3 1663 593 1532 
3 1664 863 1535 
3 2036 1876 1563 
3 1877 590 1509 
3 2473 623 2458 
3 1666 795 1537 
3 1959 1666 794 
3 1667 542 1538 
3 1667 543 1476 
3 1668 770 1539 
3 1668 771 1484 
3 1669 876 1540 
3 1958 1669 877 
3 1670 901 1541 
3 1670 900 1482 
3 1947 1671 570 
3 1984 1724 961 
3 1672 899 1542 
3 2037 1879 1573 
3 2209 1920 726 
3 1673 730 1598 
3 1870 1674 664 
3 1674 1370 1546 
3 2658 697 1870 
3 1939 1675 664 
3 1925 1676 666 
3 1676 665 1546 
3 2379 1677 663 
3 1677 662 1552 
3 1872 1678 644 
3 1678 611 1555 
3 1881 1679 627 
3 1679 594 1553 
3 1680 602 1588 
3 2218 1874 635 
3 1915 1681 667 
3 1681 666 1551 
3 2453 662 2254 
3 1682 661 1557 
3 1683 718 1586 
3 1985 1722 1683 
3 1794 1684 685 
3 1794 1790 1684 
3 1685 867 1563 
3 2318 2045 1604 
3 1907 1686 668 
3 1686 667 1556 
3 2635 1687 661 
3 1687 660 1565 
3 1893 1688 846 
3 1688 847 1592 
3 1903 1689 669 
3 1689 668 1564 
3 2596 660 2561 
3 1690 659 1572 
3 1878 1691 878 
3 1691 879 1607 
3 1692 903 1573 
3 2100 1692 902 
3 2062 646 1953 
3 1693 612 1590 
3 1694 830 1575 
3 1884 1694 826 
3 2058 730 1920 
3 1695 734 1624 
3 1888 1696 628 
3 1696 595 1589 
3 1697 601 1612 
3 2217 1882 634 
3 1861 1698 670 
3 1698 669 1571 
3 2386 1699 659 
3 1699 658 1594 
3 1700 829 1595 
3 1887 1700 825 
3 1883 1701 934 
3 1701 938 1610 
3 1885 1702 509 
3 1702 505 1611 
3 1703 871 1604 
3 1792 1703 870 
3 1704 835 1591 
3 2256 834 1982 
3 1705 907 1606 
3 2482 2041 906 
3 1791 1706 874 
3 1706 1607 875 
3 1948 1707 838 
3 1707 839 1616 
3 1708 824 1056 
3 1708 1056 1160 
3 1709 1327 935 
3 1930 1709 935 
3 1710 1215 508 
3 1929 1710 508 
3 1938 1711 629 
3 1711 596 1613 
3 1890 1712 600 
3 2216 1889 633 
3 1808 1713 727 
3 2070 1713 1808 
3 2059 1912 798 
3 1714 802 1622 
3 2060 1971 874 
3 1715 869 1618 
3 1716 720 1605 
3 1716 719 1404 
3 1923 1895 1717 
3 1717 690 1368 
3 2237 1718 671 
3 1718 670 1593 
3 1719 706 1251 
3 1909 1719 707 
3 1720 1373 613 
3 1953 613 1871 
3 2466 575 2202 
3 2262 941 1721 
3 1722 727 962 
3 1722 950 1683 
3 1723 959 952 
3 1834 1723 832 
3 1724 575 1721 
3 1724 951 961 
3 1725 708 960 
3 1725 960 949 
3 1726 605 1517 
3 2476 638 2384 
3 2250 1727 833 
3 2250 1966 1727 
3 1728 704 1500 
3 1728 671 1718 
3 1924 1916 842 
3 1729 833 1576 
3 1945 1921 588 
3 2118 1730 621 
3 1944 625 1867 
3 1731 592 1503 
3 1943 642 1866 
3 1732 609 1504 
3 1733 705 1499 
3 1905 1733 672 
3 1734 706 1719 
3 1904 1734 673 
3 2067 1894 837 
3 1735 842 1608 
3 1796 1736 887 
3 1736 891 1094 
3 1798 1737 780 
3 1737 776 1032 
3 1799 1738 784 
3 1738 780 1034 
3 1797 1739 552 
3 1739 548 989 
3 1795 1740 556 
3 1740 552 991 
3 2257 680 1979 
3 1741 713 1130 
3 1993 1801 820 
3 1742 816 1052 
3 2333 1802 516 
3 1743 512 971 
3 2334 1803 744 
3 1744 740 1014 
3 1992 1800 681 
3 1745 648 1001 
3 1997 1809 919 
3 1746 923 1115 
3 2356 1813 615 
3 1747 582 999 
3 2000 1812 752 
3 1748 748 1018 
3 1999 1811 524 
3 1749 520 975 
3 2336 1810 812 
3 1750 808 1048 
3 2003 1819 883 
3 1751 887 1119 
3 1989 1820 548 
3 1752 544 987 
3 2002 1818 560 
3 1753 556 992 
3 1990 1821 776 
3 1754 772 1030 
3 2006 1822 788 
3 1755 784 1036 
3 1756 240 241 
3 1756 241 1255 
3 1996 1835 713 
3 1757 723 1129 
3 1831 931 1646 
3 1758 935 1083 
3 1995 1833 740 
3 1759 736 1012 
3 2008 1829 714 
3 1760 681 1002 
3 1887 1830 824 
3 1761 820 1054 
3 1994 1832 512 
3 1762 508 969 
3 1922 1763 580 
3 1957 1763 1922 
3 1853 1764 861 
3 1764 860 1394 
3 1851 1765 810 
3 1765 811 1391 
3 1910 1766 687 
3 2057 1902 1766 
3 1767 707 953 
3 1906 1767 708 
3 2018 1844 915 
3 1768 919 1087 
3 1998 1845 808 
3 1769 804 1046 
3 2001 1848 582 
3 1770 576 998 
3 2021 1847 756 
3 1771 752 1020 
3 2020 1846 528 
3 1772 524 977 
3 1945 1773 587 
3 1773 581 1763 
3 2004 1857 544 
3 1774 540 985 
3 2005 1856 772 
3 1775 768 1028 
3 2029 1855 564 
3 1776 560 994 
3 2032 1858 792 
3 1777 788 1038 
3 2009 1892 736 
3 1778 732 1010 
3 2042 1891 724 
3 1779 714 1004 
3 1842 1780 929 
3 1780 928 1389 
3 1840 1781 514 
3 1781 515 1450 
3 1839 1782 742 
3 1782 743 1387 
3 1783 597 1429 
3 1783 596 1711 
3 1902 1784 686 
3 1908 1784 1902 
3 2048 2041 910 
3 1785 915 1088 
3 2019 1898 804 
3 1786 800 1044 
3 2050 1899 760 
3 1787 756 1022 
3 2022 1901 576 
3 1788 572 997 
3 2051 1900 532 
3 1789 528 979 
3 2065 1790 684 
3 1790 717 1586 
3 1971 1791 874 
3 1791 878 1691 
3 2060 1965 1911 
3 1792 874 1706 
3 1947 1793 1671 
3 1793 575 1724 
3 1908 1794 685 
3 2425 2331 684 
3 2145 1795 1987 
3 1795 552 1740 
3 2146 1796 1988 
3 1796 891 1736 
3 2327 2326 553 
3 1797 548 1739 
3 2329 2328 781 
3 1798 776 1737 
3 2149 1799 1991 
3 1799 780 1738 
3 2150 1800 1992 
3 1800 648 1745 
3 2151 1801 1993 
3 1801 816 1742 
3 2333 2152 1802 
3 1802 512 1743 
3 2334 2153 1803 
3 1803 740 1744 
3 2257 2154 1804 
3 1804 713 1741 
3 2364 2212 562 
3 1805 562 1511 
3 2365 2232 790 
3 1806 790 1513 
3 2368 2233 881 
3 1807 881 1515 
3 1808 727 1722 
3 2070 716 1946 
3 2155 1809 1997 
3 1809 923 1746 
3 2336 2156 1810 
3 1810 808 1750 
3 2157 1811 1999 
3 1811 520 1749 
3 2158 1812 2000 
3 1812 748 1748 
3 2356 2159 1813 
3 1813 582 1747 
3 2224 2111 738 
3 1814 742 1782 
3 2238 2109 822 
3 1815 826 1521 
3 1972 510 1885 
3 1816 514 1781 
3 1973 933 1883 
3 1817 929 1780 
3 2160 1818 2002 
3 1818 556 1753 
3 2161 1819 2003 
3 1819 887 1751 
3 2513 1820 1989 
3 1820 544 1752 
3 2514 1821 1990 
3 1821 772 1754 
3 2164 1822 2006 
3 1822 784 1755 
3 2139 1964 2103 
3 1823 845 1523 
3 2241 2116 526 
3 1824 530 1527 
3 2242 2115 754 
3 1825 758 1528 
3 2228 2114 806 
3 1826 810 1765 
3 2244 2113 917 
3 1827 913 1530 
3 2133 2093 2128 
3 1828 861 1764 
3 2165 1829 2008 
3 1829 681 1760 
3 2675 2317 1830 
3 1830 820 1761 
3 2651 1930 935 
3 1831 935 1758 
3 2518 2451 2135 
3 1832 508 1762 
3 2339 1833 1995 
3 1833 736 1759 
3 1834 720 1716 
3 1834 832 1727 
3 2625 1835 1996 
3 1835 723 1757 
3 2010 1836 559 
3 2611 2167 2548 
3 2011 1837 787 
3 2645 1837 2168 
3 2012 1838 884 
3 2615 2169 2536 
3 2340 2170 1839 
3 2170 2014 1839 
3 2171 2016 1840 
3 1840 515 1781 
3 2015 1841 823 
3 2474 1841 2172 
3 2343 2322 925 
3 2173 2017 1842 
3 2475 1843 2201 
3 1843 849 1655 
3 2174 1844 2018 
3 1844 919 1768 
3 2345 1845 1998 
3 1845 804 1769 
3 2176 1846 2020 
3 1846 524 1772 
3 2177 1847 2021 
3 1847 752 1771 
3 2362 1848 2001 
3 1848 576 1770 
3 2023 1849 527 
3 2178 526 1849 
3 2024 1850 755 
3 2179 754 1850 
3 2344 2180 1851 
3 2180 2025 1851 
3 2181 917 1852 
3 1852 917 1652 
3 2352 2321 857 
3 2182 2027 1853 
3 2207 1854 6 
3 1854 687 944 
3 2183 1855 2029 
3 1855 560 1776 
3 2354 1856 2005 
3 1856 768 1775 
3 2353 1857 2004 
3 1857 540 1774 
3 2189 1858 2032 
3 1858 788 1777 
3 1859 1507 1657 
3 1859 641 1626 
3 1860 1505 1665 
3 1860 624 1627 
3 2236 2083 1861 
3 1861 669 1698 
3 1862 638 1726 
3 1862 1517 1639 
3 1978 1863 890 
3 1863 894 1645 
3 1977 1864 926 
3 1864 930 1646 
3 1865 637 1639 
3 1865 1533 1661 
3 1943 1866 1534 
3 2501 1866 642 
3 1944 1867 1532 
3 2433 1867 625 
3 1974 1868 858 
3 1868 862 1664 
3 2315 1967 1869 
3 1869 898 1672 
3 2658 1870 664 
3 1870 697 1370 
3 2062 1871 1693 
3 1871 613 1378 
3 1872 1590 1678 
3 2424 1872 644 
3 1873 1555 1660 
3 2504 1873 643 
3 1874 636 1661 
3 1874 1554 1680 
3 1875 1553 1663 
3 2503 1875 626 
3 2036 1963 1876 
3 1876 866 1685 
3 1968 1509 1628 
3 1877 623 1665 
3 1962 1878 878 
3 2499 2003 1574 
3 2037 1961 1879 
3 1879 902 1692 
3 1976 1880 850 
3 2047 1880 854 
3 1881 1589 1679 
3 2505 1881 627 
3 1882 635 1680 
3 1882 1588 1697 
3 1973 1883 934 
3 2039 933 1918 
3 2126 826 2109 
3 1884 825 1700 
3 1972 1885 509 
3 2040 510 1917 
3 2484 911 1089 
3 1886 907 1705 
3 2675 1887 825 
3 1887 824 1708 
3 1888 1613 1696 
3 2380 1888 628 
3 1889 634 1697 
3 1889 1612 1712 
3 1890 600 1424 
3 2197 1890 599 
3 2192 1891 2042 
3 1891 714 1779 
3 2411 1892 2009 
3 1892 732 1778 
3 1964 1893 846 
3 2076 1662 1550 
3 1975 1924 1894 
3 1924 841 1916 
3 2106 1895 657 
3 2266 2053 2106 
3 1982 1896 1916 
3 2079 1896 834 
3 2255 1897 2048 
3 1897 915 1785 
3 2399 1898 2019 
3 1898 800 1786 
3 2397 761 2281 
3 1899 756 1787 
3 2398 533 2280 
3 1900 528 1789 
3 2396 1901 2022 
3 1901 572 1788 
3 1902 686 1766 
3 2479 1902 653 
3 2218 2082 1903 
3 1903 668 1689 
3 2071 1904 673 
3 1904 672 1733 
3 2077 1905 672 
3 1905 671 1728 
3 2205 708 1725 
3 2590 1906 675 
3 2217 2081 1907 
3 1907 667 1686 
3 2526 1908 652 
3 1908 685 1784 
3 2066 1941 1719 
3 1909 707 1767 
3 2207 2056 687 
3 2622 2057 654 
3 1965 874 1792 
3 2104 1715 1911 
3 2123 1912 797 
3 2105 1714 1912 
3 2121 1913 2058 
3 2107 1695 1913 
3 1980 1914 646 
3 1979 1914 679 
3 2216 2080 1915 
3 1915 666 1681 
3 1916 1729 842 
3 1982 1916 841 
3 2040 506 1597 
3 1917 510 1641 
3 2039 937 1596 
3 1918 933 1644 
3 1919 1066 1429 
3 1919 597 1430 
3 2209 2127 1920 
3 1920 730 1673 
3 2492 1921 587 
3 1921 621 1730 
3 2262 580 941 
3 1957 1922 586 
3 2061 1923 658 
3 1923 657 1895 
3 1924 842 1735 
3 1975 1894 838 
3 2496 2130 632 
3 1925 665 1676 
3 2225 2088 1926 
3 1926 901 1670 
3 2222 2085 1927 
3 1927 770 1668 
3 2221 2086 1928 
3 1928 542 1667 
3 1929 508 1832 
3 1929 509 1702 
3 2651 935 1831 
3 1930 934 1701 
3 2125 869 2104 
3 1931 865 1654 
3 2124 802 2105 
3 1932 806 1651 
3 1970 1933 1969 
3 1933 709 1492 
3 2122 734 2107 
3 1934 738 1640 
3 2235 2132 2088 
3 1935 897 1638 
3 2223 2096 770 
3 1936 774 1635 
3 2220 2095 542 
3 1937 546 1632 
3 2055 1938 629 
3 1942 1938 630 
3 2117 1939 664 
3 2211 2063 1939 
3 2245 1940 2064 
3 1940 664 1674 
3 2066 1981 1941 
3 1941 673 1734 
3 2102 2068 1942 
3 1942 597 1783 
3 1943 1534 609 
3 1943 1732 642 
3 1944 1532 592 
3 1944 1731 625 
3 1945 587 1921 
3 1945 588 1405 
3 2208 2069 1946 
3 1946 726 1713 
3 2215 2073 570 
3 1983 1947 574 
3 2142 845 2137 
3 1948 846 1688 
3 2098 882 1962 
3 1949 877 1540 
3 2232 2097 790 
3 1950 794 1537 
3 2212 2074 562 
3 1951 566 1536 
3 2142 2067 1952 
3 1952 837 1549 
3 1953 646 1720 
3 1953 1720 613 
3 2229 2092 913 
3 1954 909 1561 
3 2227 2090 758 
3 1955 762 1558 
3 2226 2089 530 
3 1956 534 1560 
3 2046 1957 586 
3 1957 1773 1763 
3 2131 1971 2087 
3 1958 873 1570 
3 2084 2059 798 
3 1959 798 1566 
3 2213 2075 566 
3 1960 570 1548 
3 2134 1961 898 
3 1961 902 1879 
3 2499 1962 882 
3 2131 878 1971 
3 2136 1963 862 
3 1963 866 1876 
3 2103 845 1823 
3 2139 2076 1964 
3 2316 1792 870 
3 2316 2104 1911 
3 2383 1966 721 
3 1966 720 1834 
3 1967 898 1869 
3 2141 1967 894 
3 1968 1628 622 
3 2253 1968 622 
3 2415 720 2383 
3 1970 1969 710 
3 2434 2378 1970 
3 2378 2143 1970 
3 2087 2060 873 
3 1971 878 1791 
3 2135 1972 509 
3 2372 1972 2135 
3 2214 934 2078 
3 2214 2138 2108 
3 2438 1974 858 
3 1974 862 1868 
3 2249 838 1707 
3 1975 841 1924 
3 2388 1976 2139 
3 1976 854 1880 
3 1977 930 1864 
3 2442 2322 1977 
3 2427 1978 890 
3 1978 894 1863 
3 2257 679 2154 
3 1979 680 1524 
3 2320 2140 645 
3 1980 679 1914 
3 1981 673 1941 
3 2426 2324 1981 
3 2256 841 1615 
3 1982 834 1896 
3 2376 2202 1983 
3 1983 575 1793 
3 1984 961 948 
3 1984 571 1793 
3 1985 1683 717 
3 1985 717 1808 
3 1986 1132 1418 
3 1986 612 1378 
3 2145 1987 557 
3 1987 556 1818 
3 2146 1988 886 
3 1988 887 1819 
3 1989 548 1797 
3 2513 2162 1820 
3 1990 776 1798 
3 2514 2163 1821 
3 2149 1991 785 
3 1991 784 1822 
3 2150 1992 682 
3 1992 681 1829 
3 2151 1993 821 
3 1993 820 1830 
3 1994 512 1802 
3 2451 513 2135 
3 1995 740 1803 
3 2339 2166 1833 
3 1996 713 1804 
3 2625 2203 1835 
3 2155 1997 918 
3 1997 919 1844 
3 1998 808 1810 
3 2345 2175 1845 
3 2157 1999 525 
3 1999 524 1846 
3 2158 2000 753 
3 2000 752 1847 
3 2001 582 1813 
3 2362 2185 1848 
3 2160 2002 561 
3 2002 560 1855 
3 2161 2003 882 
3 2003 883 1574 
3 2004 544 1820 
3 2353 2186 1857 
3 2005 772 1821 
3 2354 2191 1856 
3 2164 2006 789 
3 2006 788 1858 
3 2129 2007 2119 
3 2251 2007 585 
3 2165 2008 715 
3 2008 714 1891 
3 2009 736 1833 
3 2411 2196 1892 
3 2010 559 1360 
3 2641 555 2624 
3 2011 787 1029 
3 2642 783 2623 
3 2012 884 1106 
3 2581 2169 888 
3 2013 723 1835 
3 2210 2013 722 
3 2014 747 1009 
3 2014 743 1839 
3 2015 823 1047 
3 2671 2172 819 
3 2016 519 1348 
3 2016 515 1840 
3 2017 924 1110 
3 2017 928 1842 
3 2174 2018 914 
3 2018 915 1897 
3 2019 804 1845 
3 2399 2019 805 
3 2176 2020 529 
3 2020 528 1900 
3 2177 2021 757 
3 2021 756 1899 
3 2022 576 1848 
3 2396 2022 577 
3 2023 527 970 
3 2639 2178 523 
3 2024 755 1013 
3 2640 2179 751 
3 2025 815 1043 
3 2025 811 1851 
3 2026 916 1084 
3 2638 2181 920 
3 2027 856 1103 
3 2027 860 1853 
3 2028 848 1101 
3 2637 2201 852 
3 2184 2029 564 
3 2346 565 2029 
3 2348 541 2283 
3 2348 2187 2030 
3 2349 769 2284 
3 2349 2190 2031 
3 2188 2032 792 
3 2351 793 2032 
3 2252 891 1796 
3 2033 890 1863 
3 2493 2034 927 
3 2034 926 1864 
3 2443 2247 2404 
3 2035 858 1868 
3 2036 1664 862 
3 2036 862 1963 
3 2037 1672 898 
3 2037 898 1961 
3 2038 599 1424 
3 2038 1137 1148 
3 2039 1596 1883 
3 2039 1883 933 
3 2040 1597 1885 
3 2040 1885 510 
3 2041 1705 906 
3 2255 2048 910 
3 2193 2042 724 
3 2314 2127 725 
3 2130 1925 2080 
3 2043 633 1712 
3 2355 733 2121 
3 2355 2195 2044 
3 2133 2128 866 
3 2045 870 1703 
3 2391 2046 586 
3 2492 2046 2462 
3 2247 2047 854 
3 2047 855 1526 
3 2048 1897 911 
3 2048 911 1886 
3 2357 801 2123 
3 2357 2200 2049 
3 2199 2050 760 
3 2361 761 2050 
3 2198 2051 532 
3 2359 533 2051 
3 2363 573 2288 
3 2363 2204 2052 
3 2194 689 214 
3 2053 690 1895 
3 2205 2143 2054 
3 2054 675 1906 
3 2379 2063 2055 
3 2055 630 1938 
3 2401 2056 2207 
3 2056 654 1910 
3 2057 653 1902 
3 2057 1766 1910 
3 2121 2058 729 
3 2058 1913 730 
3 2084 798 1959 
3 2667 2059 2452 
3 2060 1911 873 
3 2087 873 1958 
3 2385 2377 2061 
3 2061 657 1923 
3 2062 1693 645 
3 2140 2062 645 
3 2063 630 2055 
3 2063 663 1939 
3 2496 665 1925 
3 2245 631 2117 
3 2332 2206 683 
3 2065 717 1790 
3 2066 1909 674 
3 2066 674 1981 
3 2067 838 1894 
3 2067 837 1952 
3 2120 2068 2102 
3 2068 598 1430 
3 2267 2192 725 
3 2069 726 1946 
3 2070 1808 717 
3 2472 2065 2332 
3 2071 672 1904 
3 2144 2071 673 
3 2142 2137 2072 
3 2072 846 1948 
3 2288 2073 569 
3 2264 1947 2073 
3 2500 2271 561 
3 2074 566 1951 
3 2668 2346 569 
3 2075 570 1960 
3 2076 850 1662 
3 2076 1893 1964 
3 2077 671 1905 
3 2265 2077 672 
3 2214 2078 930 
3 2651 2078 934 
3 2486 834 2210 
3 2416 2250 2079 
3 2080 666 1915 
3 2130 633 2043 
3 2081 667 1907 
3 2216 634 1889 
3 2082 668 1903 
3 2217 635 1882 
3 2083 669 1861 
3 2218 636 1874 
3 2219 2084 794 
3 2452 2084 2219 
3 2284 2085 2222 
3 2085 770 1927 
3 2283 2086 2221 
3 2086 542 1928 
3 2087 1958 877 
3 2131 2087 877 
3 2573 2100 2235 
3 2088 901 1926 
3 2280 2089 529 
3 2260 1956 2089 
3 2281 2090 757 
3 2259 1955 2090 
3 2654 2124 801 
3 2091 806 1932 
3 2400 2282 914 
3 2258 1954 2092 
3 2128 2125 870 
3 2093 865 1931 
3 2390 2122 733 
3 2094 738 1934 
3 2353 2270 2186 
3 2095 546 1937 
3 2354 2269 2191 
3 2096 774 1936 
3 2498 2268 789 
3 2097 794 1950 
3 2098 1949 881 
3 2233 2098 881 
3 2099 897 1935 
3 2234 1935 901 
3 2235 902 2132 
3 2100 906 1606 
3 2237 670 1718 
3 2236 637 1865 
3 2382 630 2211 
3 2382 2120 2102 
3 2103 1823 849 
3 2139 2103 849 
3 2316 2125 2104 
3 2104 869 1715 
3 2124 2105 2123 
3 2105 802 1714 
3 2246 2106 657 
3 2266 2106 656 
3 2122 2107 2121 
3 2107 734 1695 
3 2108 929 1817 
3 2108 1817 933 
3 2674 2126 2109 
3 2109 826 1815 
3 2110 514 1816 
3 2110 1816 510 
3 2278 2224 737 
3 2111 742 1814 
3 2112 861 1828 
3 2112 1828 865 
3 2650 2276 918 
3 2113 913 1827 
3 2275 2228 805 
3 2114 810 1826 
3 2648 2273 753 
3 2115 758 1825 
3 2649 2274 525 
3 2116 530 1824 
3 2211 2117 631 
3 2117 664 1940 
3 2248 2118 621 
3 2118 622 1628 
3 2119 1922 580 
3 2129 2119 579 
3 2502 2463 631 
3 2120 598 2068 
3 2355 2121 729 
3 2122 2121 733 
3 2390 733 2196 
3 2122 2094 1934 
3 2357 2123 797 
3 2124 2123 801 
3 2654 2432 2124 
3 2124 2091 1932 
3 2128 870 2045 
3 2125 2093 1931 
3 2126 825 1884 
3 2126 1884 826 
3 2314 725 2042 
3 2127 729 2058 
3 2318 2128 2045 
3 2128 2093 2125 
3 2439 2406 578 
3 2129 585 2007 
3 2130 2043 632 
3 2496 632 2064 
3 2261 2131 877 
3 2131 1962 878 
3 2234 1961 2099 
3 2132 901 2088 
3 2133 1963 2112 
3 2133 865 2093 
3 2319 2134 1967 
3 2134 897 2099 
3 2518 2135 509 
3 2372 2240 2110 
3 2136 862 1974 
3 2136 861 2112 
3 2137 845 2103 
3 2137 846 2072 
3 2138 929 2108 
3 2138 930 1977 
3 2388 2139 849 
3 2139 1976 850 
3 2320 2313 2140 
3 2140 1980 646 
3 2319 2141 893 
3 2141 894 1978 
3 2142 2072 2067 
3 2142 1952 845 
3 2459 2143 676 
3 2143 709 1970 
3 2403 2144 640 
3 2144 673 1981 
3 2312 2145 557 
3 2326 2145 553 
3 2311 2146 886 
3 2252 890 2033 
3 2310 2147 553 
3 2147 549 1989 
3 2309 2148 781 
3 2148 777 1990 
3 2308 2149 785 
3 2328 2149 781 
3 2307 2150 682 
3 2325 2150 649 
3 2306 821 2238 
3 2330 2151 817 
3 2305 2240 513 
3 2152 513 1994 
3 2304 2239 741 
3 2153 741 1995 
3 2506 679 2454 
3 2154 712 1996 
3 2303 918 2244 
3 2335 2155 922 
3 2302 2243 809 
3 2156 809 1998 
3 2301 525 2241 
3 2337 2157 521 
3 2300 753 2242 
3 2338 2158 749 
3 2299 2159 616 
3 2159 583 2001 
3 2296 561 2212 
3 2395 2160 2296 
3 2295 882 2233 
3 2394 2161 2295 
3 2294 2230 545 
3 2162 545 2004 
3 2293 2231 773 
3 2163 773 2005 
3 2292 789 2232 
3 2393 2164 2292 
3 2279 2165 715 
3 2653 2165 2279 
3 2278 741 2239 
3 2166 737 2009 
3 2548 2167 554 
3 2167 1836 2010 
3 2645 2547 786 
3 2168 1837 2011 
3 2536 2169 889 
3 2169 1838 2012 
3 2340 1839 742 
3 2489 2170 746 
3 2342 1840 514 
3 2488 2171 518 
3 2474 818 2370 
3 2172 1841 2015 
3 2343 1842 929 
3 2487 2173 925 
3 2276 914 2229 
3 2650 2174 2276 
3 2275 809 2243 
3 2175 805 2019 
3 2274 529 2226 
3 2649 2176 2274 
3 2273 757 2227 
3 2648 2177 2273 
3 2373 2178 522 
3 2178 1849 2023 
3 2374 2179 750 
3 2179 1850 2024 
3 2344 1851 810 
3 2491 2180 814 
3 2375 2181 921 
3 2181 1852 2026 
3 2352 1853 861 
3 2490 2182 857 
3 2271 2183 565 
3 2500 2183 2271 
3 2347 564 995 
3 2428 2346 2184 
3 2362 2272 2185 
3 2185 577 2022 
3 2270 545 2095 
3 2186 541 2030 
3 2579 536 983 
3 2187 540 2030 
3 2350 792 1040 
3 2431 2351 2188 
3 2268 2189 793 
3 2498 2189 2268 
3 2578 764 1026 
3 2190 768 2031 
3 2269 773 2096 
3 2191 769 2031 
3 2267 725 2209 
3 2670 2192 2267 
3 2341 724 1006 
3 2423 2314 2193 
3 2194 214 215 
3 2194 215 690 
3 2574 728 1008 
3 2195 732 2044 
3 2411 2390 2196 
3 2196 733 2044 
3 2517 2463 2389 
3 2197 632 2043 
3 2358 532 981 
3 2429 2359 2198 
3 2360 760 1024 
3 2430 2361 2199 
3 2660 796 1042 
3 2200 800 2049 
3 2475 853 2388 
3 2201 1843 2028 
3 2406 2202 2376 
3 2466 579 2262 
3 2625 2277 2203 
3 2203 722 2013 
3 2659 568 996 
3 2204 572 2052 
3 2205 1725 709 
3 2205 709 2143 
3 2425 684 1794 
3 2408 2332 683 
3 2207 687 1854 
3 2207 6 211 
3 2297 2279 715 
3 2478 2267 2069 
3 2209 726 2069 
3 2209 725 2127 
3 2486 2210 722 
3 2210 834 1704 
3 2211 1939 2117 
3 2382 2211 631 
3 2364 562 1805 
3 2364 2296 2212 
3 2456 2213 565 
3 2213 566 2074 
3 2214 1973 934 
3 2214 930 2138 
3 2215 569 2073 
3 2215 570 2075 
3 2216 633 2080 
3 2216 1915 2081 
3 2217 634 2081 
3 2217 1907 2082 
3 2218 635 2082 
3 2218 1903 2083 
3 2452 2219 793 
3 2219 794 2097 
3 2220 542 2086 
3 2270 2220 541 
3 2289 2221 538 
3 2289 2283 2221 
3 2290 2222 766 
3 2290 2284 2222 
3 2223 770 2085 
3 2269 2223 769 
3 2224 738 2094 
3 2278 737 2166 
3 2291 2225 905 
3 2573 2235 2088 
3 2226 529 2089 
3 2226 530 2116 
3 2227 757 2090 
3 2227 758 2115 
3 2228 806 2091 
3 2275 805 2175 
3 2229 914 2092 
3 2229 913 2113 
3 2294 545 2162 
3 2366 2230 2294 
3 2293 773 2163 
3 2367 2231 2293 
3 2365 790 1806 
3 2365 2292 2232 
3 2368 881 1807 
3 2368 2295 2233 
3 2234 2099 1935 
3 2234 901 2132 
3 2573 2088 2225 
3 2235 2100 902 
3 2236 636 2083 
3 2236 1861 2101 
3 2409 2237 671 
3 2409 2402 2237 
3 2370 2238 822 
3 2370 2306 2238 
3 2304 741 2153 
3 2369 2239 2304 
3 2305 513 2152 
3 2371 2240 2305 
3 2373 2241 526 
3 2373 2301 2241 
3 2374 2242 754 
3 2374 2300 2242 
3 2302 809 2156 
3 2643 2243 2302 
3 2375 2303 2244 
3 2276 2244 918 
3 2245 2064 632 
3 2502 632 2389 
3 2535 2458 623 
3 2246 656 2106 
3 2404 2247 854 
3 2477 2247 2443 
3 2608 2527 2248 
3 2387 2248 655 
3 2249 1707 1616 
3 2249 1616 841 
3 2250 833 2079 
3 2250 721 1966 
3 2485 2449 2251 
3 2449 2391 2251 
3 2252 2033 891 
3 2252 1796 2146 
3 2253 623 1968 
3 2387 2253 622 
3 2380 629 1888 
3 2379 662 1677 
3 2282 2255 910 
3 2400 2018 2255 
3 2256 1615 1704 
3 2256 1704 834 
3 2257 1804 680 
3 2257 1979 679 
3 2287 2258 2282 
3 2258 909 1954 
3 2285 2259 2281 
3 2259 762 1955 
3 2286 2260 2280 
3 2260 534 1956 
3 2261 877 1949 
3 2261 2098 1962 
3 2466 2262 1721 
3 2262 579 2119 
3 2386 658 1699 
3 2471 625 1731 
3 2298 2264 2288 
3 2264 574 1947 
3 2265 672 2071 
3 2476 2384 639 
3 2435 2392 2266 
3 2266 689 2053 
3 2478 2069 2208 
3 2670 2267 2478 
3 2268 793 2219 
3 2268 2097 789 
3 2269 2096 2223 
3 2269 769 2191 
3 2270 2095 2220 
3 2270 541 2186 
3 2271 565 2213 
3 2271 2074 561 
3 2519 2272 2417 
3 2272 577 2185 
3 2273 2115 2242 
3 2273 2177 757 
3 2274 2116 2241 
3 2274 2176 529 
3 2345 2275 2175 
3 2275 2114 2228 
3 2276 2113 2244 
3 2276 2174 914 
3 2585 2448 2277 
3 2277 722 2203 
3 2339 2278 2166 
3 2278 2111 2224 
3 2408 2297 716 
3 2653 2279 682 
3 2398 529 2020 
3 2286 2280 533 
3 2397 757 2021 
3 2285 2281 761 
3 2287 2282 910 
3 2282 2092 914 
3 2348 2283 537 
3 2283 541 2086 
3 2349 2284 765 
3 2284 769 2085 
3 2481 2285 761 
3 2413 2285 2290 
3 2480 2286 533 
3 2412 2286 2289 
3 2482 2287 910 
3 2414 2287 2291 
3 2363 2288 569 
3 2298 2288 573 
3 2289 537 2283 
3 2412 2289 538 
3 2290 765 2284 
3 2413 2290 766 
3 2573 2291 906 
3 2414 2291 905 
3 2393 2292 785 
3 2292 2164 789 
3 2514 2293 2163 
3 2422 2367 2293 
3 2513 2294 2162 
3 2420 2366 2294 
3 2394 2295 886 
3 2295 2161 882 
3 2395 2296 557 
3 2296 2160 561 
3 2297 2208 716 
3 2408 716 2332 
3 2437 573 2396 
3 2507 2376 574 
3 2586 2299 616 
3 2299 583 2159 
3 2300 749 2158 
3 2300 2158 753 
3 2301 521 2157 
3 2301 2157 525 
3 2302 2156 813 
3 2627 2302 813 
3 2303 922 2155 
3 2303 2155 918 
3 2304 2153 745 
3 2464 2369 2304 
3 2305 2152 517 
3 2465 2371 2305 
3 2306 817 2151 
3 2306 2151 821 
3 2512 683 2450 
3 2307 649 2150 
3 2547 2308 2421 
3 2308 781 2149 
3 2606 2309 781 
3 2309 777 2148 
3 2607 2310 553 
3 2310 549 2147 
3 2536 2533 2311 
3 2311 890 2146 
3 2548 2312 2419 
3 2312 553 2145 
3 2454 2313 678 
3 2313 1980 2140 
3 2314 729 2127 
3 2314 2042 2193 
3 2315 1645 894 
3 2315 894 1967 
3 2316 1965 1792 
3 2316 870 2125 
3 2317 821 1993 
3 2317 825 2126 
3 2318 1685 866 
3 2318 866 2128 
3 2588 2319 893 
3 2319 897 2134 
3 2424 2320 645 
3 2320 678 2313 
3 2352 857 2182 
3 2321 861 2136 
3 2343 925 2173 
3 2322 929 2138 
3 2455 2323 889 
3 2323 893 2141 
3 2457 2324 641 
3 2324 640 2144 
3 2447 2325 649 
3 2325 648 1800 
3 2327 553 2147 
3 2326 552 1795 
3 2327 2147 1797 
3 2327 1797 552 
3 2329 781 2148 
3 2328 780 1799 
3 2329 2148 1798 
3 2329 1798 780 
3 2446 2330 817 
3 2330 816 1801 
3 2510 2331 651 
3 2510 2450 2331 
3 2472 716 2070 
3 2332 2065 2206 
3 2494 2333 516 
3 2333 517 2152 
3 2495 2334 744 
3 2334 745 2153 
3 2598 922 2564 
3 2335 923 1809 
3 2602 812 2570 
3 2336 813 2156 
3 2603 521 2566 
3 2337 520 1811 
3 2604 749 2567 
3 2338 748 1812 
3 2339 1995 741 
3 2339 741 2278 
3 2369 742 2239 
3 2340 746 2170 
3 2341 1006 1188 
3 2341 1188 728 
3 2371 514 2240 
3 2342 518 2171 
3 2343 2173 1842 
3 2343 929 2322 
3 2344 810 2243 
3 2344 814 2180 
3 2345 1998 809 
3 2345 809 2275 
3 2668 2456 2346 
3 2346 2029 2184 
3 2347 995 1198 
3 2347 1198 568 
3 2348 2030 541 
3 2429 2348 537 
3 2349 2031 769 
3 2430 2349 765 
3 2350 1040 1169 
3 2350 1169 796 
3 2667 2452 2351 
3 2351 2032 2188 
3 2352 2182 1853 
3 2352 861 2321 
3 2353 2004 545 
3 2353 545 2270 
3 2354 2005 773 
3 2354 773 2269 
3 2355 2044 733 
3 2423 2355 729 
3 2600 615 2568 
3 2356 616 2159 
3 2357 2049 801 
3 2431 2357 797 
3 2358 981 1207 
3 2358 1207 536 
3 2480 2359 537 
3 2359 2051 2198 
3 2360 1024 1178 
3 2360 1178 764 
3 2481 2361 765 
3 2361 2050 2199 
3 2362 2001 583 
3 2362 583 2272 
3 2363 2052 573 
3 2428 2363 569 
3 2364 1805 558 
3 2419 2364 558 
3 2365 1806 786 
3 2421 2365 786 
3 2575 2366 550 
3 2366 546 2230 
3 2576 2367 778 
3 2367 774 2231 
3 2368 1807 885 
3 2460 2368 885 
3 2464 2304 745 
3 2369 746 2340 
3 2474 2370 822 
3 2628 818 2601 
3 2465 2305 517 
3 2371 518 2342 
3 2372 2135 513 
3 2372 513 2240 
3 2373 526 2178 
3 2469 2373 522 
3 2374 754 2179 
3 2468 2374 750 
3 2375 917 2181 
3 2470 2375 921 
3 2507 574 2298 
3 2507 2406 2376 
3 2377 657 2061 
3 2458 2377 624 
3 2434 1970 710 
3 2580 2378 677 
3 2379 663 2063 
3 2379 2055 2254 
3 2528 2453 2380 
3 2528 2380 628 
3 2589 2519 584 
3 2440 2381 584 
3 2382 631 2120 
3 2382 2102 630 
3 2448 2383 721 
3 2511 2415 2383 
3 2524 638 2409 
3 2384 2077 2265 
3 2385 624 2377 
3 2385 2061 2263 
3 2523 2386 659 
3 2523 2433 2386 
3 2387 622 2248 
3 2530 2441 2387 
3 2475 2388 849 
3 2525 853 2444 
3 2517 2389 599 
3 2389 632 2197 
3 2390 737 2224 
3 2390 2094 2122 
3 2462 2391 619 
3 2391 586 2251 
3 2407 2401 688 
3 2392 689 2266 
3 2393 785 1991 
3 2393 1991 1822 
3 2394 886 1988 
3 2394 1988 1819 
3 2395 557 1987 
3 2395 1987 1818 
3 2437 2396 577 
3 2396 573 2052 
3 2397 2021 1899 
3 2397 1899 2050 
3 2398 2020 1900 
3 2398 1900 2051 
3 2432 2399 805 
3 2399 801 2049 
3 2400 914 2018 
3 2400 2255 2282 
3 2436 2407 688 
3 2407 2405 2401 
3 2402 638 1862 
3 2402 637 2101 
3 2445 2403 640 
3 2403 639 2265 
3 2525 854 1976 
3 2443 858 2035 
3 2527 655 2248 
3 2405 654 2056 
3 2589 2439 578 
3 2406 579 2202 
3 2435 2407 2392 
3 2407 655 2405 
3 2418 2408 683 
3 2408 2279 2297 
3 2524 2409 671 
3 2409 638 2402 
3 2410 577 2272 
3 2507 2437 2410 
3 2411 2009 737 
3 2411 737 2390 
3 2412 538 1599 
3 2412 534 2286 
3 2413 766 1600 
3 2413 762 2285 
3 2414 905 1603 
3 2414 909 2287 
3 2415 710 1969 
3 2415 1969 720 
3 2416 722 2277 
3 2416 721 2250 
3 2417 583 2299 
3 2519 2417 584 
3 2418 682 2279 
3 2512 2418 683 
3 2419 557 2296 
3 2548 2419 558 
3 2420 550 2366 
3 2420 549 2310 
3 2421 785 2292 
3 2547 2421 786 
3 2422 778 2367 
3 2422 777 2309 
3 2423 729 2314 
3 2423 728 2195 
3 2424 645 1872 
3 2515 2461 2424 
3 2526 2425 1794 
3 2425 651 2331 
3 2590 2534 674 
3 2426 641 2324 
3 2533 890 2311 
3 2427 889 2323 
3 2428 568 2363 
3 2428 569 2346 
3 2429 537 2359 
3 2429 536 2187 
3 2430 765 2361 
3 2430 764 2190 
3 2431 796 2357 
3 2431 797 2351 
3 2432 805 2228 
3 2432 2091 2124 
3 2433 626 1867 
3 2433 625 2263 
3 2511 710 2415 
3 2434 677 2378 
3 2530 656 2441 
3 2530 2407 2435 
3 2436 688 212 
3 2436 212 213 
3 2437 2298 573 
3 2437 577 2410 
3 2531 2404 2444 
3 2438 857 2321 
3 2439 2381 2129 
3 2439 579 2406 
3 2562 584 2520 
3 2614 2440 2562 
3 2535 656 2246 
3 2441 2253 2387 
3 2593 921 2540 
3 2442 925 2322 
3 2443 2035 859 
3 2477 2443 859 
3 2595 853 2542 
3 2531 857 2438 
3 2445 639 2403 
3 2445 640 1657 
3 2565 2446 817 
3 2602 2570 2446 
3 2563 2447 649 
3 2600 2568 2447 
3 2511 2448 711 
3 2448 721 2416 
3 2577 2449 618 
3 2449 619 2391 
3 2512 2450 650 
3 2450 683 2206 
3 2451 1832 1994 
3 2451 1994 513 
3 2452 793 2351 
3 2452 2059 2084 
3 2453 661 1682 
3 2453 1682 662 
3 2545 2454 678 
3 2545 2506 2454 
3 2587 2581 888 
3 2455 893 2323 
3 2456 2075 2213 
3 2456 565 2346 
3 2457 640 2324 
3 2457 641 1859 
3 2473 624 1860 
3 2535 623 2441 
3 2537 2459 676 
3 2459 675 2054 
3 2460 886 2295 
3 2536 2460 885 
3 2532 677 2509 
3 2461 678 2320 
3 2508 2462 619 
3 2492 2462 620 
3 2463 598 2120 
3 2463 2120 631 
3 2550 2468 750 
3 2464 746 2369 
3 2551 2469 522 
3 2465 518 2371 
3 2466 1721 575 
3 2466 2202 579 
3 2467 1069 1430 
3 2467 598 1423 
3 2591 750 2538 
3 2468 749 2300 
3 2592 522 2539 
3 2469 521 2301 
3 2593 2549 921 
3 2470 922 2303 
3 2471 1731 1627 
3 2471 624 2385 
3 2472 2070 717 
3 2472 717 2065 
3 2473 1860 1665 
3 2473 1665 623 
3 2474 822 1841 
3 2474 2172 818 
3 2475 849 1843 
3 2475 2201 853 
3 2476 639 1658 
3 2476 1726 638 
3 2477 859 1304 
3 2477 855 2247 
3 2478 2208 2297 
3 2670 2478 715 
3 2618 2546 2508 
3 2479 652 1908 
3 2480 533 2359 
3 2480 537 2289 
3 2481 761 2361 
3 2481 765 2290 
3 2482 910 2041 
3 2482 906 2291 
3 2620 2543 2483 
3 2483 642 1732 
3 2484 1089 1319 
3 2484 1319 907 
3 2485 585 2440 
3 2485 618 2449 
3 2486 722 2416 
3 2486 2079 834 
3 2540 2487 925 
3 2555 2487 2540 
3 2539 2488 518 
3 2554 2488 2539 
3 2538 2489 746 
3 2553 2489 2538 
3 2542 2490 857 
3 2637 2490 2542 
3 2541 2491 814 
3 2559 2491 2541 
3 2516 2492 620 
3 2492 587 2046 
3 2569 2493 927 
3 2598 2564 2493 
3 2571 2494 516 
3 2566 2551 2557 
3 2572 2495 744 
3 2567 2550 2558 
3 2496 2064 665 
3 2496 1925 2130 
3 2497 600 1425 
3 2497 1136 1149 
3 2498 789 2006 
3 2498 2006 1858 
3 2499 1878 1962 
3 2499 882 2003 
3 2500 561 2002 
3 2500 2002 1855 
3 2552 2501 642 
3 2556 2501 2537 
3 2502 631 2245 
3 2502 2245 632 
3 2596 2561 2503 
3 2503 627 1875 
3 2556 2504 643 
3 2616 2580 677 
3 2635 2528 2505 
3 2505 628 1881 
3 2506 712 2154 
3 2506 2154 679 
3 2507 578 2406 
3 2507 2298 2437 
3 2618 2508 619 
3 2597 2508 2546 
3 2676 2545 2532 
3 2509 677 2434 
3 2621 651 2619 
3 2510 650 2450 
3 2511 2383 2448 
3 2676 2511 711 
3 2629 650 2599 
3 2512 2307 2418 
3 2513 1989 549 
3 2513 549 2294 
3 2514 1990 777 
3 2514 777 2293 
3 2616 644 2504 
3 2515 677 2461 
3 2584 2516 620 
3 2516 621 1921 
3 2517 599 1423 
3 2517 1423 598 
3 2518 1832 2451 
3 2518 509 1929 
3 2589 584 2381 
3 2519 578 2410 
3 2562 2520 617 
3 2520 584 2417 
3 2610 2521 554 
3 2521 550 2420 
3 2609 2522 782 
3 2522 778 2422 
3 2596 2523 659 
3 2523 626 2433 
3 2524 671 2077 
3 2524 2077 2384 
3 2525 1976 2388 
3 2525 2388 853 
3 2526 1794 1908 
3 2617 2526 652 
3 2608 2248 621 
3 2527 654 2405 
3 2528 628 2505 
3 2528 661 2453 
3 2626 2588 2529 
3 2529 893 2455 
3 2530 655 2407 
3 2530 2435 656 
3 2531 2438 858 
3 2531 858 2404 
3 2532 678 2461 
3 2532 2461 677 
3 2536 2311 2460 
3 2533 889 2427 
3 2605 2552 2543 
3 2620 2426 2534 
3 2535 2441 656 
3 2535 2246 2458 
3 2615 2536 885 
3 2536 889 2533 
3 2537 675 2459 
3 2556 2537 676 
3 2591 2464 2558 
3 2640 2538 750 
3 2592 2465 2557 
3 2639 2539 522 
3 2544 925 2442 
3 2638 2540 921 
3 2644 2594 2627 
3 2671 2541 818 
3 2595 857 2531 
3 2637 2542 853 
3 2543 642 2483 
3 2620 2483 641 
3 2544 2442 926 
3 2564 2544 926 
3 2545 678 2532 
3 2585 2545 711 
3 2546 2479 653 
3 2597 2584 620 
3 2645 786 1837 
3 2631 782 2606 
3 2611 2548 558 
3 2632 554 2607 
3 2549 922 2470 
3 2549 2470 921 
3 2591 2558 2550 
3 2567 2558 745 
3 2592 2557 2551 
3 2566 2557 517 
3 2552 642 2543 
3 2552 675 2537 
3 2553 751 1227 
3 2553 747 2489 
3 2554 523 1349 
3 2554 519 2488 
3 2555 920 1265 
3 2555 924 2487 
3 2580 2556 676 
3 2556 643 2501 
3 2557 2465 517 
3 2566 517 2494 
3 2558 2464 745 
3 2567 745 2495 
3 2559 819 1246 
3 2559 815 2491 
3 2560 852 1284 
3 2560 856 2490 
3 2635 2561 660 
3 2561 627 2503 
3 2633 2614 617 
3 2562 2440 584 
3 2629 2599 649 
3 2600 616 2356 
3 2564 922 2549 
3 2564 926 2493 
3 2644 2601 2594 
3 2602 813 2336 
3 2603 2566 2494 
3 2566 521 2551 
3 2604 2567 2495 
3 2567 749 2550 
3 2568 615 1193 
3 2568 648 2447 
3 2569 927 1114 
3 2598 923 2335 
3 2570 812 1164 
3 2570 816 2446 
3 2571 516 1212 
3 2603 520 2337 
3 2572 744 1183 
3 2604 748 2338 
3 2573 2225 2291 
3 2573 906 2100 
3 2574 1008 1187 
3 2574 1187 732 
3 2624 2612 2610 
3 2575 1512 546 
3 2623 2613 2609 
3 2576 1514 774 
3 2619 2577 618 
3 2618 2577 2617 
3 2578 1026 1177 
3 2578 1177 768 
3 2579 983 1206 
3 2579 1206 540 
3 2580 676 2378 
3 2616 677 2515 
3 2581 889 2169 
3 2657 2587 888 
3 2582 779 1382 
3 2582 1514 2576 
3 2583 551 1478 
3 2583 1512 2575 
3 2597 620 2508 
3 2634 2622 654 
3 2585 711 2448 
3 2585 712 2506 
3 2630 2563 2599 
3 2586 617 2520 
3 2587 892 2529 
3 2587 2529 2455 
3 2588 893 2529 
3 2588 1516 897 
3 2589 2381 2439 
3 2589 578 2519 
3 2605 2590 675 
3 2590 674 1909 
3 2591 2550 750 
3 2591 2538 746 
3 2592 2551 522 
3 2592 2539 518 
3 2593 2540 925 
3 2593 2544 2549 
3 2594 2541 814 
3 2627 2594 814 
3 2595 2531 2444 
3 2595 2444 853 
3 2596 2503 2523 
3 2596 659 1690 
3 2597 2546 653 
3 2622 2597 653 
3 2598 2335 922 
3 2598 2493 2569 
3 2636 2599 650 
3 2630 617 2586 
3 2600 2447 2563 
3 2600 2356 615 
3 2628 2601 817 
3 2601 818 2594 
3 2602 2446 2565 
3 2602 2336 812 
3 2603 2337 521 
3 2603 2494 2571 
3 2604 2338 749 
3 2604 2495 2572 
3 2605 2534 2590 
3 2605 675 2552 
3 2631 781 2308 
3 2606 782 2522 
3 2632 553 2312 
3 2607 554 2521 
3 2634 621 2584 
3 2608 654 2527 
3 2623 779 2613 
3 2609 778 2522 
3 2624 551 2612 
3 2610 550 2521 
3 2611 558 1836 
3 2611 1836 2167 
3 2612 2583 2575 
3 2612 2575 550 
3 2613 2582 2576 
3 2613 2576 778 
3 2614 618 2485 
3 2614 2485 2440 
3 2615 885 1838 
3 2615 1838 2169 
3 2616 2515 644 
3 2616 2504 2580 
3 2617 651 2425 
3 2618 2617 652 
3 2618 652 2546 
3 2618 619 2577 
3 2633 618 2614 
3 2619 651 2617 
3 2620 641 2426 
3 2620 2534 2543 
3 2636 2621 2633 
3 2621 650 2510 
3 2622 653 2057 
3 2634 654 2608 
3 2642 2609 782 
3 2646 2623 783 
3 2641 2610 554 
3 2647 2624 555 
3 2625 1996 712 
3 2625 712 2277 
3 2626 892 1383 
3 2626 1516 2588 
3 2644 2627 813 
3 2643 814 2344 
3 2628 817 2306 
3 2628 2370 818 
3 2629 649 2307 
3 2629 2512 650 
3 2630 2586 616 
3 2630 616 2563 
3 2631 2308 2547 
3 2631 2547 782 
3 2632 2312 2548 
3 2632 2548 554 
3 2633 2619 618 
3 2636 2633 617 
3 2634 2608 621 
3 2634 2584 2622 
3 2635 660 1687 
3 2635 661 2528 
3 2636 617 2630 
3 2636 650 2621 
3 2637 853 2201 
3 2637 852 2560 
3 2638 921 2181 
3 2638 920 2555 
3 2639 522 2178 
3 2639 523 2554 
3 2640 750 2179 
3 2640 751 2553 
3 2641 554 2167 
3 2641 2167 555 
3 2642 782 2168 
3 2642 2168 783 
3 2643 2344 2243 
3 2643 2302 2627 
3 2644 813 2565 
3 2644 2565 2601 
3 2645 2168 782 
3 2645 782 2547 
3 2646 783 1236 
3 2646 1027 1235 
3 2647 555 984 
3 2647 1358 982 
3 2648 753 2000 
3 2648 2000 1847 
3 2649 525 1999 
3 2649 1999 1846 
3 2650 918 1997 
3 2650 1997 1844 
3 2651 1831 2078 
3 2651 934 1930 
3 2652 697 230 
3 2652 231 1260 
3 2653 682 1992 
3 2653 1992 1829 
3 2654 801 2399 
3 2654 2399 2432 
3 2655 698 232 
3 2655 233 1259 
3 2656 601 1426 
3 2656 1135 1150 
3 2657 888 1092 
3 2657 1092 1273 
3 2658 664 1675 
3 2658 1675 1369 
3 2659 996 1197 
3 2659 1197 572 
3 2660 1042 1168 
3 2660 1168 800 
3 2661 7 250 
3 2661 250 953 
3 2662 699 1259 
3 2662 235 1258 
3 2663 238 239 
3 2663 239 1256 
3 2664 700 236 
3 2664 237 1257 
3 2665 206 207 
3 2665 718 1683 
3 2666 602 1427 
3 2666 1134 1151 
3 2667 2351 797 
3 2667 797 2059 
3 2668 569 2215 
3 2668 2215 2456 
3 2669 940 388 
3 2669 955 613 
3 2670 715 2008 
3 2670 2008 1891 
3 2671 818 2172 
3 2671 819 2559 
3 2672 603 1448 
3 2672 1075 1152 
3 2673 604 1449 
3 2673 1338 1448 
3 2674 2238 821 
3 2674 821 2317 
3 2675 825 2317 
3 2675 1830 1887 
3 2676 2532 2509 
3 2676 2509 2511 
3 2677 229 230 
3 2677 697 1369 
3 2680 20 19 
3 2688 2680 2684 
3 2691 2686 2690 
3 2684 2680 19 
3 2679 487 2678 
3 2691 2689 2686 
3 17 0 483 
3 2686 481 2682 
3 2688 2678 2683 
3 2690 2682 2681 
3 480 16 484 
3 2682 485 2681 
3 2681 486 2679 
3 2683 488 489 
3 2680 490 20 
3 490 1 20 
3 2685 2684 18 
3 2678 487 488 
3 2691 2690 2687 
3 2679 486 487 
3 2680 489 490 
3 2684 19 18 
3 2682 481 480 
3 2681 485 486 
3 2682 480 484 
3 2682 484 485 
3 2683 2678 488 
3 2683 489 2680 
3 2685 18 17 
3 2688 2687 2678 
3 2685 17 483 
3 2689 483 482 
3 2686 482 481 
3 2690 2679 2687 
3 2687 2679 2678 
3 2691 2684 2685 
3 2688 2683 2680 
3 2691 2688 2684 
3 2689 2685 483 
3 2689 482 2686 
3 2690 2686 2682 
3 2690 2681 2679 
3 2691 2687 2688 
3 2691 2685 2689 

CELL_TYPES 4904
5
5
5
5
5
5
5
5
5
5
5
5
5
5
5
5
5
5
5
5
5
5
5
5
5
5
5
5
5
5
5
5
5
5
5
5
5
5
5
5
5
5
5
5
5
5
5
5
5
5
5
5
5
5
5
5
5
5
5
5
5
5
5
5
5
5
5
5
5
5
5
5
5
5
5
5
5
5
5
5
5
5
5
5
5
5
5
5
5
5
5
5
5
5
5
5
5
5
5
5
5
5
5
5
5
5
5
5
5
5
5
5
5
5
5
5
5
5
5
5
5
5
5
5
5
5
5
5
5
5
5
5
5
5
5
5
5
5
5
5
5
5
5
5
5
5
5
5
5
5
5
5
5
5
5
5
5
5
5
5
5
5
5
5
5
5
5
5
5
5
5
5
5
5
5
5
5
5
5
5
5
5
5
5
5
5
5
5
5
5
5
5
5
5
5
5
5
5
5
5
5
5
5
5
5
5
5
5
5
5
5
5
5
5
5
5
5
5
5
5
5
5
5
5
5
5
5
5
5
5
5
5
5
5
5
5
5
5
5
5
5
5
5
5
5
5
5
5
5
5
5
5
5
5
5
5
5
5
5
5
5
5
5
5
5
5
5
5
5
5
5
5
5
5
5
5
5
5
5
5
5
5
5
5
5
5
5
5
5
5
5
5
5
5
5
5
5
5
5
5
5
5
5
5
5
5
5
5
5
5
5
5
5
5
5
5
5
5
5
5
5
5
5
5
5
5
5
5
5
5
5
5
5
5
5
5
5
5
5
5
5
5
5
5
5
5
5
5
5
5
5
5
5
5
5
5
5
5
5
5
5
5
5
5
5
5
5
5
5
5
5
5
5
5
5
5
5
5
5
5
5
5
5
5
5
5
5
5
5
5
5
5
5
5
5
5
5
5
5
5
5
5
5
5
5
5
5
5
5
5
5
5
5
5
5
5
5
5
5
5
5
5
5
5
5
5
5
5
5
5
5
5
5
5
5
5
5
5
5
5
5
5
5
5
5
5
5
5
5
5
5
5
5
5
5
5
5
5
5
5
5
5
5
5
5
5
5
5
5
5
5
5
5
5
5
5
5
5
5
5
5
5
5
5
5
5
5
5
5
5
5
5
5
5
5
5
5
5
5
5
5
5
5
5
5
5
5
5
5
5
5
5
5
5
5
5
5
5
5
5
5
5
5
5
5
5
5
5
5
5
5
5
5
5
5
5
5
5
5
5
5
5
5
5
5
5
5
5
5
5
5
5
5
5
5
5
5
5
5
5
5
5
5
5
5
5
5
5
5
5
5
5
5
5
5
5
5
5
5
5
5
5
5
5
5
5
5
5
5
5
5
5
5
5
5
5
5
5
5
5
5
5
5
5
5
5
5
5
5
5
5
5
5
5
5
5
5
5
5
5
5
5
5
5
5
5
5
5
5
5
5
5
5
5
5
5
5
5
5
5
5
5
5
5
5
5
5
5
5
5
5
5
5
5
5
5
5
5
5
5
5
5
5
5
5
5
5
5
5
5
5
5
5
5
5
5
5
5
5
5
5
5
5
5
5
5
5
5
5
5
5
5
5
5
5
5
5
5
5
5
5
5
5
5
5
5
5
5
5
5
5
5
5
5
5
5
5
5
5
5
5
5
5
5
5
5
5
5
5
5
5
5
5
5
5
5
5
5
5
5
5
5
5
5
5
5
5
5
5
5
5
5
5
5
5
5
5
5
5
5
5
5
5
5
5
5
5
5
5
5
5
5
5
5
5
5
5
5
5
5
5
5
5
5
5
5
5
5
5
5
5
5
5
5
5
5
5
5
5
5
5
5
5
5
5
5
5
5
5
5
5
5
5
5
5
5
5
5
5
5
5
5
5
5
5
5
5
5
5
5
5
5
5
5
5
5
5
5
5
5
5
5
5
5
5
5
5
5
5
5
5
5
5
5
5
5
5
5
5
5
5
5
5
5
5
5
5
5
5
5
5
5
5
5
5
5
5
5
5
5
5
5
5
5
5
5
5
5
5
5
5
5
5
5
5
5
5
5
5
5
5
5
5
5
5
5
5
5
5
5
5
5
5
5
5
5
5
5
5
5
5
5
5
5
5
5
5
5
5
5
5
5
5
5
5
5
5
5
5
5
5
5
5
5
5
5
5
5
5
5
5
5
5
5
5
5
5
5
5
5
5
5
5
5
5
5
5
5
5
5
5
5
5
5
5
5
5
5
5
5
5
5
5
5
5
5
5
5
5
5
5
5
5
5
5
5
5
5
5
5
5
5
5
5
5
5
5
5
5
5
5
5
5
5
5
5
5
5
5
5
5
5
5
5
5
5
5
5
5
5
5
5
5
5
5
5
5
5
5
5
5
5
5
5
5
5
5
5
5
5
5
5
5
5
5
5
5
5
5
5
5
5
5
5
5
5
5
5
5
5
5
5
5
5
5
5
5
5
5
5
5
5
5
5
5
5
5
5
5
5
5
5
5
5
5
5
5
5
5
5
5
5
5
5
5
5
5
5
5
5
5
5
5
5
5
5
5
5
5
5
5
5
5
5
5
5
5
5
5
5
5
5
5
5
5
5
5
5
5
5
5
5
5
5
5
5
5
5
5
5
5
5
5
5
5
5
5
5
5
5
5
5
5
5
5
5
5
5
5
5
5
5
5
5
5
5
5
5
5
5
5
5
5
5
5
5
5
5
5
5
5
5
5
5
5
5
5
5
5
5
5
5
5
5
5
5
5
5
5
5
5
5
5
5
5
5
5
5
5
5
5
5
5
5
5
5
5
5
5
5
5
5
5
5
5
5
5
5
5
5
5
5
5
5
5
5
5
5
5
5
5
5
5
5
5
5
5
5
5
5
5
5
5
5
5
5
5
5
5
5
5
5
5
5
5
5
5
5
5
5
5
5
5
5
5
5
5
5
5
5
5
5
5
5
5
5
5
5
5
5
5
5
5
5
5
5
5
5
5
5
5
5
5
5
5
5
5
5
5
5
5
5
5
5
5
5
5
5
5
5
5
5
5
5
5
5
5
5
5
5
5
5
5
5
5
5
5
5
5
5
5
5
5
5
5
5
5
5
5
5
5
5
5
5
5
5
5
5
5
5
5
5
5
5
5
5
5
5
5
5
5
5
5
5
5
5
5
5
5
5
5
5
5
5
5
5
5
5
5
5
5
5
5
5
5
5
5
5
5
5
5
5
5
5
5
5
5
5
5
5
5
5
5
5
5
5
5
5
5
5
5
5
5
5
5
5
5
5
5
5
5
5
5
5
5
5
5
5
5
5
5
5
5
5
5
5
5
5
5
5
5
5
5
5
5
5
5
5
5
5
5
5
5
5
5
5
5
5
5
5
5
5
5
5
5
5
5
5
5
5
5
5
5
5
5
5
5
5
5
5
5
5
5
5
5
5
5
5
5
5
5
5
5
5
5
5
5
5
5
5
5
5
5
5
5
5
5
5
5
5
5
5
5
5
5
5
5
5
5
5
5
5
5
5
5
5
5
5
5
5
5
5
5
5
5
5
5
5
5
5
5
5
5
5
5
5
5
5
5
5
5
5
5
5
5
5
5
5
5
5
5
5
5
5
5
5
5
5
5
5
5
5
5
5
5
5
5
5
5
5
5
5
5
5
5
5
5
5
5
5
5
5
5
5
5
5
5
5
5
5
5
5
5
5
5
5
5
5
5
5
5
5
5
5
5
5
5
5
5
5
5
5
5
5
5
5
5
5
5
5
5
5
5
5
5
5
5
5
5
5
5
5
5
5
5
5
5
5
5
5
5
5
5
5
5
5
5
5
5
5
5
5
5
5
5
5
5
5
5
5
5
5
5
5
5
5
5
5
5
5
5
5
5
5
5
5
5
5
5
5
5
5
5
5
5
5
5
5
5
5
5
5
5
5
5
5
5
5
5
5
5
5
5
5
5
5
5
5
5
5
5
5
5
5
5
5
5
5
5
5
5
5
5
5
5
5
5
5
5
5
5
5
5
5
5
5
5
5
5
5
5
5
5
5
5
5
5
5
5
5
5
5
5
5
5
5
5
5
5
5
5
5
5
5
5
5
5
5
5
5
5
5
5
5
5
5
5
5
5
5
5
5
5
5
5
5
5
5
5
5
5
5
5
5
5
5
5
5
5
5
5
5
5
5
5
5
5
5
5
5
5
5
5
5
5
5
5
5
5
5
5
5
5
5
5
5
5
5
5
5
5
5
5
5
5
5
5
5
5
5
5
5
5
5
5
5
5
5
5
5
5
5
5
5
5
5
5
5
5
5
5
5
5
5
5
5
5
5
5
5
5
5
5
5
5
5
5
5
5
5
5
5
5
5
5
5
5
5
5
5
5
5
5
5
5
5
5
5
5
5
5
5
5
5
5
5
5
5
5
5
5
5
5
5
5
5
5
5
5
5
5
5
5
5
5
5
5
5
5
5
5
5
5
5
5
5
5
5
5
5
5
5
5
5
5
5
5
5
5
5
5
5
5
5
5
5
5
5
5
5
5
5
5
5
5
5
5
5
5
5
5
5
5
5
5
5
5
5
5
5
5
5
5
5
5
5
5
5
5
5
5
5
5
5
5
5
5
5
5
5
5
5
5
5
5
5
5
5
5
5
5
5
5
5
5
5
5
5
5
5
5
5
5
5
5
5
5
5
5
5
5
5
5
5
5
5
5
5
5
5
5
5
5
5
5
5
5
5
5
5
5
5
5
5
5
5
5
5
5
5
5
5
5
5
5
5
5
5
5
5
5
5
5
5
5
5
5
5
5
5
5
5
5
5
5
5
5
5
5
5
5
5
5
5
5
5
5
5
5
5
5
5
5
5
5
5
5
5
5
5
5
5
5
5
5
5
5
5
5
5
5
5
5
5
5
5
5
5
5
5
5
5
5
5
5
5
5
5
5
5
5
5
5
5
5
5
5
5
5
5
5
5
5
5
5
5
5
5
5
5
5
5
5
5
5
5
5
5
5
5
5
5
5
5
5
5
5
5
5
5
5
5
5
5
5
5
5
5
5
5
5
5
5
5
5
5
5
5
5
5
5
5
5
5
5
5
5
5
5
5
5
5
5
5
5
5
5
5
5
5
5
5
5
5
5
5
5
5
5
5
5
5
5
5
5
5
5
5
5
5
5
5
5
5
5
5
5
5
5
5
5
5
5
5
5
5
5
5
5
5
5
5
5
5
5
5
5
5
5
5
5
5
5
5
5
5
5
5
5
5
5
5
5
5
5
5
5
5
5
5
5
5
5
5
5
5
5
5
5
5
5
5
5
5
5
5
5
5
5
5
5
5
5
5
5
5
5
5
5
5
5
5
5
5
5
5
5
5
5
5
5
5
5
5
5
5
5
5
5
5
5
5
5
5
5
5
5
5
5
5
5
5
5
5
5
5
5
5
5
5
5
5
5
5
5
5
5
5
5
5
5
5
5
5
5
5
5
5
5
5
5
5
5
5
5
5
5
5
5
5
5
5
5
5
5
5
5
5
5
5
5
5
5
5
5
5
5
5
5
5
5
5
5
5
5
5
5
5
5
5
5
5
5
5
5
5
5
5
5
5
5
5
5
5
5
5
5
5
5
5
5
5
5
5
5
5
5
5
5
5
5
5
5
5
5
5
5
5
5
5
5
5
5
5
5
5
5
5
5
5
5
5
5
5
5
5
5
5
5
5
5
5
5
5
5
5
5
5
5
5
5
5
5
5
5
5
5
5
5
5
5
5
5
5
5
5
5
5
5
5
5
5
5
5
5
5
5
5
5
5
5
5
5
5
5
5
5
5
5
5
5
5
5
5
5
5
5
5
5
5
5
5
5
5
5
5
5
5
5
5
5
5
5
5
5
5
5
5
5
5
5
5
5
5
5
5
5
5
5
5
5
5
5
5
5
5
5
5
5
5
5
5
5
5
5
5
5
5
5
5
5
5
5
5
5
5
5
5
5
5
5
5
5
5
5
5
5
5
5
5
5
5
5
5
5
5
5
5
5
5
5
5
5
5
5
5
5
5
5
5
5
5
5
5
5
5
5
5
5
5
5
5
5
5
5
5
5
5
5
5
5
5
5
5
5
5
5
5
5
5
5
5
5
5
5
5
5
5
5
5
5
5
5
5
5
5
5
5
5
5
5
5
5
5
5
5
5
5
5
5
5
5
5
5
5
5
5
5
5
5
5
5
5
5
5
5
5
5
5
5
5
5
5
5
5
5
5
5
5
5
5
5
5
5
5
5
5
5
5
5
5
5
5
5
5
5
5
5
5
5
5
5
5
5
5
5
5
5
5
5
5
5
5
5
5
5
5
5
5
5
5
5
5
5
5
5
5
5
5
5
5
5
5
5
5
5
5
5
5
5
5
5
5
5
5
5
5
5
5
5
5
5
5
5
5
5
5
5
5
5
5
5
5
5
5
5
5
5
5
5
5
5
5
5
5
5
5
5
5
5
5
5
5
5
5
5
5
5
5
5
5
5
5
5
5
5
5
5
5
5
5
5
5
5
5
5
5
5
5
5
5
5
5
5
5
5
5
5
5
5
5
5
5
5
5
5
5
5
5
5
5
5
5
5
5
5
5
5
5
5
5
5
5
5
5
5
5
5
5
5
5
5
5
5
5
5
5
5
5
5
5
5
5
5
5
5
5
5
5
5
5
5
5
5
5
5
5
5
5
5
5
5
5
5
5
5
5
5
5
5
5
5
5
5
5
5
5
5
5
5
5
5
5
5
5
5
5
5
5
5
5
5
5
5
5
5
5
5
5
5
5
5
5
5
5
5
5
5
5
5
5
5
5
5
5
5
5
5
5
5
5
5
5
5
5
5
5
5
5
5
5
5
5
5
5
5
5
5
5
5
5
5
5
5
5
5
5
5
5
5
5
5
5
5
5
5
5
5
5
5
5
5
5
5
5
5
5
5
5
5
5
5
5
5
5
5
5
5
5
5
5
5
5
5
5
5
5
5
5
5
5
5
5
5
5
5
5
5
5
5
5
5
5
5
5
5
5
5
5
5
5
5
5
5
5
5
5
5
5
5
5
5
5
5
5
5
5
5
5
5
5
5
5
5
5
5
5
5
5
5
5
5
5
5
5
5
5
5
5
5
5
5
5
5
5
5
5
5
5
5
5
5
5
5
5
5
5
5
5
5
5
5
5
5
5
5
5
5
5
5
5
5
5
5
5
5
5
5
5
5
5
5
5
5
5
5
5
5
5
5
5
5
5
5
5
5
5
5
5
5
5
5
5
5
5
5
5
5
5
5
5
5
5
5
5
5
5
5
5
5
5
5
5
5
5
5
5
5
5
5
5
5
5
5
5
5
5
5
5
5
5
5
5
5
5
5
5
5
5
5
5
5
5
5
5
5
5
5
5
5
5
5
5
5
5
5
5
5
5
5
5
5
5
5
5
5
5
5
5
5
5
5
5
5
5
5
5
5
5
5
5
5
5
5
5
5
5
5
5
5
5
5
5
5
5
5
5
5
5
5
5
5
5
5
5
5
5
5
5
5
5
5
5
5
5
5
5
5
5
5
5
5
5
5
5
5
5
5
5
5
5
5
5
5
5
5
5
5
5
5
5
5
5
5
5
5
5
5
5
5
5
5
5
5
5
5
5
5
5
5
5
5
5
5
5
5
5
5
5
5
5
5
5
5
5
5
5
5
5
5
5
5
5
5
5
5
5
5
5
5
5
5
5
5
5
5
5
5
5
5
5
5
5
5
5
5
5
5
5
5
5
5
5
5
5
5
5
5
5
5
5
5
5
5
5
5
5
5
5
5
5
5
5
5
5
5
5
5
5
5
5
5
5
5
5
5
5
5
5
5
5
5
5
5
5
5
5
5
5
5
5
5
5
5
5
5
5
5
5
5
5
5
5
5
5
5
5
5
5
5
5
5
5
5
5
5
5
5
5
5
5
5
5
5
5
5
5
5
5
5
5
5
5
5
5
5
5
5
5
5
5
5
5
5
5
5
5
5
5
5
5
5
5
5
5
5
5
5
5
5
5
5
5
5
5
5
5
5
5
5
5
5
5
5
5
5
5
5
5
5
5
5
5
5
5
5
5
5
5
5
5
5
5
5
5
5
5
5
5
5
5
5
5
5
5
5
5
5
5
5
5
5
5
5
5
5
5
5
5
5
5
5
5
5
5
5
5
5
5
5
5
5
5
5
5
5
5
5
5
5
5
5
5
5
5
5
5
5
5
5
5
5
5
5
5
5
5
5
5
5
5
5
5
5
5
5
5
5
5
5
5
5
5
5
5
5
5
5
5
5
5
5
5
5
5
5
5
5
5
5
5
5
5
5
5
5
5
5
5
5
5
5
5
5
5
5
5
5
5
5
5
5
5
5
5
5
5
5
5
5
5
5
5
5
5
5
5
5
5
5
5
5
5
5
5
5
5
5
5
5
5
5
5
5
5
5
5
5
5
5
5
5
5
5
5
5
5
5
5
5
5
5
5
5
5
5
5
5
5
5
5
5
5
5
5
5
5
5
5
5
5
5
5
5
5
5
5
5
5
5
5
5
5
5
5
5
5
5
5
5
5
5
5
5
5
5
5
5
5
5
5
5
5
5
5
5
5
5
5
5
5
5
5
5
5
5
5
5
5
5
5
5
5
5
5
5
5
5
5
5
5
5
5
5
5
5
5
5
5
5
5
5
5
5
5
5
5
5
5
5
5
5
5
5
5
5
5
5
5
5
5
5
5
5
5
5
5
5
5
5
5
5
5
5
5
5
5
5
5
5
5
5
5
5
5
5
5
5
5
5
5
5
5
5
5
5
5
5
5
5
5
5
5
5
5
5
5
5
5
5
5
5
5
5
5
5
5
5
5
5
5
5
5
5
5
5
5
5
5
5
5
5
5
5
5
5
5
5
5
5
5
5
5
5
5
5
5
5
5
5
5
5
5
5
5
5
5
5
5
5
5
5
5
5
5
5
5
5
5
5
5
5
5
5
5
5
5
5
5
5
5
5
5
5
5
5
5
5
5
5
5
5
5
5
5
5
5
5
5
5
5
5
5
5
5
5
5
5
5
5
5
5
5
5
5
5
5
5
5
5
5
5
5
5
5
5
5
5
5
5
5
5
5
5
5
5
5
5
5
5
5
5
5
5
5
5
5
5
5
5
5
5
5
5
5
5
5
5
5
5
5
5
5
5
5
5
5
5
5
5
5
5
5
5
5
5
5
5
5
5
5
5
5
5
5
5
5
5
5
5
5
5
5
5
5
5
5
5
5
5
5
5
5
5
5
5
5
5
5
5
5
5
5
5
5
5
5
5
5
5
5
5
5
5
5
5
5
5
5
5
5
5
5
5
5
5
5
5
5
5
5
5
5
5
5
5
5
5
5
5
5
5
5
5
5
5
5
5
5
5
5
5
5
5
5
5
5
5
5
5
5
5
5
5
5
5
5
5
5
5
5
5
5
5
5
5
5
5
5
5
5
5
5
5
5
5
5
5
5
5
5
5
5
5
5
5
5
5
5
5
5
5
5
5
5
5
5
5
5
5
5
5
5
5
5
5
5
5
5
5
5
5
5
5
5
5
5
5
5
5
5
5
5
5
5
5
5
5
5
5
5
5
5
5
5
5
5
5
5
5
5
5
5
5
5
5
5
5
5
5
5
5
5
5
5
5
5
5
5
5
5
5
5
5
5
5
5
5
5
5
5
5
5
5
5
5
5
5
5
5
5
5
5
5
5
5
5
5
5
5
5
5
5
5
5
5
5
5
5
5
5
5
5
5
5
5
5
5
5
5
5
5
5
5
5
5
5
5
5
5
5
5
5
5
5
5
5
5
5
5
5
5
5
5
5
5
5
5
5
5
5
5
5
5
5
5
5
5
5
5
5
5
5
5
5
5
5
5
5
5
5
5
5
5
5
5
5
5
5
5
5
5
5
5
5
5
5
5
5
5
5
5
5
5
5
5
5
5
5
5
5
5
5
5
5
5
5
5
5
5
5
5
5
5
5
5
5
5
5
5
5
5
5
5
5
5
5
5
5
5
5
5
5
5
5
5
5
5
5
5
5
5
5
5
5
5
5
5
5
5
5
5
5
5
5
5
5
5
5
5
5
5
5
5
5
5
5
5
5
5
5
5
5
5
5
5
5
5
5
5
5
5
5
5
5
5
5
5
5
5
5
5
5
5
5
5
5
5
5
5
5
5
5
5
5
5
5
5
5
5
5
5
5
5
5
5
5
5
5
5
5
5
5
5
5
5
5
5
5
5
5
5
5
5
5
5
5
5
5
5
5
5
5
5
5
5
5
5
5
5
5
5
5
5
5
5
5
5
5
5
5
5
5
5
5
5
5
5
5
5
5
5
5
5
5
5
5
5
5
5
5
5
5
5
5
5
5
5
5
5
5
5
5
5
5
5
5
5
5
5
5
5
5
5
5
5
5
5
5
5
5
5
5
5
5
5
5
5
5
5
5
5
5
5
5
5
5
5
5
5
5
5
5
5
5
5
5
5
5
5
5
5
5
5
5
5
5
5
5
5
5
5
5
5
5
5
5
5
5
5
5
5
5
5
5
5
5
5
5
5
5
5
5
5
5
5
5
5
5
5
5
5
5
5
5
5
5
5
5
5
5
5
5
5
5
5
5
5
5
5
5
5
5
5
5
5
5
5
5
5
5
5
5
5
5
5
5
5
5
5
5
5
5
5
5
5
5
5
5
5
5
5
5
5
5
5
5
5
5
5
5
5
5
5
5
5
5
5
5
5
5
5
5
5
5
5
5
5
5
5
5
5
5
5
5
5
5
5
5
5
5
5
5
5
5
5
5
5
5
5
5
5
5
5
5
5
5
5
5
5
5
5
5
5
5
5
5
5
5
5
5
5
5
5
5
5
5
5
5
5
5
5
5
5
5
5
5
5
5
5
5
5
5
5
5
5
5
5
5
5
5
5
5
5
5
5
5
5
5
5
5
5
5
5
5
5
5
5
5
5
5
5
5
5
5
5
5
5
5
5
5
5
5
5
5
5
5
5
5
5
5
5
5
5
5
5
5
5
5
5
5
5
5
5
5
5
5
5
5
5
5
5
5
5
5
5
5
5
5
5
5
5
5
5

POINT_DATA 2692
VECTORS displacement float
-0.373278 -0.0049445 0
-0.411612 -0.00494438 0
-0.372975 -0.0435656 0
0 0 0
0 0 0
-0.0843728 0.00924892 0
-0.101068 0.0202402 0
-0.109445 0.0021171 0
-0.102608 -0.00205708 0
0 0 0
0 0 0
-0.108092 0.00503742 0
-0.109212 0.00301478 0
-0.107933 0.00160421 0
-0.117434 0.0205417 0
-0.14001 0.0155282 0
-0.372975 0.0336779 0
-0.380828 -0.00494439 0
-0.388499 -0.00494427 0
-0.396202 -0.00494425 0
-0.403909 -0.00494437 0
-0.410874 -0.0124543 0
-0.408687 -0.0196798 0
-0.405133 -0.0263448 0
-0.400344 -0.0321956 0
-0.394501 -0.037008 0
-0.38782 -0.0405947 0
-0.380554 -0.0428112 0
-0.37298 -0.0358007 0
-0.372993 -0.0280601 0
-0.37303 -0.0203415 0
-0.373117 -0.0126328 0
-0.36518 -0.0435617 0
-0.357363 -0.0435367 0
-0.349546 -0.043477 0
-0.341737 -0.0433828 0
-0.333946 -0.0432549 0
-0.326183 -0.0430941 0
-0.318457 -0.0429035 0
-0.310773 -0.042681 0
-0.303131 -0.042428 0
-0.29555 -0.0421531 0
-0.288022 -0.0418413 0
-0.280562 -0.0415026 0
-0.273171 -0.0411335 0
-0.265859 -0.0407364 0
-0.258626 -0.0403088 0
-0.251484 -0.0398526 0
-0.244433 -0.0393644 0
-0.237487 -0.0388472 0
-0.230643 -0.0382987 0
-0.223917 -0.0377215 0
-0.217304 -0.0371146 0
-0.21082 -0.0364798 0
-0.204461 -0.0358155 0
-0.198243 -0.0351225 0
-0.192161 -0.0343979 0
-0.186234 -0.0336443 0
-0.180459 -0.0328581 0
-0.174842 -0.0320351 0
-0.169395 -0.0311882 0
-0.164121 -0.0303097 0
-0.159038 -0.0294013 0
-0.154142 -0.0284636 0
-0.149457 -0.0275006 0
-0.144976 -0.0265161 0
-0.140723 -0.0255209 0
-0.136681 -0.0245307 0
-0.132874 -0.0235496 0
-0.129277 -0.0225883 0
-0.125901 -0.0216684 0
-0.122712 -0.0208059 0
-0.119707 -0.0200079 0
-0.116851 -0.0192869 0
-0.11413 -0.0186446 0
-0.111509 -0.0180897 0
-0.108979 -0.0176133 0
-0.10649 -0.017222 0
-0.104055 -0.0168959 0
-0.101625 -0.0166323 0
-0.0992024 -0.0164244 0
-0.0967732 -0.0162548 0
-0.094331 -0.0161142 0
-0.0918755 -0.0159899 0
-0.0894078 -0.0158743 0
-0.086932 -0.0157595 0
-0.0844526 -0.0156408 0
-0.081976 -0.0155154 0
-0.0795063 -0.0153817 0
-0.0770491 -0.0152397 0
-0.0746066 -0.0150893 0
-0.0721829 -0.0149313 0
-0.0697786 -0.0147659 0
-0.0673972 -0.0145941 0
-0.0650388 -0.0144156 0
-0.0627039 -0.0142306 0
-0.0603962 -0.0140434 0
-0.0581144 -0.0138472 0
-0.0558609 -0.0136466 0
-0.0536355 -0.0134406 0
-0.051441 -0.0132296 0
-0.049276 -0.0130131 0
-0.0471443 -0.0127914 0
-0.0450441 -0.0125637 0
-0.0429797 -0.0123307 0
-0.040949 -0.012092 0
-0.0389564 -0.0118481 0
-0.0369994 -0.0115991 0
-0.0350826 -0.0113451 0
-0.0332035 -0.011086 0
-0.0313666 -0.0108218 0
-0.0295695 -0.010552 0
-0.0278168 -0.0102772 0
-0.0261068 -0.00999657 0
-0.024441 -0.009709 0
-0.0228214 -0.00941801 0
-0.0212476 -0.00912164 0
-0.0197235 -0.00881998 0
-0.0182464 -0.00851282 0
-0.0168217 -0.00820019 0
-0.015446 -0.00788172 0
-0.014125 -0.00755821 0
-0.012854 -0.00723065 0
-0.011641 -0.0068972 0
-0.0104807 -0.00655655 0
-0.00938003 -0.00621147 0
-0.00833368 -0.00586137 0
-0.00734843 -0.00550634 0
-0.00642042 -0.00514574 0
-0.0055558 -0.00477997 0
-0.00475199 -0.00440818 0
-0.00400943 -0.00402959 0
-0.00333258 -0.0036546 0
-0.0027201 -0.00326603 0
-0.00217344 -0.00287498 0
-0.00169156 -0.00247992 0
-0.00127863 -0.00208119 0
-0.000927074 -0.00167804 0
-0.000639095 -0.00127184 0
-0.00040888 -0.000860158 0
-0.000214182 -0.000431411 0
0 0 0
0 0 0
0 0 0
0 0 0
0 0 0
0 0 0
0 0 0
0 0 0
0 0 0
-0.000131585 0.000296247 0
-0.000287681 0.000606936 0
-0.000489958 0.000903914 0
-0.000761766 0.00119692 0
-0.00110295 0.00148655 0
-0.00151358 0.0017711 0
-0.00199191 0.00204998 0
-0.00253972 0.00232382 0
-0.00315411 0.0025963 0
-0.00383107 0.00285351 0
-0.00457181 0.00311513 0
-0.00537403 0.0033679 0
-0.00624114 0.00361443 0
-0.00716855 0.00385549 0
-0.00815483 0.00409134 0
-0.00919961 0.00432228 0
-0.0103023 0.00454774 0
-0.0114615 0.00476791 0
-0.0126765 0.00498268 0
-0.0139457 0.00519206 0
-0.0152682 0.00539597 0
-0.0166426 0.00559489 0
-0.0180685 0.00578854 0
-0.0195444 0.00597709 0
-0.0210695 0.0061598 0
-0.0226422 0.00633634 0
-0.024262 0.00650667 0
-0.0259293 0.00667284 0
-0.0276396 0.00683854 0
-0.0293917 0.00699457 0
-0.0311873 0.00714495 0
-0.0330247 0.00729085 0
-0.034903 0.00743119 0
-0.036821 0.00756588 0
-0.0387774 0.00769524 0
-0.0407711 0.00781909 0
-0.0428009 0.00793769 0
-0.0448659 0.00805092 0
-0.0469649 0.00815901 0
-0.0490971 0.00826185 0
-0.0512613 0.00835943 0
-0.0534564 0.00845154 0
-0.0556804 0.0085378 0
-0.0579336 0.00861897 0
-0.0602154 0.00869645 0
-0.0625219 0.00876506 0
-0.0648543 0.00883288 0
-0.0672099 0.00889447 0
-0.06959 0.00895132 0
-0.0719927 0.00900442 0
-0.0744176 0.00905458 0
-0.0768653 0.00910291 0
-0.0793374 0.00915048 0
-0.0818372 0.00919875 0
-0.0869017 0.00954281 0
-0.089415 0.0103171 0
-0.0918495 0.0115331 0
-0.0941889 0.013101 0
-0.0963088 0.0149206 0
-0.0982143 0.0168283 0
-0.0997859 0.0186423 0
-0.102027 0.0216597 0
-0.102913 0.0228868 0
-0.103751 0.0239195 0
-0.104538 0.0247825 0
-0.105324 0.0254812 0
-0.106036 0.026025 0
-0.106737 0.0264109 0
-0.107372 0.0266646 0
-0.107987 0.0267742 0
-0.108576 0.0267617 0
-0.109116 0.0266335 0
-0.109613 0.0263905 0
-0.110089 0.0260407 0
-0.110521 0.025594 0
-0.110924 0.0250509 0
-0.11129 0.0244267 0
-0.111618 0.0237254 0
-0.111912 0.0229514 0
-0.112169 0.022118 0
-0.112386 0.0212269 0
-0.11258 0.0202867 0
-0.112732 0.0193032 0
-0.112852 0.0182799 0
-0.112936 0.0172346 0
-0.112982 0.0161676 0
-0.112991 0.0150841 0
-0.112971 0.013993 0
-0.112914 0.0129083 0
-0.11282 0.011822 0
-0.112692 0.0107562 0
-0.112527 0.00970649 0
-0.112329 0.00868469 0
-0.112102 0.00770398 0
-0.111834 0.00675323 0
-0.111541 0.0058565 0
-0.111205 0.00500006 0
-0.110844 0.00420601 0
-0.110431 0.00345347 0
-0.109983 0.00276074 0
-0.108804 0.00152094 0
-0.10817 0.000999024 0
-0.107475 0.000564529 0
-0.106743 0.000135934 0
-0.105877 -0.000295567 0
-0.104923 -0.000810451 0
-0.103843 -0.0013704 0
-0.101266 -0.00275807 0
-0.0998532 -0.00337308 0
-0.0983641 -0.00394145 0
-0.0967935 -0.00447817 0
-0.0951404 -0.00498902 0
-0.0934055 -0.00547546 0
-0.0915918 -0.00593816 0
-0.0896997 -0.00637854 0
-0.0877321 -0.00680065 0
-0.0857012 -0.00719146 0
-0.0835995 -0.00756706 0
-0.0814432 -0.00791478 0
-0.0792292 -0.00823812 0
-0.0769646 -0.00853783 0
-0.0746543 -0.00881366 0
-0.072303 -0.00906566 0
-0.0699154 -0.00929341 0
-0.0674966 -0.00949688 0
-0.0650514 -0.00967616 0
-0.0625846 -0.00983121 0
-0.0601012 -0.00996195 0
-0.0576062 -0.0100685 0
-0.0551041 -0.010151 0
-0.0525996 -0.0102092 0
-0.050098 -0.010243 0
-0.0476048 -0.0102526 0
-0.0451249 -0.0102385 0
-0.0426587 -0.0101992 0
-0.040217 -0.010137 0
-0.0378001 -0.0100499 0
-0.0354163 -0.00993931 0
-0.0330684 -0.00980368 0
-0.0307623 -0.00964398 0
-0.0285028 -0.00946049 0
-0.0262942 -0.00925277 0
-0.0241414 -0.00902105 0
-0.0220491 -0.00876484 0
-0.020023 -0.00848466 0
-0.0180672 -0.00817994 0
-0.0161873 -0.00785093 0
-0.0143877 -0.00749749 0
-0.012673 -0.00712025 0
-0.0110456 -0.00671981 0
-0.00951809 -0.00629368 0
-0.00808536 -0.00583835 0
-0.00676015 -0.00537444 0
-0.0055369 -0.00486933 0
-0.00443121 -0.00434761 0
-0.00344664 -0.00380305 0
-0.00258332 -0.00323337 0
-0.00184727 -0.00263952 0
-0.00123841 -0.00202185 0
-0.000752726 -0.00137873 0
-0.000366456 -0.000691114 0
0 0 0
0 0 0
0 0 0
0 0 0
0 0 0
0 0 0
0 0 0
0 0 0
0 0 0
-0.000434122 0.000824988 0
-0.000882117 0.00164381 0
-0.00138698 0.00239638 0
-0.00201167 0.00311951 0
-0.00276255 0.00382393 0
-0.00362585 0.00450875 0
-0.00461558 0.00517165 0
-0.0057185 0.0058108 0
-0.00693767 0.00643096 0
-0.00826149 0.00701286 0
-0.00969686 0.00758567 0
-0.0112266 0.00813163 0
-0.0128501 0.00865149 0
-0.0145674 0.00914786 0
-0.0163659 0.00961885 0
-0.0182479 0.0100671 0
-0.0202014 0.0104917 0
-0.022229 0.0108929 0
-0.0243191 0.0112689 0
-0.0264732 0.0116208 0
-0.0286813 0.0119467 0
-0.0309425 0.0122494 0
-0.0332477 0.0125273 0
-0.0355958 0.0127821 0
-0.037979 0.0130118 0
-0.0403948 0.0132182 0
-0.0428366 0.0133994 0
-0.0453026 0.0135578 0
-0.0477836 0.0136918 0
-0.0502769 0.0138006 0
-0.0527786 0.0138862 0
-0.0552828 0.0139466 0
-0.0577849 0.0139839 0
-0.0602802 0.0139961 0
-0.0627631 0.0139849 0
-0.0652302 0.0139486 0
-0.0676752 0.0138889 0
-0.0700949 0.0138041 0
-0.072482 0.013696 0
-0.0748343 0.013563 0
-0.0771439 0.0134068 0
-0.0794102 0.0132253 0
-0.0816238 0.0130202 0
-0.0837819 0.012789 0
-0.0858846 0.0125316 0
-0.0879151 0.0122589 0
-0.0898801 0.011952 0
-0.0917658 0.0116226 0
-0.0935727 0.0112674 0
-0.0952887 0.0108885 0
-0.0969142 0.0104841 0
-0.0984344 0.0100566 0
-0.099852 0.00960752 0
-0.10115 0.00914139 0
-0.102331 0.00865973 0
-0.103384 0.00817312 0
-0.104314 0.00769261 0
-0.105115 0.00722337 0
-0.105802 0.00677718 0
-0.106374 0.00636275 0
-0.10685 0.00599126 0
-0.107241 0.00566715 0
-0.107567 0.00539928 0
-0.10784 0.00518766 0
-0.108336 0.00491338 0
-0.108573 0.00476546 0
-0.108795 0.00457211 0
-0.108993 0.00433085 0
-0.109149 0.00405138 0
-0.109245 0.00373386 0
-0.109275 0.0033814 0
-0.109067 0.00263637 0
-0.108859 0.00228523 0
-0.108597 0.00198588 0
-0.108287 0.00175366 0
-0.107548 0.00155092 0
-0.107141 0.00160261 0
-0.106723 0.00176524 0
-0.106305 0.00203921 0
-0.105897 0.00242311 0
-0.105507 0.00291297 0
-0.105143 0.00349978 0
-0.10481 0.00417582 0
-0.104511 0.00493084 0
-0.104247 0.00575593 0
-0.104018 0.00664171 0
-0.103826 0.00757993 0
-0.103671 0.00856161 0
-0.103551 0.00957943 0
-0.103466 0.0106283 0
-0.103419 0.0116971 0
-0.103407 0.0127804 0
-0.103431 0.0138703 0
-0.103489 0.0149601 0
-0.103583 0.0160431 0
-0.103712 0.0171114 0
-0.103877 0.0181593 0
-0.104076 0.0191781 0
-0.104312 0.0201623 0
-0.104581 0.0211026 0
-0.104887 0.0219952 0
-0.105227 0.0228291 0
-0.105604 0.0236019 0
-0.106014 0.024302 0
-0.106461 0.0249273 0
-0.106942 0.0254655 0
-0.107461 0.0259157 0
-0.108012 0.0262636 0
-0.108598 0.026506 0
-0.109219 0.0266358 0
-0.109874 0.0266468 0
-0.110563 0.0265317 0
-0.111286 0.0262822 0
-0.112042 0.0258947 0
-0.112831 0.0253636 0
-0.113651 0.0246857 0
-0.114504 0.0238602 0
-0.115396 0.0228882 0
-0.116351 0.0217796 0
-0.11877 0.0192389 0
-0.120483 0.017844 0
-0.122689 0.0165058 0
-0.125308 0.0154045 0
-0.12834 0.0145954 0
-0.13186 0.0143366 0
-0.135783 0.0146648 0
-0.144527 0.0166833 0
-0.149177 0.017713 0
-0.153982 0.0186778 0
-0.158947 0.0196006 0
-0.164079 0.0204901 0
-0.169373 0.0213467 0
-0.174834 0.0221728 0
-0.180464 0.0229757 0
-0.186245 0.0237693 0
-0.19217 0.0245187 0
-0.198246 0.0252393 0
-0.204464 0.0259339 0
-0.21082 0.0265982 0
-0.217307 0.0272325 0
-0.223917 0.027837 0
-0.230647 0.028412 0
-0.237488 0.0289572 0
-0.244435 0.0294733 0
-0.251483 0.0299603 0
-0.258625 0.0304181 0
-0.265857 0.0308466 0
-0.273171 0.0312452 0
-0.28056 0.0316127 0
-0.28802 0.0319509 0
-0.295551 0.0322636 0
-0.303133 0.0325386 0
-0.310774 0.032793 0
-0.318456 0.0330149 0
-0.326183 0.0332058 0
-0.333945 0.0333657 0
-0.341735 0.0334938 0
-0.349546 0.0335883 0
-0.357364 0.0336484 0
-0.365177 0.0336756 0
-0.372981 0.0259104 0
-0.372994 0.0181707 0
-0.373032 0.0104522 0
-0.373118 0.00274372 0
-0.380555 0.032922 0
-0.38782 0.0307054 0
-0.394501 0.027118 0
-0.400344 0.0223063 0
-0.405133 0.0164554 0
-0.408686 0.00979082 0
-0.410874 0.00256554 0
-0.397459 -0.0260353 0
-0.389497 -0.0335571 0
-0.381952 -0.0329941 0
-0.40107 -0.0134959 0
-0.391715 -0.0121634 0
-0.380514 -0.0239174 0
-0.401387 -0.0210061 0
-0.394204 -0.0310292 0
-0.383335 -0.0117391 0
-0.389249 -0.0264902 0
-0.394565 -0.0196031 0
-0.379301 -0.0174051 0
-0.386449 -0.0185459 0
-0.358114 -0.0287306 0
-0.357811 -0.0129632 0
-0.356415 0.00319508 0
-0.358578 0.0187581 0
-0.340121 -0.0294067 0
-0.339853 -0.0121949 0
-0.339773 0.00342598 0
-0.34085 0.0196062 0
-0.325353 -0.0286853 0
-0.324832 -0.0116696 0
-0.323818 0.0050994 0
-0.324918 0.0194885 0
-0.308569 -0.0282601 0
-0.308299 -0.0121587 0
-0.308715 0.00518644 0
-0.307796 0.0196447 0
-0.289836 -0.0277931 0
-0.289668 -0.011932 0
-0.292205 0.00281261 0
-0.29066 0.018801 0
-0.273606 -0.0271598 0
-0.274667 -0.0113057 0
-0.274913 0.00560129 0
-0.273793 0.0186072 0
-0.258545 -0.0265703 0
-0.257965 -0.00946783 0
-0.260426 0.00430337 0
-0.259205 0.0179008 0
-0.244215 -0.0265918 0
-0.243439 -0.0112138 0
-0.244937 0.00433321 0
-0.244547 0.0170843 0
-0.230389 -0.0261391 0
-0.230986 -0.0112471 0
-0.229703 0.00393417 0
-0.230219 0.0163589 0
-0.216956 -0.0248758 0
-0.21754 -0.00958371 0
-0.214845 0.00289963 0
-0.216338 0.0156981 0
-0.203709 -0.0235576 0
-0.203529 -0.00903431 0
-0.201579 0.00351604 0
-0.203102 0.0151988 0
-0.190853 -0.0229159 0
-0.189535 -0.0101237 0
-0.189246 0.00183833 0
-0.189753 0.0138834 0
-0.177253 -0.0220709 0
-0.177072 -0.00987931 0
-0.177604 0.000857078 0
-0.177011 0.0119764 0
-0.16455 -0.0205353 0
-0.165255 -0.00935608 0
-0.164611 0.0020894 0
-0.164473 0.0113238 0
-0.154046 -0.0191761 0
-0.153709 -0.00815095 0
-0.154872 0.00140468 0
-0.154287 0.0103718 0
-0.14465 -0.0181881 0
-0.144452 -0.00884594 0
-0.145187 0.00066591 0
-0.144544 0.00895524 0
-0.135633 -0.0162657 0
-0.13571 -0.0076239 0
-0.136683 0.000174142 0
-0.135514 0.00704406 0
-0.128545 -0.0160042 0
-0.127985 -0.00791645 0
-0.127664 -0.000217021 0
-0.127258 0.00673414 0
-0.122193 -0.0146219 0
-0.121752 -0.00730956 0
-0.120578 5.17132e-05 0
-0.121571 0.00628688 0
-0.12072 0.0122171 0
-0.119562 0.0164659 0
-0.116286 -0.0136232 0
-0.115706 -0.00689241 0
-0.115534 0.00029436 0
-0.115301 0.00637098 0
-0.114942 0.0116814 0
-0.114328 0.0162351 0
-0.11452 0.01989 0
-0.112996 0.0226704 0
-0.111749 0.0247555 0
-0.110888 0.0261136 0
-0.11006 0.0268588 0
-0.109312 0.0270105 0
-0.108609 0.026663 0
-0.107874 0.0257451 0
-0.107368 0.0245739 0
-0.106927 0.0231072 0
-0.10668 0.0212991 0
-0.106375 0.019269 0
-0.105982 0.0170862 0
-0.105794 0.0149133 0
-0.105699 0.0126753 0
-0.105639 0.0104837 0
-0.10586 0.00810529 0
-0.106056 0.00610919 0
-0.10629 0.00438244 0
-0.106566 0.00297721 0
-0.106974 0.00198183 0
-0.107387 0.00140364 0
-0.107792 0.00135646 0
-0.108161 0.00173075 0
-0.10849 0.00246696 0
-0.10872 0.0033133 0
-0.108749 0.00420684 0
-0.110601 -0.0128069 0
-0.110579 -0.00645891 0
-0.110551 -0.000215521 0
-0.11011 0.00590376 0
-0.110143 0.0112567 0
-0.110123 0.0158077 0
-0.110121 0.0197986 0
-0.110062 0.0228855 0
-0.109847 0.0249041 0
-0.109612 0.0262959 0
-0.109346 0.0270035 0
-0.109035 0.0271662 0
-0.108784 0.0268048 0
-0.108562 0.0259535 0
-0.108384 0.0247078 0
-0.108185 0.02306 0
-0.108097 0.0213105 0
-0.108017 0.0192733 0
-0.107843 0.0170482 0
-0.107743 0.0148724 0
-0.107647 0.0125939 0
-0.107549 0.010326 0
-0.107499 0.00816729 0
-0.107604 0.00611698 0
-0.107484 0.00431042 0
-0.10752 0.00288281 0
-0.107542 0.00188317 0
-0.107695 0.00123067 0
-0.10788 0.00119041 0
-0.108048 0.00160625 0
-0.1082 0.00237918 0
-0.108292 0.00327588 0
-0.108315 0.00433623 0
-0.104557 -0.0121178 0
-0.104429 -0.00613746 0
-0.104581 -0.000355432 0
-0.104935 0.00489625 0
-0.105529 0.0112531 0
-0.106136 0.0154889 0
-0.10647 0.0196905 0
-0.10738 0.0225571 0
-0.107645 0.0249679 0
-0.107963 0.0263066 0
-0.108322 0.0269976 0
-0.108646 0.0271662 0
-0.108931 0.0268096 0
-0.109186 0.0259724 0
-0.109389 0.0247358 0
-0.109559 0.023187 0
-0.109814 0.0213385 0
-0.109588 0.0192425 0
-0.109714 0.0170824 0
-0.109709 0.0148625 0
-0.109593 0.0125436 0
-0.109422 0.0102972 0
-0.109229 0.00819844 0
-0.108882 0.0061637 0
-0.108724 0.00435286 0
-0.108449 0.00289666 0
-0.108125 0.00166916 0
-0.107977 0.000986076 0
-0.107916 0.000967221 0
-0.107896 0.00149536 0
-0.107914 0.00241683 0
-0.107892 0.00342794 0
-0.107808 0.00457006 0
-0.0993816 -0.0116575 0
-0.0998196 -0.00601747 0
-0.100002 -0.000361727 0
-0.10073 0.00535227 0
-0.1007 0.0110964 0
-0.101501 0.0152606 0
-0.102968 0.0191714 0
-0.103787 0.0224028 0
-0.105283 0.0247125 0
-0.106347 0.0260151 0
-0.107409 0.0267611 0
-0.108368 0.0269847 0
-0.109255 0.0265936 0
-0.109966 0.0257732 0
-0.110381 0.0246198 0
-0.110789 0.0231483 0
-0.111231 0.0213121 0
-0.111619 0.0192468 0
-0.111498 0.0171286 0
-0.111783 0.0149314 0
-0.111517 0.0123847 0
-0.111259 0.0102819 0
-0.111224 0.00820613 0
-0.110785 0.00624699 0
-0.11023 0.00449464 0
-0.109511 0.00292521 0
-0.108641 0.00156768 0
-0.108053 0.000782449 0
-0.107678 0.000645113 0
-0.107522 0.00131341 0
-0.107424 0.00234755 0
-0.107276 0.00357697 0
-0.107073 0.00495744 0
-0.0944054 -0.011225 0
-0.0949586 -0.00561376 0
-0.0952821 -8.15141e-05 0
-0.0955318 0.00533105 0
-0.0958208 0.010609 0
-0.106943 0.000265625 0
-0.10683 0.00102982 0
-0.106514 0.00216712 0
-0.10619 0.00380188 0
-0.106018 0.00544704 0
-0.0893306 -0.011129 0
-0.0888714 -0.00567396 0
-0.0894165 -0.000237284 0
-0.0899493 0.00471006 0
-0.0843771 -0.0110671 0
-0.0841795 -0.00539065 0
-0.0843854 -1.11721e-06 0
-0.0844128 0.00482197 0
-0.0794162 -0.0107355 0
-0.079169 -0.005213 0
-0.0793046 0.000343975 0
-0.0792058 0.00478985 0
-0.0743824 -0.0103726 0
-0.0740048 -0.00530747 0
-0.0738563 3.95765e-05 0
-0.0741174 0.0047801 0
-0.0694316 -0.0102083 0
-0.0689748 -0.00508307 0
-0.0690284 0.000252079 0
-0.0692091 0.00471663 0
-0.0643031 -0.00995757 0
-0.0641715 -0.0050053 0
-0.0642801 0.000344486 0
-0.063953 0.00480515 0
-0.0586095 -0.00960493 0
-0.0585099 -0.00476403 0
-0.0592424 -0.000275308 0
-0.0587445 0.00461522 0
-0.0537157 -0.00923337 0
-0.0539865 -0.00443974 0
-0.0540188 0.000690989 0
-0.0536595 0.00463802 0
-0.0492044 -0.0088945 0
-0.0489805 -0.00373712 0
-0.0496813 0.00039954 0
-0.0492896 0.00450485 0
-0.0449367 -0.00875132 0
-0.0446603 -0.00413358 0
-0.0450656 0.00052409 0
-0.0449216 0.00435106 0
-0.0408347 -0.00847518 0
-0.0409673 -0.00403086 0
-0.0405468 0.000526154 0
-0.0406693 0.00423576 0
-0.0368589 -0.00796584 0
-0.0369864 -0.00341032 0
-0.036155 0.000344172 0
-0.0365626 0.00414907 0
-0.0329454 -0.00744629 0
-0.0328491 -0.00311537 0
-0.0322356 0.000651277 0
-0.0326522 0.00411891 0
-0.0291513 -0.00713524 0
-0.0287182 -0.00330431 0
-0.0285729 0.000285451 0
-0.0287091 0.00387529 0
-0.02513 -0.00676139 0
-0.0250186 -0.00312529 0
-0.0248842 0.000202446 0
-0.0249939 0.00353052 0
-0.0213541 -0.00619206 0
-0.0215384 -0.00285771 0
-0.0214264 0.000523592 0
-0.0212834 0.00341556 0
-0.0182001 -0.00569578 0
-0.0180738 -0.0023424 0
-0.0184127 0.0005458 0
-0.0182035 0.00328413 0
-0.0153329 -0.00532059 0
-0.0152619 -0.00246338 0
-0.0154939 0.000460548 0
-0.0153322 0.00304354 0
-0.012514 -0.00465217 0
-0.0125492 -0.00201901 0
-0.0128703 0.000386972 0
-0.0126483 0.00279925 0
-0.0102292 -0.00447842 0
-0.0101023 -0.00204545 0
-0.0101729 0.000497435 0
-0.0101763 0.00256085 0
-0.00812098 -0.00392255 0
-0.00791153 -0.00172503 0
-0.00778928 0.000391475 0
-0.00796075 0.0023085 0
-0.00616349 -0.00342696 0
-0.00586096 -0.00148577 0
-0.00608123 0.000498517 0
-0.00603693 0.00202728 0
-0.00436014 -0.00289635 0
-0.00420463 -0.00133582 0
-0.0042212 0.000295521 0
-0.00418817 0.00174436 0
-0.00268424 -0.00225441 0
-0.00255488 -0.00102333 0
-0.00263156 0.000155396 0
-0.00267527 0.00140002 0
-0.0015325 -0.00166143 0
-0.00150867 -0.000712595 0
-0.00148642 0.000201277 0
-0.00146737 0.00101992 0
-0.000795016 -0.00116633 0
-0.000674511 -0.00052542 0
-0.000707121 7.57651e-05 0
-0.000672807 0.0006736 0
-0.00018806 -0.000474591 0
-0.000116673 -0.000230315 0
-9.85352e-05 2.67015e-05 0
-0.000142492 0.000294856 0
-0.105209 0.000615164 0
-0.10504 0.0021181 0
-0.104816 0.00382495 0
-0.104479 0.00601116 0
-0.100013 -0.000944534 0
-0.100059 0.00144383 0
-0.0999845 0.00391597 0
-0.100102 0.00703569 0
-0.102519 0.00675061 0
-0.102685 0.00421555 0
-0.102825 0.00187886 0
-0.102863 -0.00011778 0
-0.09683 -0.00176171 0
-0.0967701 0.00111514 0
-0.0970368 0.00422947 0
-0.0970301 0.00751061 0
-0.0933346 -0.00243936 0
-0.0933598 0.000823589 0
-0.0928455 0.00453343 0
-0.0935125 0.00797109 0
-0.0889984 -0.00330867 0
-0.0892014 0.00078334 0
-0.0895346 0.00451264 0
-0.0894807 0.00843573 0
-0.084676 -0.00390359 0
-0.0846844 0.000478053 0
-0.0843863 0.00451731 0
-0.0844487 0.00880239 0
-0.0796816 -0.00429013 0
-0.0799334 -0.000186559 0
-0.0800319 0.00448548 0
-0.0796882 0.00901658 0
-0.075 -0.00475799 0
-0.075319 -0.000358333 0
-0.0752539 0.00446207 0
-0.0749624 0.00908915 0
-0.0700873 -0.00511945 0
-0.0700751 -0.000957015 0
-0.0703384 0.00401521 0
-0.070057 0.00922191 0
-0.0650346 -0.00540051 0
-0.0648854 -0.000835813 0
-0.0648691 0.0040556 0
-0.0651978 0.009342 0
-0.0599412 -0.00563907 0
-0.0600636 -0.000983503 0
-0.0604241 0.00411632 0
-0.0602956 0.0092746 0
-0.0547919 -0.00584873 0
-0.0543203 -0.00119877 0
-0.0549673 0.00344721 0
-0.0550959 0.00908639 0
-0.0497177 -0.00589238 0
-0.0495495 -0.00154383 0
-0.0492833 0.00377502 0
-0.0498129 0.00905448 0
-0.0436336 -0.00601648 0
-0.0435767 -0.000872144 0
-0.0438884 0.00373038 0
-0.0439881 0.00894904 0
-0.0384679 -0.00583536 0
-0.0386375 -0.00108126 0
-0.0386082 0.00362249 0
-0.0382589 0.00852854 0
-0.0333598 -0.00586205 0
-0.0337567 -0.00154695 0
-0.0334574 0.00334535 0
-0.0332731 0.00806864 0
-0.0286108 -0.00557948 0
-0.02863 -0.00134364 0
-0.0286556 0.00290644 0
-0.0284424 0.00760583 0
-0.0240861 -0.00530737 0
-0.0240769 -0.00156368 0
-0.0240256 0.00326524 0
-0.0239361 0.00735434 0
-0.0198045 -0.00499827 0
-0.0195894 -0.00148622 0
-0.0200711 0.002824 0
-0.0200142 0.00690189 0
-0.0158457 -0.00466993 0
-0.0154201 -0.0013368 0
-0.0159704 0.00190072 0
-0.0161844 0.00613579 0
-0.0123312 -0.00427203 0
-0.0119649 -0.00146149 0
-0.0120506 0.00207748 0
-0.0124733 0.00550468 0
-0.00878386 -0.00363983 0
-0.00841728 -0.000760871 0
-0.00886833 0.00186006 0
-0.00902594 0.00475703 0
-0.00577516 -0.00303979 0
-0.00559502 -0.000726969 0
-0.00550233 0.00147084 0
-0.00572975 0.00380276 0
-0.00335007 -0.00228168 0
-0.00332732 -0.000695709 0
-0.00336069 0.00110456 0
-0.00343879 0.00290475 0
-0.00165777 -0.0015591 0
-0.00158131 -0.000380103 0
-0.00171078 0.000803068 0
-0.00183979 0.00196516 0
-0.000415714 -0.000656492 0
-0.000413579 -0.000170502 0
-0.000368964 0.000359088 0
-0.000497007 0.000886489 0
-0.108914 0.00403059 0
-0.124697 0.0127243 0
-0.121866 0.0146965 0
-0.108199 0.00472666 0
-0.100963 0.0175052 0
-0.108952 0.00312655 0
-0.103461 -0.000816675 0
-0.0857898 0.00715532 0
-0.136818 0.0112185 0
-0.107412 0.000394069 0
-0.0916046 0.00904869 0
-0.128764 0.0121264 0
-0.104807 -0.000305298 0
-0.108394 0.00111522 0
-0.108396 0.00464082 0
-0.109019 0.00345878 0
-0.116409 0.0201886 0
-0.0973524 0.0129542 0
-0.0991047 0.01514 0
-0.105764 -0.00015241 0
-0.107904 0.000678342 0
-0.132553 0.0117853 0
-0.0889238 0.00744134 0
-0.108555 0.00443181 0
-0.115672 0.0214449 0
-0.365867 -0.0329375 0
-0.35317 -0.0362931 0
-0.291686 0.0266037 0
-0.306944 0.0271698 0
-0.337319 -0.0365929 0
-0.277266 0.0250082 0
-0.321846 -0.0362745 0
-0.262529 0.0243725 0
-0.307142 -0.03672 0
-0.248047 0.0235459 0
-0.284676 -0.0352673 0
-0.226973 0.0221946 0
-0.269633 -0.0344177 0
-0.213511 0.0212449 0
-0.254981 -0.0337619 0
-0.200581 0.0202923 0
-0.240829 -0.0332077 0
-0.188123 0.0195294 0
-0.227113 -0.0323484 0
-0.178559 0.0182243 0
-0.213816 -0.0310927 0
-0.161687 0.0156012 0
-0.200924 -0.0298488 0
-0.151647 0.0141133 0
-0.188455 -0.0287667 0
-0.141996 0.0122881 0
-0.172634 -0.0271154 0
-0.161658 -0.0253624 0
-0.109484 0.0268059 0
-0.151674 -0.0237929 0
-0.142606 -0.022213 0
-0.134325 -0.0205133 0
-0.12726 -0.0191147 0
-0.120935 -0.0176262 0
-0.115193 -0.016445 0
-0.11022 -0.0158449 0
-0.10294 -0.0146313 0
-0.0980488 -0.0141373 0
-0.080536 0.00699721 0
-0.0931159 -0.013814 0
-0.0755012 0.00694391 0
-0.0881475 -0.0136422 0
-0.0706004 0.0068659 0
-0.0831905 -0.013447 0
-0.0657619 0.0068518 0
-0.0782292 -0.0131343 0
-0.059048 0.00698653 0
-0.0732834 -0.0128282 0
-0.0546949 0.00655645 0
-0.0684089 -0.0125758 0
-0.0502732 0.00643178 0
-0.0639037 -0.0125394 0
-0.0459512 0.006262 0
-0.0570775 -0.0118147 0
-0.0417457 0.00607867 0
-0.0525487 -0.0113781 0
-0.0376828 0.00591076 0
-0.0481652 -0.0110129 0
-0.0337847 0.00574126 0
-0.0439525 -0.0106908 0
-0.0300124 0.00554993 0
-0.0398846 -0.0102893 0
-0.0267846 0.00575221 0
-0.0359508 -0.00978129 0
-0.0219889 0.00484714 0
-0.0321425 -0.00928749 0
-0.0188696 0.00461261 0
-0.0284596 -0.00885219 0
-0.0159822 0.0043056 0
-0.0237745 -0.00822818 0
-0.0132906 0.00397824 0
-0.0205013 -0.00762194 0
-0.0108142 0.0036424 0
-0.0174907 -0.00708173 0
-0.0085717 0.00329047 0
-0.0147071 -0.00654212 0
-0.00658563 0.00291419 0
-0.0121004 -0.00595202 0
-0.00482712 0.00253953 0
-0.00981379 -0.00542126 0
-0.00279403 0.00202066 0
-0.00772679 -0.00479965 0
-0.00172264 0.00151272 0
-0.00585003 -0.00418717 0
-0.000876031 0.00105624 0
-0.00431996 -0.00366519 0
-0.000313115 0.000581066 0
-0.00238076 -0.00262802 0
-5.30519e-05 0.00017294 0
-0.0013963 -0.00193332 0
-3.49052e-06 -1.83678e-05 0
-0.000683429 -0.00123048 0
-1.9494e-05 -0.000131338 0
-0.00018827 -0.000467775 0
-0.10869 0.026843 0
-0.108432 0.0265112 0
-0.109669 0.0262898 0
-0.107491 0.0257832 0
-0.110414 0.0253279 0
-0.106703 0.0247189 0
-0.110914 0.024195 0
-0.106015 0.0233225 0
-0.106342 0.0240585 0
-0.111391 0.0226822 0
-0.105441 0.0216405 0
-0.105712 0.0225151 0
-0.0926557 0.00987951 0
-0.096169 0.00924349 0
-0.104844 0.00615225 0
-0.104526 0.00807434 0
-0.104283 0.0101137 0
-0.102106 -0.0013444 0
-0.0890268 0.0106043 0
-0.00035323 -0.000711085 0
-8.85881e-05 -0.000131359 0
-8.19739e-05 0.000104655 0
-0.000219339 0.00049588 0
-0.000942334 0.00159755 0
-0.0022591 0.0028548 0
-0.0116443 -0.00549673 0
-0.00871129 -0.00503549 0
-0.0150941 -0.00611235 0
-0.0135279 0.00737039 0
-0.0172012 0.00818995 0
-0.021092 0.00896046 0
-0.0368556 -0.00797064 0
-0.0320328 -0.00775674 0
-0.0417435 -0.00825071 0
-0.0418971 0.0112741 0
-0.0461784 0.0115136 0
-0.0687787 -0.00729162 0
-0.0637975 -0.00760737 0
-0.0736443 -0.0068954 0
-0.0736972 0.0115133 0
-0.0783968 0.0113008 0
-0.095993 -0.00333658 0
-0.0924471 -0.00416349 0
-0.0783237 -0.00639718 0
-0.0828636 -0.00589293 0
-0.0587498 -0.00785697 0
-0.0536821 -0.0080284 0
-0.0485936 -0.00805856 0
-0.0274244 -0.00744136 0
-0.0230333 -0.00705857 0
-0.0189035 -0.00662471 0
-0.00496986 -0.00373182 0
-0.00292634 -0.00281277 0
-0.00139725 -0.00182923 0
-0.00507726 0.00460173 0
-0.00740389 0.00532148 0
-0.0102175 0.00651935 0
-0.0274386 0.00979326 0
-0.0320642 0.0103206 0
-0.0368742 0.0107972 0
-0.0513467 0.0116081 0
-0.059022 0.0117562 0
-0.0639984 0.0117785 0
-0.0688586 0.0116867 0
-0.0829005 0.0110427 0
-0.0991966 -0.00239456 0
-0.0992744 0.00857417 0
-0.105267 0.00447857 0
-0.101876 0.00789923 0
-0.10395 0.00711456 0
-0.106215 0.00600916 0
-0.107164 0.00540947 0
-0.107746 0.00505368 0
-0.108738 0.00241259 0
-0.108874 0.00275582 0
-0.104233 0.0122089 0
-0.104289 0.0144053 0
-0.104468 0.0165836 0
-0.104777 0.0186938 0
-0.10519 0.0206986 0
-0.321597 0.026295 0
-0.365842 -0.00888225 0
-0.345372 0.026575 0
-0.365648 0.00687183 0
-0.36239 0.0265675 0
-0.0887723 -0.0052175 0
-0.113352 0.0244773 0
-0.111955 0.0258334 0
-0.110658 0.0266021 0
-0.104972 0.0197177 0
-0.104609 0.0176477 0
-0.104362 0.0154997 0
-0.104245 0.0133026 0
-0.104242 0.0111392 0
-0.10579 0.00311305 0
-0.106412 0.00212206 0
-0.107088 0.00156681 0
-0.107743 0.00148075 0
-0.108311 0.0018077 0
-0.366006 -0.0245836 0
-0.365988 -0.0166998 0
-0.000402891 -0.000849267 0
-0.0010157 -0.00159445 0
-0.00185191 -0.00227416 0
-0.00291721 -0.00298102 0
-0.00354557 -0.00312086 0
-0.00500377 -0.003882 0
-0.00675658 -0.00449105 0
-0.00874492 -0.00510993 0
-0.0109231 -0.00570859 0
-0.0133626 -0.00621918 0
-0.016074 -0.00681671 0
-0.0189663 -0.00734104 0
-0.0221072 -0.0079103 0
-0.0252161 -0.00866617 0
-0.0266615 -0.0086574 0
-0.0302806 -0.00906537 0
-0.0340251 -0.00952113 0
-0.0379023 -0.0100384 0
-0.0419023 -0.0105033 0
-0.0460415 -0.0108605 0
-0.0503358 -0.0111872 0
-0.0547985 -0.0115868 0
-0.059131 -0.0121889 0
-0.0614821 -0.0116612 0
-0.0660055 -0.0124664 0
-0.0708319 -0.0127008 0
-0.0757432 -0.0129709 0
-0.0807052 -0.0132987 0
-0.0856645 -0.0135578 0
-0.0906272 -0.0137167 0
-0.0955933 -0.0139506 0
-0.100503 -0.0143552 0
-0.105127 -0.0151149 0
-0.107611 -0.0146387 0
-0.112513 -0.0159848 0
-0.117994 -0.0169924 0
-0.124019 -0.0183417 0
-0.130665 -0.0198667 0
-0.138306 -0.0212631 0
-0.147034 -0.0230166 0
-0.15655 -0.0245444 0
-0.167032 -0.0261938 0
-0.177487 -0.0284548 0
-0.182373 -0.0282882 0
-0.194618 -0.0292976 0
-0.207298 -0.0304311 0
-0.220415 -0.0317357 0
-0.233921 -0.0328277 0
-0.247854 -0.0335188 0
-0.262246 -0.0340685 0
-0.277118 -0.0348171 0
-0.291452 -0.0362246 0
-0.299232 -0.0341759 0
-0.314023 -0.036208 0
-0.32964 -0.0364489 0
-0.345115 -0.0363065 0
-0.359939 -0.037005 0
-2.09908e-05 0.000100613 0
-7.35979e-06 4.03263e-05 0
-7.11453e-06 -7.46131e-05 0
-3.68472e-05 -0.000181447 0
-6.43049e-05 -0.000219207 0
-0.0831103 0.007036 0
-0.0780022 0.00696434 0
-0.0730363 0.00690535 0
-0.0681764 0.00682336 0
-0.0636858 0.00712212 0
-0.0613579 0.00636834 0
-0.0569985 0.00664456 0
-0.0524627 0.0065033 0
-0.0481013 0.00634553 0
-0.0438327 0.0061592 0
-0.0396947 0.0059915 0
-0.0357106 0.00581802 0
-0.0318904 0.00565538 0
-0.0282105 0.00557157 0
-0.0253932 0.00531186 0
-0.0236925 0.00499827 0
-0.0203952 0.0047354 0
-0.0174023 0.00445961 0
-0.0146112 0.00414014 0
-0.012026 0.00380942 0
-0.00966219 0.00346613 0
-0.00754749 0.00310394 0
-0.00567825 0.00271811 0
-0.00415389 0.00245766 0
-0.00342338 0.00204473 0
-0.00226102 0.00175173 0
-0.00126371 0.00128652 0
-0.000557318 0.000816091 0
-0.00016789 0.000391131 0
-0.109176 0.00215708 0
-0.110087 0.00372766 0
-0.110745 0.00536583 0
-0.111269 0.00720806 0
-0.111673 0.00938489 0
-0.111917 0.0113025 0
-0.112191 0.0132436 0
-0.112239 0.0157811 0
-0.112126 0.0176744 0
-0.111972 0.0199485 0
-0.000807564 -0.00127728 0
-0.00209937 -0.00233523 0
-0.00388148 -0.00326508 0
-0.00603496 -0.00425005 0
-0.00727342 -0.00426459 0
-0.0100241 -0.00517334 0
-0.0133305 -0.0058216 0
-0.0169534 -0.00637572 0
-0.0209308 -0.00683906 0
-0.0251997 -0.00725539 0
-0.0297033 -0.0075978 0
-0.0344074 -0.00788527 0
-0.0393105 -0.0081233 0
-0.043824 -0.00855957 0
-0.0459629 -0.00814632 0
-0.0511521 -0.00805513 0
-0.0562137 -0.00794793 0
-0.0612823 -0.00773339 0
-0.0662974 -0.00745334 0
-0.0712311 -0.00709942 0
-0.0760073 -0.00665482 0
-0.0806112 -0.00611781 0
-0.0847455 -0.00590888 0
-0.0868201 -0.00504286 0
-0.0905095 -0.00462823 0
-0.0942675 -0.00375568 0
-0.0976341 -0.00287599 0
-0.100686 -0.00187672 0
-0.000136274 0.000337883 0
-9.91604e-05 0.000218035 0
-8.06687e-05 -8.56509e-06 0
-0.000100753 -0.00023169 0
-0.00013281 -0.00031286 0
-0.107968 0.00486522 0
-0.107511 0.00517241 0
-0.106736 0.00568717 0
-0.10558 0.00635756 0
-0.104826 0.00673527 0
-0.102963 0.00753223 0
-0.100647 0.00823347 0
-0.097771 0.00892482 0
-0.094451 0.00956676 0
-0.0907717 0.0102017 0
-0.0869824 0.0102393 0
-0.0848123 0.011075 0
-0.0806765 0.0111776 0
-0.076071 0.011413 0
-0.0712924 0.0116101 0
-0.0664307 0.0117574 0
-0.0615294 0.0117862 0
-0.0564735 0.0117096 0
-0.0539144 0.0116538 0
-0.0487647 0.0115512 0
-0.0440369 0.0117306 0
-0.0393622 0.0110265 0
-0.0344469 0.0105579 0
-0.0297212 0.0100545 0
-0.0252254 0.00954401 0
-0.0231139 0.00927963 0
-0.0191211 0.00860303 0
-0.0153309 0.0077849 0
-0.0118253 0.00695369 0
-0.00889944 0.00623421 0
-0.0061464 0.005184 0
-0.00400961 0.00402892 0
-0.00307383 0.00345957 0
-0.00153847 0.00222405 0
-0.000558431 0.00108483 0
-0.10804 0.0015976 0
-0.108544 0.00208806 0
-0.114097 0.023577 0
-0.112644 0.0252285 0
-0.111295 0.0262897 0
-0.110056 0.0267727 0
-0.108945 0.0267189 0
-0.107947 0.0261953 0
-0.107084 0.0252981 0
-0.104395 0.00909173 0
-0.104672 0.00708475 0
-0.105042 0.00527967 0
-0.105517 0.00375187 0
-0.106089 0.00256684 0
-0.106746 0.00178651 0
-0.107422 0.00146601 0
-0.353727 0.0264328 0
-0.337356 0.0265482 0
-0.329457 0.026437 0
-0.313726 0.0263628 0
-0.299295 0.0246517 0
-0.284909 0.0253992 0
-0.269837 0.0247255 0
-0.25526 0.0239598 0
-0.240922 0.02307 0
-0.233894 0.0226049 0
-0.220169 0.0217117 0
-0.206978 0.0207706 0
-0.194214 0.0197147 0
-0.183309 0.0199915 0
-0.172747 0.0169073 0
-0.167016 0.0161905 0
-0.156593 0.0148925 0
-0.146815 0.0132301 0
-0.365612 -0.000976707 0
-0.366094 0.0143865 0
-0.366612 0.0207584 0
-0.114881 0.0225514 0
-0.107913 0.026889 0
-0.106748 0.0263958 0
-0.1108 0.0223537 0
-0.111136 0.020242 0
-0.111256 0.0181686 0
-0.11044 0.023935 0
-0.108727 0.00381717 0
-0.110045 0.0252639 0
-0.111327 0.0160722 0
-0.109496 0.0262984 0
-0.111307 0.0136813 0
-0.108691 0.00283094 0
-0.108083 0.00452984 0
-0.0197097 0.00336101 0
-0.0522583 -0.00589639 0
-0.0307696 0.00409366 0
-0.0357706 -0.00597944 0
-0.108796 0.0269136 0
-0.110926 0.0113433 0
-0.0951239 -0.00211285 0
-0.071645 0.00475091 0
-0.00103792 0.000850054 0
-0.00244197 -0.00192845 0
-0.0140262 -0.00447902 0
-0.00696939 0.00217406 0
-0.266542 0.0182698 0
-0.0514846 0.00457445 0
-0.0773667 -0.00453218 0
-0.0167496 0.00315874 0
-0.0573726 -0.00572212 0
-0.0345758 0.00412027 0
-0.0309582 -0.00569495 0
-0.349237 0.0192767 0
-0.00037352 0.000485458 0
-0.000986668 -0.00113351 0
-0.0984662 -0.00134741 0
-0.0766536 0.00476095 0
-0.106382 4.79057e-06 0
-0.117311 0.0184134 0
-0.047095 0.00441313 0
-0.0177786 -0.00482854 0
-0.00903713 0.00242612 0
-0.07256 -0.00492522 0
-0.251849 0.0174478 0
-0.000111768 -0.000299428 0
-0.081954 0.00952791 0
-0.000306784 -0.000357313 0
-0.00449234 0.00361107 0
-0.0261615 0.0080002 0
-0.0357232 0.00889697 0
-0.057722 0.00982787 0
-0.108498 0.00222809 0
-0.113531 0.0231897 0
-0.112877 0.0241808 0
-0.359864 0.0110417 0
-0.109633 0.0269359 0
-0.105912 0.0202685 0
-0.105583 0.0181752 0
-0.105309 0.0160257 0
-0.105167 0.0138202 0
-0.105112 0.0116155 0
-0.107925 0.0260507 0
-0.106774 0.0238096 0
-0.106311 0.0221938 0
-0.360145 -0.0207803 0
-8.31192e-05 0.000134538 0
-0.111165 0.0234606 0
-0.11065 0.0248378 0
-0.109933 0.0260193 0
-0.109072 0.0267011 0
-0.108303 0.0268726 0
-0.000327968 0.000519745 0
-0.000285575 9.30885e-05 0
-0.105286 0.00595444 0
-0.103491 0.00659402 0
-0.101398 0.00714811 0
-0.098588 0.00768679 0
-0.09531 0.00814222 0
-0.0676301 0.0099482 0
-0.0627669 0.00999244 0
-0.0308585 0.00844548 0
-0.105076 0.00967355 0
-0.105318 0.00757289 0
-0.332834 0.0195448 0
-0.159288 0.0109077 0
-0.149377 0.00965786 0
-0.108748 0.0267306 0
-0.107341 0.0251318 0
-0.105747 0.00482077 0
-0.105443 0.00659315 0
-0.0408677 0.00940031 0
-0.0773232 0.00963665 0
-0.106118 0.00334948 0
-0.111721 0.025704 0
-0.110628 0.0266126 0
-0.10657 0.00226022 0
-0.107103 0.00157506 0
-0.107637 0.00138235 0
-0.10811 0.00163968 0
-7.229e-05 -8.76438e-05 0
-0.0916381 0.00871606 0
-0.0725183 0.00976631 0
-0.11229 0.0250254 0
-0.111164 0.0262342 0
-0.10559 0.0056716 0
-0.105928 0.0040391 0
-0.106322 0.00275959 0
-0.106832 0.0018582 0
-0.237333 0.0166357 0
-0.223206 0.0159848 0
-0.209614 0.0154061 0
-0.196731 0.0148962 0
-0.359585 -0.0050264 0
-0.114224 0.0221368 0
-0.0139722 0.00291663 0
-0.0263143 -0.00543603 0
-0.0624901 -0.00551721 0
-0.0385937 0.00417788 0
-0.108528 0.00403498 0
-0.101485 -0.000516246 0
-0.0817876 0.00478187 0
-0.139837 0.00810616 0
-0.110735 0.00924323 0
-0.108059 0.0270178 0
-0.0983739 0.0108738 0
-0.107412 0.000479702 0
-0.0427792 0.00426709 0
-0.0675704 -0.00524998 0
-0.0219054 -0.00513307 0
-0.011386 0.00267227 0
-0.11045 0.00718678 0
-0.114847 0.0211016 0
-0.10949 0.00364255 0
-0.110021 0.00530227 0
-0.10414 0.000260085 0
-0.0871648 0.00484435 0
-0.110467 0.0265585 0
-0.107179 0.00162858 0
-0.111319 0.0255125 0
-0.106349 0.0051982 0
-0.106771 0.00246339 0
-0.113422 0.0215818 0
-0.112119 0.0237462 0
-0.106574 0.003598 0
-0.156981 0.00640449 0
-0.199208 0.00987376 0
-0.0190385 0.00202949 0
-0.0315162 0.00257183 0
-0.0533583 -0.00372769 0
-0.0347374 -0.00397675 0
-0.106163 0.00708027 0
-0.0727494 0.00259309 0
-0.00199661 -0.00114809 0
-0.336261 0.0123702 0
-0.000845975 0.000459568 0
-0.0409087 0.00728408 0
-0.0959762 -0.000544592 0
-0.108109 0.00414101 0
-0.0043867 0.00274117 0
-0.0916138 0.00712097 0
-0.263319 0.0117902 0
-0.050531 0.00263916 0
-0.00738912 0.00138497 0
-0.0147494 -0.0030659 0
-0.0763418 -0.00262785 0
-0.109613 0.0270379 0
-0.106007 0.00920742 0
-0.107623 0.0012942 0
-0.0819983 0.00765715 0
-0.147215 0.0053555 0
-0.0161117 0.00188051 0
-0.212323 0.00974306 0
-0.0353914 0.00240928 0
-0.0586186 -0.00343461 0
-0.0298256 -0.00360213 0
-0.0358283 0.00656805 0
-0.0779259 0.00253493 0
-0.352753 0.0118182 0
-0.000669798 -0.000595587 0
-0.110647 0.0192328 0
-0.110226 0.0231879 0
-0.138226 0.00424569 0
-0.099286 9.59242e-05 0
-0.0952518 0.00643858 0
-0.110697 0.0171143 0
-0.109923 0.0246881 0
-0.108956 0.0269317 0
-0.106141 0.0115283 0
-0.107979 0.00147256 0
-0.11075 0.0148779 0
-0.109557 0.0258946 0
-0.0460731 0.00246817 0
-0.00956696 0.00149294 0
-0.248374 0.0108906 0
-0.0186673 -0.00320118 0
-0.0713564 -0.00292487 0
-0.0774671 0.007401 0
-0.110579 0.0125014 0
-0.10906 0.0267292 0
-0.0133718 0.00172526 0
-0.22642 0.0100455 0
-0.0395592 0.00238027 0
-0.0251692 -0.0034753 0
-0.0637196 -0.00332146 0
-0.110348 0.0102861 0
-0.108484 0.0270936 0
-0.0308479 0.006144 0
-0.0577281 0.00730025 0
-0.000224886 0.00021909 0
-0.10463 0.00123421 0
-0.110109 0.0268491 0
-0.108316 0.00190416 0
-0.106909 0.0244772 0
-0.107883 0.00146162 0
-0.109178 0.0268934 0
-0.108328 0.0264467 0
-0.107546 0.0256213 0
-0.107378 0.00141448 0
-0.083057 0.0025061 0
-0.0969909 0.00843589 0
-0.0998483 0.0131162 0
-0.106221 0.0137777 0
-0.108322 0.0263273 0
-0.108294 0.00203486 0
-0.105379 0.00520439 0
-0.0986224 0.00639024 0
-0.11015 0.00819217 0
-0.107857 0.0269135 0
-0.000215176 -0.000139978 0
-0.000643491 0.000159208 0
-0.35233 -0.00546116 0
-0.0856924 0.00253592 0
-0.233615 0.010195 0
-0.0416904 0.00236838 0
-0.0120459 0.00162037 0
-0.0663062 -0.00315455 0
-0.0229456 -0.00335295 0
-0.0725881 0.00740743 0
-0.107102 0.000595091 0
-0.0258222 0.00569345 0
-0.0627637 0.00782514 0
-0.102204 0.000729903 0
-0.000273932 -0.000491539 0
-0.000697554 0.000826258 0
-0.35266 -0.0208161 0
-0.106349 0.0159969 0
-0.107834 0.0252572 0
-0.100797 0.000425634 0
-0.103419 0.00554976 0
-0.101704 0.00582139 0
-0.0676162 0.00773115 0
-0.0688593 -0.0030715 0
-0.0207621 -0.00325731 0
-0.240973 0.0104696 0
-0.0438735 0.0023951 0
-0.0107686 0.0015632 0
-0.0883511 0.00245976 0
-0.080484 0.0025512 0
-0.103496 0.00100243 0
-0.107317 0.00172784 0
-0.110163 0.0264473 0
-0.111738 0.0225386 0
-0.108315 0.00383483 0
-0.152053 0.00589645 0
-0.161958 0.0067696 0
-0.205659 0.00975115 0
-0.017557 0.00196076 0
-0.0205696 0.002054 0
-0.0334228 0.00247257 0
-0.0559476 -0.00353034 0
-0.0508793 -0.00379876 0
-0.0322733 -0.00373095 0
-0.10661 0.00812972 0
-0.0753269 0.00248963 0
-0.344492 0.0121305 0
-0.00124434 0.000581721 0
-0.000496099 0.000328525 0
-0.00125565 -0.000882595 0
-0.0385459 0.00590589 0
-0.00339296 0.0019684 0
-0.27049 0.0123342 0
-0.255871 0.0111763 0
-0.0526784 0.00275933 0
-0.0483069 0.0025028 0
-0.00843261 0.0014096 0
-0.0130265 -0.00300035 0
-0.0166424 -0.00309782 0
-0.0738693 -0.00271448 0
-0.0942379 -0.000801118 0
-0.0976745 -0.000204187 0
-0.107029 0.00281565 0
-0.106841 0.00433459 0
-0.142538 0.00483142 0
-0.107833 0.00128135 0
-0.106585 0.0103604 0
-0.0932163 0.00602013 0
-0.109198 0.0271015 0
-0.0799542 0.00658601 0
-0.11075 0.0252662 0
-0.0147159 0.00181009 0
-0.219252 0.0097122 0
-0.0374395 0.00233993 0
-0.0612113 -0.00341346 0
-0.0274433 -0.00351336 0
-0.134587 0.00367634 0
-0.033354 0.00547845 0
-0.0869144 0.000618499 0
-0.110166 0.0202456 0
-0.110024 0.0223592 0
-0.110181 0.0181692 0
-0.109781 0.0239837 0
-0.108108 0.00167567 0
-0.108696 0.0267433 0
-0.106675 0.0126284 0
-0.110233 0.0160071 0
-0.109523 0.0253662 0
-0.0941337 0.00807422 0
-0.0992474 0.00913434 0
-0.0751088 0.00654412 0
-0.11018 0.0136981 0
-0.109187 0.0264088 0
-0.0970918 0.00572895 0
-0.109982 0.0113917 0
-0.108778 0.0270174 0
-0.0604303 0.00650548 0
-0.0283848 0.00497453 0
-0.108333 0.00240011 0
-0.000337386 4.9954e-05 0
-0.0817157 0.000403575 0
-0.108237 0.025883 0
-0.106774 0.0148856 0
-0.109791 0.00922948 0
-0.108332 0.0271167 0
-0.000362136 -0.000387952 0
-0.000936694 0.00059383 0
-0.348211 -0.0129223 0
-0.0700223 0.006437 0
-0.10463 0.00488777 0
-0.0234922 0.00526898 0
-0.0651321 0.00652595 0
-0.100078 0.00545553 0
-0.000459655 -0.000826696 0
-0.00108276 0.00143964 0
-0.348654 -0.0286998 0
-0.107885 0.0246591 0
-0.106923 0.0170576 0
-0.0910952 0.00232383 0
-0.0114181 0.000512222 0
-0.0676595 -0.00106259 0
-0.106462 0.000360356 0
-0.107226 0.0265637 0
-0.109527 0.00717661 0
-0.108759 0.00213968 0
-0.108508 0.00356943 0
-0.126167 0.00972443 0
-0.0917829 0.00664835 0
-0.105709 0.000257401 0
-0.129757 0.00924598 0
-0.107733 0.000554888 0
-0.106736 0.00610518 0
-0.10558 0.00141672 0
-0.109803 0.00619872 0
-0.10401 0.00201651 0
-0.112194 0.020749 0
-0.109882 0.026802 0
-0.10746 0.00143033 0
-0.109412 0.00441176 0
-0.108925 0.00290619 0
-0.101501 0.0016863 0
-0.0471614 0.00970545 0
-0.0273123 -0.00745645 0
-0.0230656 -0.00690635 0
-0.184613 -0.0241856 0
-0.170284 -0.0227566 0
-0.10743 0.004906 0
-0.00206981 -0.00208789 0
-0.317412 -0.0306179 0
-0.0670149 -0.0107669 0
-0.101841 -0.0126019 0
-0.0108274 0.00559204 0
-0.113584 -0.0140463 0
-0.0560284 -0.0100512 0
-0.281264 -0.0295815 0
-0.00530537 -0.00341187 0
-0.052495 0.00970863 0
-0.197354 -0.0248126 0
-0.159167 -0.0211121 0
-0.0310746 -0.00775932 0
-0.0197449 -0.00632245 0
-0.112011 0.0102806 0
-0.10657 0.00535607 0
-0.00260534 0.00263967 0
-0.0719341 -0.0109111 0
-0.0968891 -0.0120943 0
-0.00113774 -0.00148999 0
-0.333144 -0.0308862 0
-0.118681 0.0143893 0
-0.078675 -0.002453 0
-0.00646516 0.00132344 0
-0.103204 0.017273 0
-0.108319 0.00115857 0
-0.0143173 0.00625511 0
-0.0071446 -0.0039147 0
-0.119238 -0.014897 0
-0.0514447 -0.00960871 0
-0.266013 -0.0286781 0
-0.116781 0.016366 0
-0.210349 -0.0258461 0
-0.0349116 -0.00818995 0
-0.149258 -0.0198941 0
-0.016748 -0.00587763 0
-0.0769125 -0.0111792 0
-0.091871 -0.0118088 0
-0.00285512 -0.00141207 0
-0.328303 0.0126101 0
-0.070309 0.00261827 0
-0.107427 0.0239087 0
-0.10184 0.013251 0
-0.0181078 0.00703637 0
-0.00918867 -0.00448683 0
-0.0470687 -0.00939595 0
-0.125386 -0.0162268 0
-0.25136 -0.0284958 0
-0.0987005 0.00678195 0
-0.0626973 0.00532371 0
-0.0675907 0.00487214 0
-0.131265 0.00576083 0
-0.101416 0.00860359 0
-0.170319 -0.0179601 0
-0.0470429 0.00752213 0
-0.18429 -0.0190024 0
-0.0272013 -0.00590852 0
-0.0230625 -0.00546866 0
-0.101842 -0.0102516 0
-0.00199851 -0.00162866 0
-0.317325 -0.0238351 0
-0.0669401 -0.00865916 0
-0.107494 0.00441801 0
-0.159617 0.00306398 0
-0.019864 0.000956919 0
-0.0519851 -0.00203524 0
-0.0926245 0.00458751 0
-0.01072 0.00425774 0
-0.00522093 -0.00267967 0
-0.28125 -0.0229733 0
-0.0560015 -0.00804601 0
-0.113463 -0.0113966 0
-0.0714644 0.000824767 0
-0.00106136 0.00024947 0
-0.331708 0.00668315 0
-0.0024131 -0.000754218 0
-0.159293 -0.0159632 0
-0.0523063 0.00715412 0
-0.196834 -0.0184497 0
-0.0309026 -0.0058607 0
-0.0197707 -0.00476685 0
-0.0951273 0.000508864 0
-0.267319 0.00686596 0
-0.0517385 0.00112545 0
-0.00689456 0.000691699 0
-0.0137437 -0.00184515 0
-0.0776054 -0.000902605 0
-0.0970472 -0.00945447 0
-0.00102746 -0.00110095 0
-0.00258509 0.00204169 0
-0.333149 -0.0233217 0
-0.0717457 -0.00846132 0
-0.106079 0.000841614 0
-0.106679 0.00466092 0
-0.16704 0.00680945 0
-0.0221937 0.0020328 0
-0.0484188 -0.00372548 0
-0.0678902 0.0026194 0
-0.320483 0.0126661 0
-0.00171884 0.000679179 0
-0.00384006 -0.00163058 0
-0.0923567 -0.00101859 0
-0.0141854 0.0044788 0
-0.00701934 -0.0029397 0
-0.266129 -0.0211729 0
-0.0514544 -0.00734625 0
-0.11896 -0.0116166 0
-0.277018 0.0129877 0
-0.0546386 0.00291863 0
-0.00557013 0.00119678 0
-0.0115559 -0.00296657 0
-0.0810086 -0.0022273 0
-0.101542 0.0193733 0
-0.149104 -0.0152176 0
-0.0348647 -0.00622059 0
-0.210258 -0.0192311 0
-0.0166919 -0.00444975 0
-0.107176 0.00217364 0
-0.11045 0.0259335 0
-0.108876 0.00923372 0
-0.107093 0.0071133 0
-0.0409624 0.00486712 0
-0.00432327 0.00176103 0
-0.10704 0.00922362 0
-0.107741 0.00119763 0
-0.109319 0.0271278 0
-0.0820597 0.00553358 0
-0.0350735 0.00452837 0
-0.110558 0.0209737 0
-0.108501 0.002822 0
-0.108179 0.00199251 0
-0.107972 0.00138688 0
-0.107116 0.0114727 0
-0.10893 0.0270186 0
-0.0767828 0.00550621 0
-0.111033 0.0245367 0
-0.0586775 0.00519658 0
-0.0301161 0.00407615 0
-0.0914964 0.0053566 0
-0.108564 0.0264075 0
-0.10721 0.0137482 0
-0.00123159 0.00022317 0
-0.000492963 -0.000207378 0
-0.343984 -0.00536206 0
-0.021862 0.00600316 0
-0.000596994 -0.000747035 0
-0.108264 0.0253463 0
-0.107319 0.0159793 0
-0.106579 0.0181052 0
-0.0918195 -0.00912048 0
-0.0767955 -0.00868108 0
-0.0958664 0.00494589 0
-0.100762 0.00269122 0
-0.107169 0.0262042 0
-0.104457 0.00292074 0
-0.0181192 0.00537292 0
-0.00910363 -0.00352318 0
-0.0469765 -0.00747907 0
-0.25112 -0.0221132 0
-0.125141 -0.0131448 0
-0.103801 0.0149156 0
-0.109031 0.0114199 0
-0.108876 0.00359827 0
-0.109218 0.00523615 0
-0.108128 0.00102368 0
-0.109166 0.0137143 0
-0.103223 0.0117417 0
-0.108335 0.00147908 0
-0.104521 0.0188492 0
-0.0668668 0.00097703 0
-0.0119692 -0.000660829 0
-0.0825147 -0.00148616 0
-0.108117 0.00363515 0
-0.109231 0.0159843 0
-0.103369 0.00292448 0
-0.348285 0.00620335 0
-0.000925001 -0.000426865 0
-0.106351 0.0230055 0
-0.0867776 -0.0016376 0
-0.112733 0.0184523 0
-0.117641 0.0119185 0
-0.107827 0.0266838 0
-0.102129 0.00286033 0
-0.109229 0.0180932 0
-0.0262071 -0.00164136 0
-0.0384538 0.00056328 0
-0.222631 0.00386023 0
-0.342621 -0.0206121 0
-0.00131794 0.00118051 0
-0.0725271 -0.000715849 0
-0.00900609 0.000451645 0
-0.107452 0.000702686 0
-0.0767775 0.000224983 0
-0.0311 -0.00170479 0
-0.0342411 0.000973123 0
-0.208383 0.00480924 0
-0.108006 0.0239441 0
-0.109297 0.0222934 0
-0.109307 0.0203748 0
-0.108528 0.00240637 0
-0.10756 0.0231757 0
-0.10758 0.00129001 0
-0.109653 0.0269975 0
-0.115113 0.0179266 0
-0.0924567 3.30958e-05 0
-0.131603 0.00104944 0
-0.0985605 0.00485971 0
-0.0572338 -0.00124481 0
-0.0169141 0.000836526 0
-0.149892 0.00210666 0
-0.0985381 0.00120238 0
-0.108466 0.00315208 0
-0.0175627 -0.00151111 0
-0.047243 0.000588227 0
-0.252256 0.00473028 0
-0.115944 0.0141669 0
-0.0624708 -0.00161103 0
-0.0141222 0.000808858 0
-0.140684 0.00157007 0
-0.0310547 0.00207639 0
-0.0579514 0.00302378 0
-0.0776661 0.003655 0
-0.0954934 0.00361056 0
-0.0665136 0.00283376 0
-0.106346 0.00154367 0
-0.0360301 0.00264148 0
-0.110727 0.0238186 0
-0.107329 0.000970607 0
-0.107661 0.000920629 0
-0.0625705 0.00291062 0
-0.336003 -0.00539423 0
-0.00187438 0.000217887 0
-0.0820895 0.00344642 0
-0.101389 0.00367388 0
-0.0915106 0.00366023 0
-0.00429891 0.000798585 0
-0.0409521 0.0025152 0
-0.107943 0.00396561 0
-0.108104 0.00319119 0
-0.108149 0.00223421 0
-0.103884 0.00366442 0
-0.127885 0.0033279 0
-0.133108 0.00900864 0
-0.0935298 0.00615388 0
-0.108653 0.00253363 0
-0.165127 -0.0146358 0
-0.0494262 0.0062378 0
-0.189899 -0.016055 0
-0.028848 -0.00508107 0
-0.0215105 -0.00442528 0
-0.0996765 -0.00868402 0
-0.00148665 -0.00115148 0
-0.324652 -0.0199916 0
-0.0691049 -0.00748378 0
-0.107197 0.00423154 0
-0.012205 0.00365425 0
-0.00597568 -0.00239313 0
-0.274327 -0.0187623 0
-0.053906 -0.00669867 0
-0.115873 -0.0100628 0
-0.15399 -0.0134879 0
-0.0550074 0.00614983 0
-0.203481 -0.016059 0
-0.032856 -0.0052111 0
-0.0181688 -0.00396759 0
-0.116506 0.00919318 0
-0.0945623 -0.00816334 0
-0.0741859 -0.00761112 0
-0.170103 0.0114946 0
-0.0229939 0.00346457 0
-0.0470048 -0.00582378 0
-0.10609 0.0045897 0
-0.0667324 0.00473001 0
-0.00199503 0.0011889 0
-0.316849 0.0194802 0
-0.00442017 -0.00262605 0
-0.0163404 0.00387535 0
-0.00805343 -0.00275739 0
-0.257995 -0.0179982 0
-0.0490138 -0.00630897 0
-0.122058 -0.0108207 0
-0.281346 0.0184623 0
-0.0559327 0.00455668 0
-0.0051388 0.00188058 0
-0.0106735 -0.00393933 0
-0.0820603 -0.00405276 0
-0.0913503 -0.00279434 0
-0.144306 -0.0130639 0
-0.217433 -0.0171858 0
-0.036977 -0.00567919 0
-0.015219 -0.00375119 0
-0.0429369 0.00620917 0
-0.00524557 0.0024924 0
-0.0837612 0.00658759 0
-0.0783906 0.00552427 0
-0.0317582 0.00422178 0
-0.105529 0.0192338 0
-0.000914516 -0.000116607 0
-0.348149 0.000400457 0
-0.0218676 0.00406644 0
-0.0890355 -0.00819977 0
-0.107474 0.0180868 0
-0.079409 -0.00785834 0
-0.0719022 0.00534692 0
-0.113504 0.0139635 0
-0.0900861 0.00635237 0
-0.020009 0.00478043 0
-0.0101545 -0.00322968 0
-0.0448249 -0.00636342 0
-0.243921 -0.0186298 0
-0.128287 -0.0119872 0
-0.106361 0.0255647 0
-0.107976 0.000806296 0
-0.10859 0.0239624 0
-0.104587 0.0203881 0
-0.105263 0.0173857 0
-0.084335 -0.00273582 0
-0.0132142 -0.0010205 0
-0.0646988 0.00173941 0
-0.108462 0.0267439 0
-0.108329 0.00279624 0
-0.108895 0.0231511 0
-0.108843 0.0196343 0
-0.0982248 0.00392522 0
-0.108376 0.00196569 0
-0.0992973 0.00248971 0
-0.10711 0.0223651 0
-0.0914628 -0.00233728 0
-0.0938557 0.00244581 0
-0.108312 0.00356688 0
-0.0983076 0.00341507 0
-0.13377 -0.00317586 0
-0.150334 -0.00283123 0
-0.141035 -0.0021001 0
-0.0943898 0.00476638 0
-0.108494 0.00514304 0
-0.00254433 0.0013255 0
-0.105406 0.00291502 0
-0.108769 0.0170527 0
-0.108715 0.0148609 0
-0.108616 0.0125705 0
-0.108487 0.0103147 0
-0.0142186 -0.000351564 0
-0.0376765 -0.00130703 0
-0.219944 -0.00247399 0
-0.0624996 0.000487753 0
-0.0268982 0.000195078 0
-0.255135 -0.00179106 0
-0.0481165 -0.00139835 0
-0.0085595 -0.00036954 0
-0.0167463 0.000163225 0
-0.0734599 0.00121197 0
-0.0758476 -0.00182953 0
-0.207589 -0.00190794 0
-0.034026 -0.00102534 0
-0.0170508 -0.000681746 0
-0.0561032 0.000988549 0
-0.0319679 -1.54441e-05 0
-0.0265862 0.0033613 0
-0.108365 0.00819713 0
-0.107673 0.022523 0
-0.095214 0.00197189 0
-0.0688335 0.000580134 0
-0.0108452 -0.000373116 0
-0.107308 0.0257002 0
-0.0807097 -0.00132791 0
-0.00245952 -0.000130696 0
-0.00111119 -8.15036e-05 0
-0.330678 -2.44083e-05 0
-0.0714345 -0.0014186 0
-0.0776701 0.00112413 0
-0.0136428 -0.000390134 0
-0.00682328 -0.000138198 0
-0.051842 -0.000840373 0
-0.267618 0.000377416 0
-0.10893 0.0213429 0
-0.110622 0.0216163 0
-0.119486 0.00936146 0
-0.107485 0.0217652 0
-0.081582 -0.00358002 0
-0.0785265 -0.00224688 0
-0.0110758 -0.00146595 0
-0.00969713 -0.000759595 0
-0.0709802 0.00143854 0
-0.000850244 -0.000305964 0
-0.0866398 -0.00424569 0
-0.0730026 0.00344933 0
-0.118149 0.0063995 0
-0.108353 0.0180794 0
-0.0603075 0.00170719 0
-0.0287806 0.000937375 0
-0.0754115 0.00225651 0
-0.0337245 0.00108337 0
-0.33268 -0.0115693 0
-0.0799439 0.00231116 0
-0.0968236 0.00276333 0
-0.00333611 0.000251913 0
-0.0935172 0.00303857 0
-0.108174 0.00280298 0
-0.0385446 0.00131232 0
-0.0979699 0.00220244 0
-0.107859 0.000793964 0
-0.107986 0.00287295 0
-0.17044 -0.0123565 0
-0.0469028 0.00499315 0
-0.18396 -0.012999 0
-0.0270776 -0.00411311 0
-0.0230794 -0.00380662 0
-0.101915 -0.00746132 0
-0.00196436 -0.0011109 0
-0.317064 -0.0158491 0
-0.0668001 -0.00621909 0
-0.107565 0.00380707 0
-0.0105856 0.00272243 0
-0.00510645 -0.00182897 0
-0.281484 -0.0153225 0
-0.056049 -0.0057227 0
-0.113327 -0.00825765 0
-0.157563 -0.0112519 0
-0.0530849 0.00490358 0
-0.198762 -0.0128031 0
-0.0314543 -0.00419492 0
-0.0192404 -0.00332436 0
-0.0964147 -0.00707069 0
-0.0724333 -0.0063893 0
-0.172749 0.00581567 0
-0.0239234 0.0019919 0
-0.0457133 -0.00318218 0
-0.0654654 0.00264255 0
-0.312645 0.0126741 0
-0.00228671 0.000768077 0
-0.00497077 -0.00182982 0
-0.0147199 0.00293488 0
-0.00726777 -0.00213809 0
-0.263607 -0.0142774 0
-0.0506797 -0.00523938 0
-0.284563 0.0100073 0
-0.0569166 0.00196896 0
-0.00468338 0.00108113 0
-0.00992526 -0.00218149 0
-0.0834342 -0.00195671 0
-0.147368 -0.0112287 0
-0.140227 -0.014695 0
-0.119788 -0.00883729 0
-0.212717 -0.0135836 0
-0.223749 -0.0213794 0
-0.0139583 -0.00421491 0
-0.0161546 -0.00321728 0
-0.0388558 -0.00699027 0
-0.0355737 -0.00455971 0
-0.0907008 -0.00683375 0
-0.0867541 -0.00953976 0
-0.105568 0.0253558 0
-0.0818503 -0.00934039 0
-0.0774973 -0.00651419 0
-0.107137 0.0189145 0
-0.237177 -0.022211 0
-0.0428339 -0.00736986 0
-0.0111321 -0.00406606 0
-0.090252 -0.0012461 0
-0.124761 0.00471388 0
-0.106563 0.00408274 0
-0.131314 -0.0145286 0
-0.107865 0.000679281 0
-0.100288 0.00247994 0
-0.102907 0.0208287 0
-0.0935552 -0.00189456 0
-0.0890346 -0.00314924 0
-0.105504 0.0043124 0
-0.108567 0.0222497 0
-0.155646 -0.00359429 0
-0.145061 -0.00451706 0
-0.00250263 0.000599195 0
-0.137794 -0.00432149 0
-0.10827 0.0159716 0
-0.108183 0.0137262 0
-0.108075 0.0114427 0
-0.0154503 -0.00113986 0
-0.214048 -0.00392385 0
-0.225921 -0.0010522 0
-0.0394401 -0.00093429 0
-0.035939 -0.001687 0
-0.0738228 -0.00285108 0
-0.0251684 -0.00016355 0
-0.261601 -0.00292314 0
-0.0500498 -0.00179169 0
-0.00774471 -0.000718743 0
-0.0150977 0.000365712 0
-0.200727 -0.00310424 0
-0.0320039 -0.00131721 0
-0.0186553 -0.000984521 0
-0.0538284 0.00122717 0
-0.0302968 -1.17323e-05 0
-0.027274 0.00178755 0
-0.10797 0.00923065 0
-0.108698 0.0072241 0
-0.00151895 -0.000286384 0
-0.0690278 -0.00256795 0
-0.323546 -0.00338991 0
-0.274749 -0.00342261 0
-0.0539904 -0.00204728 0
-0.00576651 -0.000451595 0
-0.0119945 0.000423584 0
-0.108506 0.0203928 0
-0.108265 0.0257753 0
-0.0881938 0.00638592 0
-0.108928 0.0217776 0
-0.101206 0.00462453 0
-0.1059 0.00217385 0
-0.113856 0.00899655 0
-0.044948 0.00627655 0
-0.109604 0.0239075 0
-0.108882 0.0247351 0
-0.0182802 0.00354797 0
-0.103928 0.00442509 0
-0.107751 0.00404299 0
-0.0184664 -0.000103575 0
-0.0462273 -0.000979228 0
-0.248803 -0.000567451 0
-0.0583341 0.000698229 0
-0.122782 0.00968237 0
-0.108818 0.0270286 0
-0.130272 -0.00243635 0
-0.108101 0.00431377 0
-0.106489 0.0249571 0
-0.0910011 -0.00474268 0
-0.0165026 -0.00218287 0
-0.0349136 -0.00303712 0
-0.21053 -0.00855191 0
-0.148517 -0.00780546 0
-0.118529 -0.00581625 0
-0.0516783 -0.00336151 0
-0.267003 -0.00796689 0
-0.00682178 -0.00123748 0
-0.0137976 0.00146139 0
-0.106844 0.00338329 0
-0.0714843 -0.00427615 0
-0.0974425 -0.00485613 0
-0.249646 -0.00678536 0
-0.0464938 -0.00285705 0
-0.0181244 0.00167462 0
-0.225094 -0.00701956 0
-0.0392117 -0.00271251 0
-0.0441863 -0.00173511 0
-0.241915 -0.00327075 0
-0.0204194 0.000640968 0
-0.13117 -0.00597645 0
-0.232525 -0.00341877 0
-0.0414013 -0.00169992 0
-0.0232406 0.000652385 0
-0.0198735 -0.00208788 0
-0.0305805 -0.00259234 0
-0.195865 -0.00753242 0
-0.0519361 0.00280242 0
-0.159677 -0.00703049 0
-0.0953468 -0.00303574 0
-0.12753 -0.00386636 0
-0.11325 -0.00506202 0
-0.0561522 -0.00338293 0
-0.281897 -0.00762471 0
-0.0049746 -0.000980256 0
-0.0104464 0.00120677 0
-0.0666476 -0.00373233 0
-0.316446 -0.00768103 0
-0.00196361 -0.000609991 0
-0.101982 -0.00464951 0
-0.0230571 -0.00217038 0
-0.0269962 -0.00236252 0
-0.183829 -0.00717421 0
-0.0468308 0.0024377 0
-0.170462 -0.00665055 0
-0.10801 0.00283662 0
-0.086621 -0.00687004 0
-0.0368107 0.0046518 0
-0.06853 0.00245141 0
-0.00105411 -0.000707026 0
-0.0735785 0.00543912 0
-0.0361805 6.18595e-07 0
-0.108069 0.00238538 0
-0.0821449 0.00134063 0
-0.00430739 -0.000163554 0
-0.0409166 0.000186829 0
-0.10774 0.00231186 0
-0.103755 -0.00902055 0
-0.17487 -0.0156145 0
-0.179451 -0.015911 0
-0.0243999 -0.00481469 0
-0.0257548 -0.0049443 0
-0.00242785 -0.00154437 0
-0.102601 0.00381914 0
-0.0979352 0.00112573 0
-0.310936 -0.0199101 0
-0.0649822 -0.00740847 0
-0.00941097 0.00332107 0
-0.00452298 -0.00213457 0
-0.287373 -0.0194774 0
-0.0578391 -0.00704502 0
-0.0707442 -0.00633817 0
-0.0666548 0.000932891 0
-0.086855 -0.0117874 0
-0.316365 0.00720805 0
-0.00437504 -0.00101157 0
-0.0051717 0.000400493 0
-0.00657586 -0.00203705 0
-0.140121 -0.00991451 0
-0.14022 -0.01852 0
-0.224156 -0.0141452 0
-0.0389546 -0.00483458 0
-0.0139597 -0.00538805 0
-0.0139268 -0.00275427 0
-0.0822582 -0.000508161 0
-0.208073 -0.0132847 0
-0.0342025 -0.00442687 0
-0.0817369 -0.00659079 0
-0.111352 -0.00965843 0
-0.0114546 -0.00296574 0
-0.237279 -0.0281925 0
-0.237147 -0.0151189 0
-0.0428829 -0.00915762 0
-0.0428038 -0.00524702 0
-0.117747 -0.00864551 0
-0.132299 -0.0108724 0
-0.159831 -0.00131924 0
-0.0199301 -0.000382315 0
-0.195207 -0.000658743 0
-0.0303599 -0.000529964 0
-0.0518295 7.86097e-05 0
-0.0666512 -0.00118271 0
-0.00197355 -0.000105661 0
-0.316269 0.000495287 0
-0.329541 -0.0064108 0
-0.282735 0.000514892 0
-0.0563852 -0.000910331 0
-0.0102714 -0.000379426 0
-0.125351 0.00183732 0
-0.108765 0.0263325 0
-0.107849 0.00106897 0
-0.109181 0.0239907 0
-0.108674 0.0253958 0
-0.116761 0.00353 0
-0.108004 0.0221939 0
-0.106916 0.00171731 0
-0.107843 0.00511984 0
-0.109106 0.026747 0
-0.10866 0.0271683 0
-0.108682 0.0233025 0
-0.0915291 0.00188112 0
-0.107234 0.0198237 0
-0.0763686 -0.00434987 0
-0.112496 0.0114667 0
-0.10573 0.024201 0
-0.0203765 -0.00349206 0
-0.0512056 0.00497272 0
-0.161344 -0.0116465 0
-0.124875 -0.0094467 0
-0.0468102 -0.00514693 0
-0.250639 -0.0143676 0
-0.00902726 -0.00229507 0
-0.0171686 0.00275468 0
-0.104622 0.0217422 0
-0.107919 0.00720323 0
-0.107765 0.00355074 0
-0.0870178 0.00454951 0
-0.106038 0.0215641 0
-0.122602 0.00254132 0
-0.105752 0.0231416 0
-0.0976406 -0.00174246 0
-0.108263 0.00649178 0
-0.121206 -0.00361927 0
-0.0757671 -0.00649234 0
-0.237233 0.00370299 0
-0.0427791 0.00039563 0
-0.0218114 -0.00139077 0
-0.107219 0.00135816 0
-0.10628 0.00291433 0
-0.11569 -0.00352576 0
-0.0998256 -0.00323878 0
-0.164978 -0.00378858 0
-0.18952 -0.00418494 0
-0.0214566 -0.00125673 0
-0.028676 -0.00152228 0
-0.0842495 -0.00813431 0
-0.108088 0.00198514 0
-0.103272 0.00671993 0
-0.107867 0.00182234 0
-0.0428206 0.00136904 0
-0.136738 -0.0118799 0
-0.230557 -0.0183688 0
-0.0408609 -0.00615714 0
-0.0128655 -0.0033226 0
-0.00869905 -0.00124256 0
-0.109004 0.0271717 0
-0.107739 0.00127389 0
-0.106621 0.0242771 0
-0.104492 0.0236183 0
-0.124501 -0.00555122 0
-0.0838457 0.00249334 0
-0.119581 0.00334303 0
-0.11409 0.00348557 0
-0.108671 0.024416 0
-0.00517768 0.00037963 0
-0.0858332 0.00647296 0
-0.0881247 0.00275966 0
-0.107201 0.00354657 0
-0.00301891 -0.00172708 0
-0.106077 -0.00908771 0
-0.107007 0.00244121 0
-0.111335 0.00877253 0
-0.102276 0.00104108 0
-0.330211 -0.0166965 0
-0.0142468 -0.00159908 0
-0.109084 0.0254051 0
-0.107835 0.00287176 0
-0.040966 -0.00216422 0
-0.141144 -0.0061221 0
-0.107404 0.00238964 0
-0.109195 0.0257617 0
-0.107935 0.000880281 0
-0.0493644 0.00119513 0
-0.107975 0.00197886 0
-0.111244 0.0137563 0
-0.107341 0.0208155 0
-0.0643508 -0.00233322 0
-0.308902 -0.00344957 0
-0.124457 0.00744742 0
-0.105912 0.0212325 0
-0.0580965 -0.00242404 0
-0.288363 -0.00430821 0
-0.0091273 0.000500072 0
-0.109623 0.0266942 0
-0.0961657 0.00255099 0
-0.109974 0.0256754 0
-0.00199992 0.000342145 0
-0.0913644 0.000244141 0
-0.107143 0.00516921 0
-0.0870114 0.00806345 0
-0.0931737 -0.00401116 0
-0.105154 0.0134131 0
-0.237171 -0.00885362 0
-0.0427935 -0.00336941 0
-0.0219042 0.00228776 0
-0.107591 0.00148808 0
-0.021988 0.00769693 0
-0.112674 0.00617126 0
-0.10567 0.00354677 0
-0.006074 -0.00194409 0
-0.305732 0.0121692 0
-0.063344 0.00251532 0
-0.0858077 -0.00163638 0
-0.00396027 0.000983669 0
-0.112131 0.0160573 0
-0.00642573 0.00273146 0
-0.303424 -0.0196318 0
-0.0627049 -0.00725287 0
-0.108804 0.0188707 0
-0.105194 0.0171087 0
-0.0171078 -0.00323362 0
-0.0568669 0.00502157 0
-0.150499 -0.011185 0
-0.107841 0.00109542 0
-0.107839 0.0203341 0
-0.108879 0.0270654 0
-0.107959 0.0012887 0
-0.108765 0.0264556 0
-0.107622 0.00318027 0
-0.124117 -0.00123293 0
-0.109081 0.0135794 0
-0.107689 0.00164314 0
-0.104122 0.00240128 0
-0.107379 0.00181314 0
-0.10208 -0.00179763 0
-0.194147 -0.0129899 0
-0.0300916 -0.00420606 0
-0.108005 0.00169161 0
-0.110857 0.0176186 0
-0.106712 0.0203053 0
-0.335698 -0.0168771 0
-0.118223 -0.00190548 0
-0.113164 -0.00179705 0
-0.18381 -0.00147957 0
-0.0269199 -0.00063293 0
-0.108841 0.0271892 0
-0.108215 0.00579446 0
-0.0899983 0.00272192 0
-0.103895 0.00933242 0
-0.107429 0.0212393 0
-0.10887 0.0259851 0
-0.038717 -0.00338668 0
-0.107473 0.0238492 0
-0.0858644 0.00269348 0
-0.107812 0.00199658 0
-0.0447752 0.00125779 0
-0.107915 0.00144407 0
-0.10872 0.0252037 0
-0.0467692 -0.000412873 0
-0.107912 0.000983504 0
-0.0616364 0.0012022 0
-0.300109 0.00780049 0
-0.00703118 -0.00144102 0
-0.0033983 0.000558731 0
-0.0869668 -8.48815e-05 0
-0.107786 0.0013124 0
-0.00631383 0.000497009 0
-0.107679 0.00252289 0
-0.106982 0.0134744 0
-0.0230187 -0.000551457 0
-0.170501 -0.000334638 0
-0.00776392 0.000571025 0
-0.0602567 -0.00281338 0
-0.295481 -0.00539445 0
-0.107863 0.00110617 0
-0.0614266 0.00361953 0
-0.299475 0.015669 0
-0.00715218 -0.0027391 0
-0.107915 0.00108677 0
-0.302572 -0.00666928 0
-0.0624177 -0.00326537 0
-0.00339302 0.00125754 0
-0.0868892 -0.00305164 0
-0.108854 0.0268289 0
-0.112949 0.0010207 0
-0.107465 -0.00625972 0
-0.00709523 0.00168926 0
-0.00334141 -0.00122033 0
-0.299004 -0.0125273 0
-0.0613429 -0.00503139 0
-0.107529 -0.0116017 0
-0.00727452 0.00392303 0
-0.0034592 -0.00238606 0
-0.299135 -0.0258467 0
-0.0614229 -0.00911326 0
-0.0255126 0.00151801 0
-0.0819057 -0.0115773 0
-0.19463 0.00541511 0
-0.03017 0.00129122 0
-0.108796 0.00851739 0
-0.0388577 -0.00875096 0
-0.223694 -0.0272915 0
-0.107934 0.00118981 0
-0.0429634 -0.00334604 0
-0.0299242 0.00276584 0
-0.193838 0.0103271 0
-0.109146 0.017674 0
-0.107345 0.00289885 0
-0.111263 -0.00336254 0
-0.0409209 -0.00454369 0
-0.0364667 -0.00238518 0
-0.118105 0.00107501 0
-0.108066 0.00125738 0
-0.0620198 -0.00119031 0
-0.301308 4.67185e-05 0
-0.00699357 -0.000373207 0
-0.00348662 -0.000136655 0
-0.08699 0.00132612 0
-0.108819 0.0270649 0
-0.108125 0.0156636 0
-0.00797236 0.00303625 0
-0.106092 -0.00325597 0
-0.108907 -0.00931766 0
-0.00298548 -0.000565231 0
-0.00379239 -0.00194522 0
-0.294716 -0.0195319 0
-0.0600606 -0.00713537 0
-0.107922 0.00120104 0
-0.025618 -0.00146897 0
-0.179419 -0.00436365 0
-0.10825 0.0203523 0
-0.0268566 0.00107968 0
-0.183612 0.00417313 0
-0.168707 0.00360196 0
-0.189046 0.00757332 0
-0.0285024 0.00200871 0
-0.111518 0.00322515 0
-0.0476098 -0.00221501 0
-0.107978 0.00144185 0
-0.105959 0.00824556 0
-0.10775 0.0111043 0
-0.10747 0.00552848 0
-0.10774 0.00156991 0
-0.106235 0.00252316 0
-0.107235 0.0175645 0
-0.0268755 0.00280095 0
-0.183528 0.00991952 0
-0.106927 0.00398605 0
-0.0368245 -0.00431026 0
-0.0042096 -0.000523122 0
-0.00240625 -0.000431724 0
-0.103827 -0.0032388 0
-0.108881 -0.00329657 0
-0.0243089 -0.00142201 0
-0.174967 -0.00406624 0
-0.108875 0.002809 0
-0.108249 0.0190476 0
-0.108962 0.0264566 0
-0.107515 -0.000286048 0
-0.0880452 -0.00141734 0
-0.00823246 -0.00214818 0
-0.293387 0.0110131 0
-0.0595859 0.00222531 0
-0.178861 0.00654553 0
-0.0254959 0.00191962 0
-0.00485084 -0.0002488 0
-0.00362933 -0.000753425 0
-0.0230756 0.00084153 0
-0.0268108 0.00447335 0
-0.18332 0.0155832 0
-0.0523347 -0.00541684 0
-0.269131 -0.0146951 0
-0.013372 0.00291898 0
-0.00197246 0.00146242 0
-0.11186 0.0206128 0
-0.0980739 -0.00722028 0
-0.00937555 -0.00159015 0
-0.112114 0.0185404 0
-0.104987 0.0149345 0
-0.0408079 -0.00655299 0
-0.110482 0.0216794 0
-0.13204 -0.0174382 0
-0.0113645 -0.00497127 0
-0.108883 0.00166194 0
-0.112179 0.0166802 0
-0.112268 0.0123308 0
-0.112244 0.0141861 0
-0.0935304 0.010466 0
-0.104895 0.0127226 0
-0.0134807 -0.00184547 0
-0.138675 -0.00698969 0
-0.108958 0.00373862 0
-0.0926989 -0.00641941 0
-0.00286067 0.000826255 0
-0.104874 0.0106001 0
-0.105201 0.00860979 0
-0.00119393 -0.000420158 0
-0.000826962 -0.000768117 0
-0.107611 0.00205695 0
-0.111586 0.0219524 0
-0.397847 0.0150682 0
-0.393268 0.0198282 0
-0.401289 0.00322953 0
-0.388693 0.0236167 0
-0.381378 0.023183 0
-0.401648 0.0105822 0
-0.391956 0.00200934 0
-0.38343 0.00182793 0
-0.380066 0.0141503 0
-0.392023 0.0138443 0
-0.395285 0.00894884 0
-0.37932 0.00761836 0
-0.387065 0.0172624 0
-0.387023 0.0093724 0

CELL_DATA 4904
SCALARS mises_stress float
LOOKUP_TABLE default
0.0431176
0.0532643
0.0267381
0.0124459
0.0180202
0.0559048
0.0413156
0.0207656
0.0211853
0.0160992
0.0348781
0.0400209
0.138971
0.0419548
0.0447076
0.728506
0.0453981
0.0315885
0.0589238
0.103641
0.0809088
0.174194
0.0299044
0.0194996
0.0351019
0.0363176
0.0749065
0.0355905
0.0348999
0.0300908
0.0267673
0.029223
0.100649
0.084388
0.0969211
0.0348109
0.0246011
0.0132425
0.144112
0.345104
0.041989
0.0398653
0.0950738
0.143842
0.467636
0.520884
0.534624
0.581957
1.10677
0.963778
1.0209
0.828482
0.471181
0.470135
0.546056
0.469319
0.433178
0.388916
0.638135
0.563895
0.463732
0.925654
1.16304
0.873028
0.556331
0.821719
0.611117
0.579774
1.09234
1.36363
1.37903
0.74025
1.10746
0.723099
0.72041
0.973508
1.55337
1.56863
0.855043
1.35765
0.639094
0.720768
1.05694
2.18341
2.06708
1.09165
1.59039
0.651047
0.611886
1.18544
2.42147
2.06477
1.2731
1.82693
0.770998
0.822531
1.69371
2.66185
2.2801
1.46099
1.86867
1.08521
0.892235
1.87942
2.8898
2.49091
1.37348
2.0504
1.16747
0.662506
1.58639
3.18423
2.68275
1.53169
2.22966
1.20615
0.680427
2.09629
2.89668
2.67978
2.17496
2.44115
1.28692
0.551276
2.33813
3.13513
3.55803
2.36791
2.66187
1.44876
0.757131
2.49333
3.41883
3.85517
2.60678
3.39246
1.07128
1.17162
2.4738
2.44779
3.47383
2.73035
3.6341
1.1818
1.03992
1.47624
3.25919
3.26644
1.09511
0.739225
1.40782
2.3591
2.3192
2.80559
2.26606
2.4603
1.29872
0.443563
1.18942
1.99543
2.0896
0.948525
0.586758
2.09243
1.62027
1.97688
2.90844
3.85383
1.31326
0.593873
1.02956
1.21432
1.206
0.445018
1.78206
2.56039
2.54479
3.06997
3.15972
2.25368
0.639906
1.09014
1.026
0.825946
1.10469
2.78991
2.78589
2.4825
3.07363
1.79096
1.14083
1.15325
1.20342
1.67012
2.29542
2.91064
2.27642
2.76959
1.78394
1.35362
1.41636
1.59675
2.16117
2.99044
2.3531
1.58981
1.38057
1.29749
1.44903
1.02399
1.49973
2.60778
1.86401
1.35056
1.08913
1.15062
0.895099
0.62624
2.14594
1.587
1.00666
0.734984
0.421298
0.0745886
0.552046
1.57594
1.07023
0.569553
0.427533
0.195845
0.0742949
0.198552
1.16755
0.68409
0.32223
0.170605
0.169798
0.101679
0.193187
0.796459
0.496371
0.29811
0.196221
0.0979238
0.125139
0.193407
0.553968
0.469148
0.382672
0.178463
0.0608456
0.156043
0.212901
0.424395
0.511501
0.411805
0.182412
0.0614137
0.194391
0.247957
0.442881
0.556641
0.425264
0.225466
0.0700875
0.123081
0.276212
0.53848
0.600364
0.430827
0.185759
0.135769
0.2737
0.234794
0.583722
0.642427
0.449254
0.262128
0.169349
0.307064
0.271489
0.628614
0.750412
0.471306
0.132343
0.102152
0.338772
0.304581
0.63607
0.803259
0.412641
0.121782
0.112743
0.374949
0.474946
0.69602
0.844176
0.344516
0.205478
0.135358
0.413526
0.518259
0.725965
0.887018
0.434528
0.0965331
0.275887
0.457644
0.56246
0.759728
0.837745
0.548879
0.14463
0.313541
0.529828
0.603317
0.682095
0.868373
0.564631
0.208938
0.224375
0.529065
0.665602
0.713415
0.898559
0.562339
0.255634
0.352369
0.568967
0.512128
0.894044
0.937568
0.576982
0.235345
0.389005
0.604699
0.568315
0.927931
0.977928
0.616663
0.262266
0.419329
0.638772
0.603717
0.973501
1.16538
0.505599
0.142461
0.275896
0.672935
0.637515
0.991238
1.20662
0.52972
0.149021
0.281374
0.709835
0.881329
1.02077
1.25048
0.548272
0.118114
0.301816
0.746199
0.9247
1.05216
1.11285
0.844277
0.098213
0.534786
0.786017
0.965048
0.897387
1.16455
0.716281
0.166686
0.336137
0.803606
1.01403
0.865707
1.19645
0.722198
0.173135
0.344894
0.62179
1.03238
1.19943
1.23234
0.712311
0.50649
0.622344
0.901424
0.870959
1.22939
1.27766
0.512269
0.285918
0.649045
0.926012
0.901334
1.27345
1.50399
0.780279
0.198042
0.652426
0.936118
0.926556
1.23131
1.56607
0.784912
0.248542
0.445373
0.871034
1.32677
1.59516
0.818367
0.497436
0.178276
1.34786
1.62381
0.76637
0.32777
1.37885
1.10342
1.08183
2.02315
2.16958
1.17723
0.797262
1.43542
2.03376
1.92777
1.90488
1.02251
0.776608
1.32002
1.80745
1.5972
1.61356
0.871807
0.539119
1.10117
1.9294
1.34899
1.31822
0.755039
0.72864
0.810522
1.3422
1.47935
1.18763
1.0346
0.675184
0.69415
0.871976
1.10566
1.24198
0.966116
0.77813
0.485072
0.208103
0.132996
0.369617
0.551579
0.912116
1.17754
1.45144
1.80098
1.91321
2.13133
3.26254
1.59977
0.460027
0.894495
1.51645
1.15974
1.62038
1.3087
0.42621
0.373556
0.839017
1.267
0.920838
0.459846
0.646635
0.828871
0.919204
0.629742
0.35452
0.505727
0.546208
0.690976
0.698167
0.793934
2.4574
1.16459
0.49546
0.790951
1.32027
1.01279
2.01313
2.74429
1.55841
0.962016
0.45387
1.91595
3.25718
2.3707
2.45445
2.25292
1.21977
0.499604
1.03543
1.18949
1.42997
1.34271
1.86305
1.28314
0.359411
1.37747
1.32178
1.85077
1.02488
1.17074
0.960181
0.423646
0.772611
1.98834
1.64626
1.79522
1.55425
1.25209
0.844867
0.429508
0.385953
0.222145
0.446394
0.331619
0.642166
0.403635
0.443683
1.20579
0.838758
0.872775
0.2015
0.2565
0.374174
0.451776
0.562244
0.57833
0.588305
0.543691
0.461246
0.420229
0.417439
0.470577
0.605923
0.837377
0.817591
0.780078
0.472338
0.459881
0.484052
0.473638
0.45036
0.376971
0.996305
1.01166
0.679037
0.576464
0.404232
0.325694
0.430547
0.731051
0.592689
0.722454
0.393738
0.519551
1.37808
1.88237
1.62394
1.70281
1.47512
0.896549
0.433518
0.445035
0.449474
0.545299
1.1636
1.2023
0.858276
0.506926
0.422412
0.440847
0.55051
1.04883
1.3964
0.760121
0.736354
0.546363
0.332107
0.369725
0.475909
0.569776
0.507538
0.399598
0.225186
0.393777
0.499204
0.473365
0.271343
0.204343
0.36266
0.300739
0.47912
0.833984
0.43306
0.389691
1.29792
0.829638
0.630161
1.02805
0.543931
0.521654
0.426358
0.785609
1.00502
0.893449
0.595532
1.42689
2.08991
1.00683
0.48662
0.848222
1.38076
1.65806
2.27952
1.05347
0.532821
0.398971
1.80342
2.47043
0.521439
1.52095
2.36526
2.55941
1.20776
0.376966
1.01885
2.22334
2.33553
1.0482
0.287064
1.94116
2.18974
1.42292
1.89137
1.13343
1.17968
0.695662
0.521856
0.317364
1.30545
1.08635
0.639124
0.515597
0.909795
0.863383
0.724221
0.752336
0.297724
0.248266
0.399472
0.555708
0.677455
0.0897584
0.209923
0.398967
0.459504
0.163744
0.230276
0.283233
0.347481
0.778696
0.884983
0.564679
0.444321
1.17911
2.11436
1.87418
1.79962
1.439
0.811887
0.394954
0.625193
0.875718
0.394744
0.401122
0.97181
1.20229
1.9311
1.54007
0.702754
0.48163
0.650875
0.52641
0.595659
1.03858
1.92585
1.79006
0.829021
0.745917
0.890336
0.708248
1.0222
1.66532
1.30929
0.818386
0.881856
0.797353
0.942832
1.30691
1.05584
0.778919
0.763694
0.879103
0.864103
0.786747
0.534654
0.623719
0.890029
0.667969
0.425981
0.433035
0.379246
0.404397
0.257471
0.113193
0.274571
0.578201
0.653728
0.560032
0.519768
0.251964
0.273734
0.609853
0.614646
0.439198
0.243817
0.524185
0.389929
0.646288
0.580429
0.343935
0.119174
0.802406
0.550225
0.654137
0.557972
0.394253
0.346998
0.998418
0.718898
0.715903
0.560183
0.486968
0.627234
2.27372
0.989437
0.601906
1.60693
1.83367
2.57082
2.96475
0.945241
0.915486
0.629895
2.59244
2.56134
1.24535
1.27242
3.02185
3.24071
5.18389
0.771334
0.64284
0.431222
0.536297
0.538377
0.393753
0.299958
0.486411
0.970431
0.14228
0.204195
1.37042
1.56913
1.544
0.474576
0.423856
0.511603
0.477551
0.518128
0.538649
0.695609
0.604587
0.648624
0.567372
0.803229
0.557718
0.622795
0.953382
0.449807
0.837806
1.09512
0.436288
1.15671
1.26999
0.610985
0.941714
1.21935
0.529664
1.08494
1.19563
0.471653
1.14475
1.65737
0.529974
1.29714
1.83249
0.721539
1.48398
1.34402
0.351537
1.35197
1.81533
0.758331
1.67329
2.25175
0.556502
2.4233
2.41359
0.262984
2.52398
2.06836
0.431048
2.16483
2.10967
0.466068
0.912507
1.72715
3.32771
3.75554
2.34767
0.868193
0.825168
3.31034
3.57114
2.71756
2.27744
2.49023
0.843459
0.659667
0.491694
0.345072
0.263046
0.489766
0.77665
1.33902
1.56592
1.67807
1.63479
1.42
2.13473
1.38327
1.25788
1.10324
1.21655
1.82899
1.75004
0.916444
1.26368
1.71011
1.82861
1.42692
1.37105
1.14026
0.635419
0.631528
0.518769
0.445347
0.419344
0.475743
0.52595
0.527735
0.66858
0.696699
0.518715
0.606707
0.767834
0.798033
0.842876
0.83101
0.783996
0.802259
0.368099
1.78203
1.57594
1.35472
1.1253
1.0743
0.729347
0.795748
0.825914
0.505829
0.847354
0.792298
0.727373
0.871036
0.802018
0.549719
0.606471
0.621742
0.638923
0.657373
0.673168
0.634369
0.569233
0.738367
0.710044
0.712184
0.694467
0.701937
0.567107
0.440602
0.609909
0.785098
0.849737
0.838577
0.679092
1.08256
1.31275
1.40885
1.58969
1.50406
0.88304
0.766422
0.864434
0.475188
0.709007
0.697346
0.52377
0.495975
0.468491
0.445222
0.479301
0.569144
0.676218
0.757001
0.889963
1.04935
1.23999
0.992684
0.905955
0.802167
0.95399
1.05182
1.00551
0.569803
0.598182
0.695225
0.898344
0.92073
0.87537
0.881724
1.22463
1.30881
1.56993
1.87864
1.59268
1.85289
1.56966
1.45347
1.2362
0.917179
0.729843
1.07697
1.34935
1.46917
1.51159
3.05227
3.35028
1.32732
0.92847
0.681965
0.67274
1.06457
0.581745
0.411826
0.759004
0.988158
1.50025
1.61869
0.720532
0.397394
1.12683
0.431589
0.237024
0.267794
0.39799
0.219735
0.173667
0.422851
0.233143
0.105658
0.484345
0.263849
0.0848275
0.515769
0.246626
0.061502
0.543254
0.165106
0.0970276
0.557021
0.26755
0.0451527
0.602081
0.294985
0.0823666
0.627529
0.208818
0.178474
0.666316
0.211684
0.0945585
0.613069
0.215876
0.111375
0.595487
0.218292
0.121996
0.730877
0.195964
0.151125
0.765583
0.341771
0.192497
0.602529
0.225442
0.152958
0.717737
0.341795
0.212362
0.838334
0.193311
0.40694
0.877802
0.198203
0.431836
0.781708
0.227828
0.275826
0.810066
0.20066
0.486369
0.964186
0.212657
0.295958
0.992036
0.158783
0.342339
1.02078
0.186252
0.57425
0.766676
0.0369608
0.340446
1.07776
0.323425
0.385338
1.13522
0.248842
0.653509
0.792167
0.234608
0.353215
1.06845
1.49218
0.426024
1.11211
2.34363
1.16949
0.476043
0.777047
0.6547
1.01989
1.17268
0.256728
1.44392
1.25227
1.31214
0.42091
0.431769
0.702624
0.405923
0.479419
0.839059
0.641696
0.396126
0.350585
0.53632
0.491448
0.453559
0.262165
0.47543
0.478601
0.304842
0.412874
0.335544
0.471895
0.481381
0.354108
0.559585
0.835721
0.422191
0.554369
0.939931
0.462437
0.509858
0.365249
0.804602
0.792352
0.481445
1.49373
0.33047
0.555789
1.71428
0.928418
1.46009
0.565046
0.0843901
0.238735
0.376349
1.77949
1.38603
1.61253
1.58115
1.55372
1.24823
1.28379
1.22899
1.19246
1.16215
1.11053
1.0873
1.22889
1.18589
1.15012
0.993596
0.934854
0.895322
0.864753
0.834639
0.797722
0.866356
0.824519
0.784953
0.651991
0.645267
0.597041
0.552273
0.507453
0.469949
0.463961
0.563371
0.840144
1.31452
1.34576
1.74892
2.26912
2.7173
3.04454
3.13805
3.17864
3.75314
3.51624
3.29219
2.7131
2.42194
2.20818
2.02707
1.8486
1.64958
1.71355
1.4797
1.25222
0.953038
0.803801
0.587986
0.405687
0.308547
1.20935
0.574315
0.344928
0.463594
0.832602
1.06894
0.2019
0.190173
0.200862
0.228274
0.271604
0.17207
0.223035
0.255647
0.288641
0.321692
0.495984
0.539652
0.585133
0.626787
0.66578
0.52092
0.548884
0.588222
0.621828
0.656405
0.902611
0.944131
0.987315
1.04651
0.780545
0.872424
0.887907
0.916428
0.946163
4.54668
3.96871
2.13241
0.206503
2.17491
1.65382
1.16979
0.93714
0.706395
0.546749
0.327536
0.140822
0.214791
0.515954
0.773694
0.927463
1.16063
1.52154
1.78562
1.96991
2.54569
2.85205
3.14941
3.53843
3.40608
3.55455
3.27568
2.0457
2.87126
2.56894
2.37629
2.17903
2.02356
1.50955
1.44757
1.25414
1.08948
0.924162
0.929854
0.737105
0.5465
0.353849
0.171817
0.0996059
0.129532
0.278162
0.435703
0.596079
0.914684
1.10679
1.29721
1.50403
1.29631
1.47516
1.61636
1.78421
1.98113
3.42445
1.75979
1.63642
0.52168
1.06814
1.50143
0.714551
0.788763
1.11317
1.35316
1.48974
1.54896
1.16846
1.07125
0.94756
0.996738
1.098
1.02944
0.824424
0.629277
0.275849
0.282739
0.211342
0.168001
0.253209
0.441912
0.637218
0.828302
1.02199
1.02142
1.41117
1.23689
1.3938
1.88524
2.08156
2.2889
2.48173
2.65323
2.24469
2.36688
2.5232
0.419496
0.406707
0.240487
0.408103
0.421625
1.08229
0.945526
4.33599
2.95014
2.83123
2.60374
2.3696
2.14855
1.91684
1.57628
0.311274
0.452187
0.898941
1.10997
1.2695
1.33232
1.27094
5.16605
3.75978
3.19985
0.0834983
0.261667
0.523867
0.434679
0.560691
0.878163
1.06906
1.27123
1.46011
1.64975
1.84625
2.04827
2.26319
2.49501
2.75426
2.69867
3.4253
3.69012
4.11136
0.587545
0.330457
0.332662
2.1996
5.25192
0.331824
0.275647
3.16247
3.51852
1.92573
5.29166
0.310462
0.655123
2.1007
2.4634
0.750175
0.516145
1.52614
2.16289
0.25241
0.107467
3.4804
2.66929
1.95653
1.32016
0.662357
0.467351
2.34749
5.73185
2.20534
1.50419
1.28764
1.98123
0.279343
0.518133
0.472948
0.312873
4.85767
4.94446
1.39252
1.84417
3.23851
1.78517
2.31504
3.63029
2.03763
2.17489
5.83648
1.54143
0.313373
0.248014
0.370471
0.41258
3.26702
3.425
0.323738
0.197388
0.235529
0.262055
1.18263
1.25558
0.896021
0.766407
0.431343
0.523116
1.06128
1.47201
0.49071
0.768874
1.19828
1.71622
0.627481
1.01349
1.66633
1.95019
1.18343
1.20389
1.96085
2.30308
1.37002
1.38719
2.16592
2.54118
1.66706
1.59112
2.39518
2.78441
1.29391
2.07189
2.02684
3.00779
1.42755
2.31183
2.07158
3.21478
1.53858
2.54159
2.33245
3.00988
1.72204
2.77402
2.49009
3.26575
1.8679
3.01825
4.62185
2.50845
2.87734
2.8808
3.03345
3.0403
2.05054
2.62182
3.19761
3.19962
2.50265
3.98477
2.39035
3.92946
2.52684
3.68832
2.38597
3.20425
2.08111
2.58349
1.70501
1.92554
0.912814
0.979822
0.630914
0.659098
0.0843812
0.093466
0.460266
0.491884
0.103868
0.116434
0.448416
0.45773
0.129189
0.144449
0.424935
0.501662
0.16064
0.180869
0.454222
0.568779
0.237299
0.310459
0.487139
0.632363
0.163456
0.345262
0.517831
0.688077
0.185228
0.390789
0.549892
0.73949
0.209179
0.432743
0.718078
0.719586
0.341698
0.359954
0.7496
0.75062
0.378027
0.398071
0.799961
0.789864
0.416602
0.439616
0.678528
0.93256
0.462301
0.480085
0.697749
0.976074
0.342806
0.51962
0.713205
1.01623
0.387579
0.706071
0.752566
1.05705
0.418416
0.754497
0.777816
1.10014
0.444183
0.796082
1.02252
1.02244
0.658741
0.837982
1.04849
1.04872
0.675008
0.694994
1.09005
1.08607
0.712529
0.731813
0.902876
1.2942
0.74877
0.7684
0.879767
1.33424
0.7876
0.812794
0.960112
1.38074
0.86965
1.09051
1.00054
1.42058
0.648956
1.11593
1.01583
1.46379
0.652404
1.15882
1.04763
1.51292
0.931777
1.18778
1.35539
1.3565
0.630881
0.758914
1.38152
1.38117
0.0818842
0.080724
1.37856
1.10402
0.594797
0.581298
1.70485
1.35472
1.79691
1.82904
1.54072
2.34293
1.52837
1.55313
1.60013
2.07813
1.26509
1.28196
1.23041
1.79294
1.02203
1.0611
1.03961
1.51267
1.64677
1.29333
0.808835
0.851076
1.03206
1.23076
1.36555
1.27064
1.11328
1.42332
1.71158
1.25486
0.673634
0.936302
0.612895
0.71997
0.213935
0.406524
2.20482
2.80939
0.653913
1.23052
2.06463
2.03128
0.598267
0.228312
0.501809
0.989775
2.22073
2.47892
2.24478
3.00664
1.94574
2.81653
0.92969
1.60502
1.007
1.82131
0.792419
1.41749
1.65729
1.71789
1.40979
1.50928
1.22067
1.60787
0.370509
0.406406
0.523593
0.55269
0.265504
0.207884
0.707169
0.727182
0.495011
0.560241
0.676068
0.700097
0.623654
0.624535
0.858399
0.938586
0.33649
0.53822
0.429621
0.559074
1.48735
2.04385
1.36537
1.85157
1.01628
1.09724
1.17612
1.25736
0.461455
0.432306
0.348246
0.243958
0.255356
0.084452
0.682111
0.70643
0.943123
0.863849
0.662471
1.22223
1.71712
1.72182
1.87186
1.8778
2.02429
1.96261
2.11228
1.75929
1.92509
1.55109
1.82272
1.83308
1.21377
0.960353
1.11348
0.835184
0.920914
0.710969
0.351855
0.351382
0.0876164
0.238864
0.250105
0.205317
0.438454
0.248923
0.931609
0.552341
1.99286
2.27195
1.86712
1.41169
1.13619
1.0651
1.95048
1.51831
1.88223
1.17753
1.17436
1.38746
0.890147
1.00792
0.634443
0.818929
0.678147
0.849481
0.544403
0.611908
0.138551
0.27692
0.392298
0.311505
0.669202
0.47929
0.950478
0.68742
0.910353
1.08236
0.648741
0.734576
0.437263
0.972459
0.382057
0.466502
0.438504
0.539001
0.299978
0.0987883
1.2343
1.69094
2.73493
3.41388
2.50726
3.15724
1.87877
2.89402
0.761325
0.868542
0.528123
0.634033
0.297423
0.405604
0.103939
0.183372
0.220083
0.116683
1.28936
1.45943
1.34924
1.63698
1.29287
1.67543
1.12418
1.54718
0.794798
1.25094
0.43878
0.321505
0.58662
0.376147
1.38254
1.64239
1.37915
1.15761
1.34444
1.12278
1.32913
1.04579
1.28315
1.3122
1.27236
1.48961
1.22808
1.44304
1.19705
1.40094
1.1641
1.3636
1.11902
1.3102
1.08555
1.27433
1.04972
0.872021
1.01838
0.859587
1.00165
0.812736
0.973101
1.12472
0.926869
1.07996
0.892003
1.03684
0.862612
0.996775
0.828255
0.95573
0.788852
0.911528
0.757619
0.642165
0.723453
0.620618
0.694425
0.571461
0.650521
0.682397
0.62658
0.715567
0.580821
0.662394
0.53452
0.602601
0.490797
0.535623
0.464157
0.474142
0.491534
0.460479
0.539394
0.580445
0.742648
0.838883
1.11684
1.2433
1.63045
1.22507
2.05957
2.23129
2.54479
2.89367
2.95452
3.45765
3.19746
3.85169
3.248
3.96353
3.18983
3.94213
3.05408
2.38009
2.89407
2.29272
2.76025
2.05074
2.5959
3.15549
2.35507
2.90256
2.15737
2.66066
1.9791
2.43111
1.78562
2.19833
1.57747
1.95685
1.44109
1.11913
1.24946
0.984921
1.06437
0.778975
0.847297
1.01133
0.701948
0.898182
0.501942
0.652428
0.304758
0.393198
0.203497
0.207304
0.503976
0.106954
0.144804
0.320951
0.24239
0.233691
0.702839
1.13077
1.35107
0.96969
0.0453929
0.0456468
0.090404
0.0172226
0.113265
0.0409728
0.139258
0.0678272
0.182186
0.12443
0.210592
0.188014
0.325718
0.220611
0.368925
0.258321
0.411783
0.291272
0.453406
0.324565
0.356911
0.237131
0.394297
0.268605
0.435547
0.306527
0.481839
0.388321
0.54194
0.348588
0.529505
0.681518
0.730923
0.549726
0.774937
0.589564
0.815995
0.623616
0.859745
0.468456
0.692268
0.499261
0.728696
0.530507
0.764977
0.554848
0.826401
0.614898
0.853803
0.827517
1.09717
0.859083
1.13843
0.888991
1.17215
0.917439
1.23437
0.775853
1.68647
2.05019
1.3631
1.43227
1.19994
1.11124
0.972126
0.879681
0.757428
0.658474
0.542074
0.458877
0.360134
0.306694
0.261642
0.255154
0.304196
0.378854
0.451179
0.586414
2.0581
1.50828
1.95353
1.4515
1.79698
1.33077
1.66422
1.21207
1.47566
1.6118
1.32825
1.71175
1.51255
1.27362
1.31965
1.10861
0.841662
1.12395
0.76307
0.547078
0.60444
0.432545
0.447484
0.328417
0.28501
0.250122
0.136022
0.184039
0.0685904
0.0942047
0.202376
0.154616
0.356619
0.337659
0.515857
0.527911
0.721092
0.578702
0.75704
0.701788
0.917269
0.824224
1.07731
0.94813
1.27521
1.11852
1.42969
1.30441
1.53607
1.7635
1.69695
1.9465
2.14687
1.79243
1.58588
2.09978
1.339
1.53013
0.68337
1.19019
0.288757
0.212235
1.5632
0.764
2.03962
1.29759
0.546838
0.577153
0.984216
1.08284
1.26715
1.49299
1.13584
1.50421
1.48495
1.46551
1.52682
1.5409
1.42516
1.51009
1.29268
1.3986
1.14245
1.24389
1.09957
0.856029
0.790303
0.94796
0.813185
0.78879
0.695733
0.625545
0.525951
0.473914
0.36513
0.411253
0.132655
0.21237
0.0855443
0.0866241
0.292307
0.146652
0.21836
0.337214
0.374861
0.443242
0.554447
0.623355
0.683978
0.776376
0.843439
0.930873
1.06719
1.00367
1.16712
1.07712
1.33975
1.50655
1.49383
1.70031
1.53866
1.32537
1.70345
1.4737
1.90049
1.86255
2.0615
2.11938
2.21731
1.88755
2.36033
2.73943
2.46058
2.88994
2.55638
2.57302
1.19033
1.01032
0.800038
1.05966
3.09582
3.0991
3.28548
2.3614
3.02967
2.18364
2.26123
2.76285
2.48828
1.83225
2.20999
1.65138
1.71746
1.5027
0.433302
0.319894
0.669136
0.554393
0.787816
0.610504
1.01022
0.771652
1.20459
0.922966
1.31542
1.01418
1.31393
1.04487
0.196314
0.329651
0.397865
0.551899
0.5943
0.494671
0.82393
0.6988
1.01618
0.865502
1.35619
1.08934
1.597
1.2884
1.83332
1.47656
1.3426
1.76214
1.86063
1.74553
1.94421
1.49868
2.15035
1.66511
2.37461
1.85194
2.69782
2.1954
2.77435
3.30516
2.77217
2.89862
3.00867
3.13736
3.26366
3.42582
0.835751
0.53787
0.247467
0.380563
0.201921
0.25296
3.81493
3.26987
2.03903
1.71723
2.19526
1.70858
0.67769
0.621618
0.511055
0.556566
0.439908
0.403344
0.806376
0.741232
0.706634
0.622423
0.997747
0.903132
0.410071
0.262321
1.2048
1.046
0.433689
0.235839
0.731948
0.585799
0.672299
0.6538
0.238518
0.405899
0.356958
0.299368
0.294463
0.324532
0.433298
0.280625
1.38648
1.16396
0.541132
0.462654
1.1192
1.43308
0.0734913
0.0557888
0.414648
0.655667
1.51343
1.39471
0.656683
0.858973
0.307886
0.546409
0.876315
1.13192
0.0924937
0.174987
0.680593
0.887141
0.235935
0.431083
0.382546
0.404953
0.125383
0.288131
0.370169
0.37707
0.413931
0.384939
0.369069
0.651301
0.982487
1.49549
1.50226
1.54848
0.0448115
0.0267643
2.53109
2.37326
3.12013
1.96173
0.189945
0.197381
0.827793
0.726311
0.503465
0.512221
0.73741
0.762537
1.22605
1.27155
0.796931
0.9215
0.523646
0.507804
0.963574
1.16266
1.45767
1.83052
0.774941
0.99934
0.613962
0.752613
0.365199
0.261489
0.886542
0.804126
1.94315
2.44786
2.39363
2.4276
0.467427
0.378725
1.90831
1.85927
0.790397
0.761219
0.634315
0.609424
0.55053
0.484921
0.48021
0.406352
0.450862
0.397218
1.56936
1.49881
1.04414
1.11592
0.914923
0.929956
0.416309
0.487877
0.654246
0.180408
1.18468
0.793559
1.47326
0.983566
1.73982
1.25185
2.00012
1.46777
2.36918
1.9836
1.36293
0.966748
0.446293
0.165481
0.897176
1.15761
0.862139
1.19631
0.765158
1.12975
0.845779
1.03522
0.71343
0.900546
0.359032
0.210248
0.293179
0.199847
0.690968
0.872959
0.440248
0.477628
0.502828
0.605064
0.469615
0.496935
1.77766
2.42123
1.76641
2.53208
1.74016
1.67819
1.21315
1.29707
0.745529
0.828988
0.685367
0.515122
0.599881
0.635509
0.415865
0.38544
0.882703
0.961907
2.30121
2.21211
2.11544
2.02218
1.00585
1.04635
1.06735
1.07612
1.05529
1.05165
0.999916
0.958305
0.237632
0.373788
0.704306
0.785365
0.373873
0.280643
2.8496
1.80536
2.62188
1.68551
0.830843
0.581297
1.04179
0.659509
1.22718
0.750838
1.33274
0.782287
0.985849
1.41878
1.52736
1.57941
1.18761
1.76078
1.78561
1.94231
0.462349
0.52641
2.58996
2.56936
0.446006
0.457196
0.588715
0.487238
0.510991
0.521254
0.243717
0.252246
0.524968
0.469559
1.13527
1.58488
0.0970274
0.0210607
1.72302
2.40566
0.63488
0.619294
1.48424
1.33105
1.53254
1.66889
1.44948
0.93773
0.100162
0.222636
0.521498
0.64149
0.498291
0.603297
0.264206
0.48367
0.853675
0.872477
3.36942
1.9611
1.30389
1.26071
1.06766
1.05311
0.87961
1.43326
0.294673
0.0980769
1.61109
1.71834
0.827343
0.575647
1.82966
1.26538
0.570041
0.643761
0.764098
0.560723
1.97461
1.93856
1.82012
1.31872
0.641997
0.535349
1.78899
1.8112
1.02012
1.03785
0.24011
0.253712
0.13411
0.0602199
0.415274
0.418281
0.35634
0.289355
0.510908
0.51059
0.135341
0.0798671
0.671803
1.02117
0.465601
0.541651
0.40943
0.118736
0.559704
0.644671
1.13741
1.14436
0.758621
0.757438
1.24468
1.75515
0.448496
0.796489
0.902581
0.915428
0.094949
0.091236
0.136166
0.346286
0.700071
0.63797
0.6075
0.771
1.23841
1.49937
0.504163
0.443733
0.597095
0.748949
0.372717
0.535142
1.80186
1.67175
0.252403
0.250648
0.8415
1.33376
0.0470688
0.165326
0.472172
0.501101
0.381185
0.408973
0.636033
0.757215
0.094903
0.175704
0.471913
0.495057
0.638876
1.06759
0.456989
0.586959
0.597944
0.774541
1.57389
1.26574
1.13592
1.56214
0.555456
0.908307
0.403192
0.468091
0.692325
0.931029
1.15612
1.3668
0.485561
0.526046
0.881543
0.845506
0.480839
0.388797
1.10552
0.79719
0.10172
0.201909
0.278273
0.104865
1.0214
1.29672
0.457043
0.763838
0.565485
0.558836
0.369483
0.44171
0.538319
0.489804
1.31009
0.891977
0.26165
0.45854
1.44583
0.784451
0.228814
0.0856647
0.644213
0.373322
0.565477
0.563773
0.613509
0.625637
1.50901
0.98031
0.701124
0.874435
0.388547
0.359057
0.370317
0.360702
0.704673
1.27432
2.38702
1.52043
1.00491
0.804364
1.50441
1.218
1.21984
0.82901
2.16502
1.42255
1.93594
1.28787
1.73678
1.38982
1.33109
0.799923
0.123685
0.128961
1.2937
1.28261
1.7357
1.89071
0.529251
0.556719
1.05298
1.26252
0.897576
0.868347
0.838206
1.12411
0.532206
1.01198
0.693381
0.780501
1.10783
1.46015
0.0941706
0.24801
0.863154
0.396055
0.485
0.50436
0.158518
0.181719
1.37022
1.12687
0.214501
0.12694
0.0934425
0.471152
0.518815
0.619742
0.70093
0.479162
0.342843
0.368493
0.756914
1.0993
0.767826
1.00987
0.343093
0.308442
1.03894
1.59018
0.518659
0.812869
1.93722
1.38832
0.330892
0.490599
0.597255
0.600121
0.943823
1.15029
1.18057
0.783024
0.481488
1.20864
0.351279
1.07258
0.32761
0.313991
0.641026
0.605248
0.555908
0.374141
1.01164
0.702983
0.104496
0.105432
0.291534
0.289052
0.321981
0.221428
0.108333
0.056953
0.631716
0.966649
0.808365
0.652734
1.78353
0.970706
1.43468
1.97268
0.755268
0.583376
1.76781
1.10605
1.6547
1.17451
1.39557
1.35242
0.23642
0.0838975
0.208334
0.0817214
0.177234
0.159976
0.443225
0.448531
0.337813
0.414537
0.380468
0.332741
0.56949
0.659545
0.0931982
0.0489875
0.510958
0.439552
0.387157
0.168582
0.381287
0.366826
0.998333
0.983999
0.620766
0.570489
1.50958
1.00101
0.814588
0.643758
0.892377
0.662455
0.0833061
0.0888276
0.0918223
0.103224
0.314968
0.515737
0.68822
0.483418
0.579284
0.407823
0.718068
0.794719
1.03807
0.81254
1.12806
0.82843
0.747828
0.438523
0.486615
0.702636
1.69349
0.98462
0.748149
0.799994
0.516344
0.645572
0.51337
0.559642
1.03718
1.40571
0.401865
0.359646
1.82756
0.695577
0.249872
0.0962842
1.23541
1.60804
0.144847
0.259266
0.45171
0.485328
0.427821
0.535443
0.7235
2.46159
0.689777
0.608282
0.212213
0.169162
0.549765
0.521303
0.537764
0.642884
0.577302
0.547513
0.684801
0.752158
0.874502
0.824374
0.971209
1.29556
0.521255
0.63544
0.566559
0.517065
0.51337
0.844816
1.2302
0.83605
1.59485
1.48092
0.323521
0.356976
0.576932
0.51798
0.799515
0.951358
0.525686
0.716603
0.602795
0.556908
0.527411
1.0616
0.437604
0.316416
0.770614
0.586255
0.765505
0.803664
0.0846219
0.120257
0.207931
0.169733
0.88861
1.17577
0.55214
0.625728
0.638795
0.620052
0.924549
1.15226
0.524531
0.532984
0.895729
0.853745
0.484137
0.486306
0.297579
0.432339
0.948846
0.37926
0.823973
0.68428
0.434053
0.347064
0.554745
0.767519
1.11899
1.3822
1.87772
1.88786
0.390358
0.480225
0.837406
0.990802
0.603404
0.619997
0.452924
0.56331
0.181614
0.110238
0.485394
0.54531
1.11975
1.73848
1.47309
2.19764
0.670718
0.693983
1.62556
1.30963
0.569382
0.689614
1.45098
2.19493
0.437662
0.632746
2.22716
1.17072
2.30003
3.68461
1.32518
2.12316
0.634196
0.669967
0.512482
0.58144
0.957309
0.793745
0.395994
0.561065
1.83028
0.674943
1.04198
1.65251
0.567395
0.841634
1.15165
0.894063
1.2267
0.997765
0.527817
0.716399
0.465646
0.478441
0.801175
0.81333
0.820053
0.835427
2.0129
2.02671
2.13981
2.17621
0.792461
0.917312
0.91894
1.10174
0.633484
0.578835
0.495269
0.543766
0.851791
0.959659
1.19054
1.50609
1.62294
1.87041
0.536945
0.605543
0.8589
0.910765
0.886638
1.04704
0.411707
0.358546
1.40493
1.82192
1.76816
2.32071
0.626342
0.771271
0.694357
0.860486
0.67058
0.618952
0.840504
1.05338
1.49495
1.94715
0.453576
0.509785
0.529247
0.648955
0.895312
1.13621
0.525124
0.456619
1.96715
1.22752
0.797293
0.918755
0.335725
0.550235
1.75321
1.48564
1.67096
1.30261
1.00354
1.36533
0.795767
1.00765
1.73912
2.18103
0.532761
0.63325
0.907326
1.06549
1.83087
1.9372
1.31448
1.67136
0.610689
0.744891
1.87459
2.465
0.721577
0.893005
0.436726
0.478021
0.381379
0.475236
0.945629
1.4066
0.563812
0.570455
0.0799204
0.0716901
1.01035
0.988116
1.74839
1.46115
0.789474
1.25908
0.821877
0.992707
0.577646
0.668428
1.97506
2.45776
1.07142
1.23694
1.24901
1.21245
0.423795
0.402353
0.509493
0.383686
1.30863
1.5351
1.54318
1.3508
1.31507
2.15521
0.480737
0.524319
1.37914
1.93386
0.607699
0.778389
0.594295
0.822934
0.881715
1.05585
0.74625
1.07155
0.533164
0.613892
0.439829
0.528041
0.910056
0.931088
0.894573
1.26494
0.171835
0.130018
0.46939
0.423629
0.536476
0.555221
1.03041
1.47264
0.743825
1.00246
0.659481
0.919878
0.462095
0.592196
1.63599
1.8889
0.207981
0.14363
0.0757861
0.212776
0.484116
0.490244
0.47647
0.584489
1.45899
2.28287
0.436109
0.431017
1.2496
1.75492
0.588877
0.742556
0.618933
0.843513
0.549624
0.867036
0.471473
0.724671
0.157487
0.113292
0.0644065
0.169643
0.514439
0.423038
0.444036
0.640978
0.544482
0.722404
0.684679
1.09092
1.33124
1.80619
0.52354
0.516381
0.435214
0.497929
0.96986
0.993711
0.927235
1.04478
2.2302
1.24356
0.370051
0.208578
0.31417
0.417251
0.0757266
0.058807
0.542143
0.491723
0.634774
0.392395
0.618967
0.909078
1.03294
1.05812
0.948568
1.34467
0.737953
0.973745
0.781541
1.06865
0.492126
0.619608
1.83693
2.17469
1.02343
0.753562
0.15863
0.116977
0.338229
0.336291
0.564164
0.734229
0.601275
0.816672
3.12178
2.70165
1.65339
2.37929
0.548514
0.729396
1.07707
1.64979
0.65919
0.862879
0.584161
0.627497
1.33747
1.29962
0.672926
0.664354
0.651865
0.609126
0.537484
0.571426
0.865146
1.07262
0.625866
0.574452
0.635416
0.478562
1.15967
0.746767
0.341812
0.344904
0.593846
0.61927
0.60734
0.612953
0.778475
0.677477
0.779112
0.762377
0.715835
0.598816
0.61168
0.569457
1.08886
0.684213
0.41287
0.352593
1.30936
1.35556
0.441324
0.436077
0.62832
0.664535
0.331552
0.356129
0.996075
0.658714
0.607806
0.577141
0.42122
0.664946
0.161469
0.537902
0.482953
0.454315
1.14975
0.946042
0.73412
1.11199
0.907053
0.632326
0.609818
0.599606
0.624957
0.691373
0.368418
0.488928
0.416684
0.472162
0.314426
0.609411
0.400822
0.281181
1.1835
1.56906
0.215844
0.240934
0.932608
1.2147
0.681203
0.964446
0.37295
0.643617
0.5444
1.19972
1.85299
2.40126
1.71112
1.33277
0.647534
0.609607
0.782276
0.888294
0.751986
0.795114
1.34945
0.667423
0.619875
0.558
1.62178
1.75318
0.94192
1.27094
2.25173
0.984166
0.462579
0.500621
0.350029
0.148759
0.259477
0.221627
0.835182
0.863279
0.598141
0.528234
0.5535
0.365616
0.463387
0.481515
0.497539
0.571376
1.10166
1.03329
0.203589
0.187874
1.03945
1.01594
1.93892
1.27664
1.00534
1.26956
0.674755
0.343944
0.666417
0.512717
0.403626
0.360372
0.192108
0.0929646
0.597729
0.780477
0.452957
0.481848
1.6186
0.867643
0.529579
0.580292
0.193748
0.115749
0.673472
0.874409
0.240716
0.166427
0.503468
0.367727
0.161156
0.0873293
0.459954
0.905949
0.61469
0.679436
0.515616
0.52557
0.647677
0.528025
0.91329
0.920422
0.762053
0.873976
0.844284
0.661972
1.56074
1.22454
1.07468
2.01743
0.387111
0.343762
0.5317
0.787349
0.561018
0.382438
0.476702
0.465553
0.164322
0.131052
0.432737
1.17418
0.58237
0.821874
0.719684
0.636698
0.474094
0.400226
0.19848
0.0965231
0.46084
0.712892
1.02022
1.98917
0.498253
0.506495
0.160253
0.144666
0.386855
1.02901
0.475831
0.515799
0.46795
0.456336
0.488625
0.451444
0.775466
0.3868
0.410302
0.527241
0.588804
0.809273
0.51556
0.491153
1.19657
0.597833
0.652301
0.674923
0.683345
0.596351
0.518122
0.463601
0.501382
0.48841
0.788327
0.597984
0.498064
0.472461
0.358363
0.420737
0.395464
0.489303
0.732201
0.58627
0.489306
0.506277
0.817286
0.818877
0.896625
0.813096
0.875142
0.438431
0.421166
0.423101
0.922112
1.50954
3.58964
1.98615
0.880389
0.78461
0.717522
0.729689
1.17429
1.61458
0.488039
0.433326
1.54548
0.873852
0.675085
0.467811
0.526316
0.671016
0.849042
0.683598
0.651143
0.873477
0.53514
0.478122
0.47736
0.380973
0.953458
0.751923
0.833073
1.0975
0.856662
0.571329
0.682409
0.788573
0.420057
0.515716
1.82937
1.58299
1.16614
1.75796
0.46353
0.373417
1.29334
0.847021
0.613133
0.46172
0.512386
0.699332
1.14689
1.26166
0.512756
0.429081
0.443291
0.373631
2.22446
1.80257
0.368093
0.274735
0.219301
0.319409
0.928334
0.647308
0.0840768
0.0840045
0.634234
0.346377
0.640843
0.626876
1.26541
1.34191
0.75421
1.08053
0.789109
0.549554
0.724598
0.963265
0.422269
0.563403
1.9461
1.52424
0.992845
0.64092
0.151343
0.0637858
0.570657
0.559283
0.98965
0.687261
1.0271
0.979623
1.29847
0.926441
1.95274
1.14413
0.490257
0.954252
0.348503
0.522747
0.74608
0.498921
0.522027
0.51167
1.17895
0.92304
0.473003
0.451546
0.434675
0.359633
0.589865
0.59078
0.708227
0.804376
0.499907
0.404876
0.473858
0.499969
0.691071
0.716171
0.379177
0.269647
0.641825
0.61739
0.319732
0.385608
0.486474
0.362927
0.964072
0.835174
0.530825
0.5952
0.993594
1.00551
0.467216
0.672657
0.596653
0.452421
1.10568
0.729693
1.37319
1.78354
2.50332
1.86725
0.796367
0.736658
0.690701
0.76703
1.90952
1.53345
1.36027
1.51432
0.260446
0.20506
0.0359201
0.334313
0.485365
0.508522
0.432433
0.84921
0.86064
0.819886
0.555537
0.662603
0.620495
0.681957
0.984202
1.07303
0.997372
0.663257
0.485638
0.830656
0.751187
0.84061
0.273729
0.280047
0.676947
0.892008
0.86631
0.803564
0.568326
0.5082
0.987108
0.684019
0.715885
0.868067
1.01217
0.606314
0.357681
0.490512
0.774133
0.775654
0.887036
1.08276
0.413031
0.467101
0.611541
0.666767
0.605166
0.642506
0.609546
0.617523
0.619269
0.592044
0.102526
0.270853
0.185959
0.0846745
0.466428
0.778236
0.513713
0.48774
0.516359
0.446589
0.456826
0.511103
0.29524
0.182346
0.389764
0.104035
0.525668
0.43923
0.431373
0.591219
0.307707
0.166914
0.849316
0.846536
0.461177
0.0542691
0.373193
0.0353576
0.482584
0.476151
0.424039
0.37893
0.471901
0.610055
0.729494
0.56941
0.636256
0.753729
0.835412
0.564954
0.476804
0.574314
0.209647
0.115056
1.07707
1.32703
0.246227
0.177081
0.676244
0.430766
0.299843
0.0514971
0.493554
0.531084
0.311095
0.141068
0.606864
0.641178
0.605567
0.526714
0.360968
0.12241
0.354184
0.0912977
0.628527
0.593373
0.574049
0.629898
0.32241
0.659757
1.26492
1.06955
0.666409
0.821449
0.320482
0.293658
0.332757
0.244564
0.411937
0.331876
0.291048
0.159594
0.453814
0.510029
0.265748
0.247705
0.306437
0.263622
0.417133
0.534445
0.947876
1.0318
0.613871
0.622457
0.493674
0.482797
0.440711
0.39605
0.536228
0.55694
0.428298
0.38822
0.48546
0.45687
0.3842
0.591475
0.679019
0.343311
0.291557
0.704654
0.65478
0.51187
0.845063
0.818692
0.406352
0.531114
0.533934
0.867451
0.595333
0.684225
0.674736
0.648934
0.662346
0.902672
0.502199
0.552218
0.655913
0.943022
0.406475
0.494576
0.409851
0.481252
0.932167
1.07352
0.386269
0.594364
0.463687
0.4871
0.290287
0.387251
0.810173
0.90857
0.481803
0.892247
0.336795
0.59747
0.607891
0.538479
0.308668
0.394296
1.60527
1.67188
0.760691
1.08213
0.484464
0.482636
0.508111
0.816305
0.331176
0.45776
0.365689
0.507062
0.520922
0.659969
0.321602
0.380457
0.906072
1.5654
0.0387178
0.203255
0.408482
0.332827
0.119138
0.0758812
0.49038
0.634889
0.184819
0.39086
0.618177
0.840772
0.553357
0.810414
0.376989
0.575956
0.585288
0.657351
0.32211
0.413463
0.605513
0.750494
0.167822
0.0540415
0.141434
0.346554
0.3456
0.74572
0.646246
0.872916
0.811915
1.23213
2.54509
1.57974
1.65694
1.72407
0.58716
0.777659
1.55637
1.31954
0.920416
0.619059
0.411682
0.533103
0.729631
0.628311
0.341905
0.453005
0.24006
0.335564
0.433012
0.356212
3.14121
2.41706
0.450245
0.425433
0.377149
0.366133
0.670696
0.675801
1.41056
0.94297
0.704018
0.530335
0.954946
0.846212
0.757344
1.00909
0.917353
1.39593
0.802134
0.809377
2.55634
2.15093
0.899401
0.892496
1.50475
0.863879
2.66736
3.84535
0.537931
0.291542
0.212976
0.235803
0.671995
0.669464
0.670514
0.729979
1.02442
0.357798
0.520749
0.752098
0.736557
0.533264
0.411637
0.625109
0.65283
0.632574
0.635742
0.62374
0.618821
0.616663
0.303526
0.203552
0.63337
0.599228
0.471652
0.657491
0.178066
0.251623
0.22488
0.352575
0.244461
0.344778
0.469481
0.486392
0.552461
0.643727
0.221076
0.187771
0.185129
0.434145
0.414051
0.324743
0.68162
0.689403
0.35804
0.227184
0.0450044
0.182709
0.46315
0.483166
0.424959
0.469728
0.469953
0.623359
0.599794
0.611667
0.743527
0.618482
0.179027
0.18724
0.353208
0.264436
0.558139
0.554221
0.623894
0.438514
0.201551
0.21767
0.477668
0.204929
0.542707
0.637076
0.593186
0.627266
0.810131
0.859402
0.384762
0.42868
0.273842
0.435126
0.735813
0.40002
0.37255
0.524498
1.41156
1.06861
0.505921
0.505005
0.92534
0.714324
0.786929
0.561344
0.70286
0.849409
0.800861
0.507769
0.848041
0.874653
0.550368
0.450471
0.216609
0.100436
0.400426
0.742886
0.497883
0.490657
1.76495
1.21684
0.77613
0.854051
0.917322
0.626013
0.67639
0.514295
1.67641
1.9869
0.323676
0.303005
0.397356
0.375112
0.228077
0.36071
0.631609
0.648535
0.870233
0.758503
1.54482
1.35956
0.254811
0.318573
0.616315
0.485184
0.578316
0.263641
0.34876
0.614067
0.804371
0.589838
0.385441
0.27765
0.585449
0.677081
0.634673
0.617213
0.419848
0.29531
0.482853
0.587958
0.775641
0.651356
0.406064
0.327908
0.33055
0.218898
0.497343
0.518618
0.62947
0.450881
0.923977
0.878893
0.411568
0.767032
0.281712
0.112685
0.535086
0.40729
0.413575
0.367219
0.472817
0.225272
0.929701
0.334538
0.47647
0.469849
0.870559
0.59467
0.509356
0.73153
1.2315
0.743246
1.4153
1.4489
0.36562
0.345408
0.623589
0.483686
0.492284
0.37044
0.683156
0.760323
0.344096
0.23477
0.47434
0.450309
0.523172
0.455944
1.09267
1.02568
0.211597
0.432334
0.358298
0.419743
0.761607
0.877515
0.458901
0.493688
0.366137
0.917401
0.857652
0.881537
0.281873
0.347491
0.553168
0.553206
0.475534
0.504869
0.565309
0.51842
0.416443
0.371016
0.446312
0.477141
0.813042
0.897148
0.688175
0.511683
0.514661
0.553878
0.45168
0.480216
0.427581
0.459827
1.22816
1.06151
1.03518
1.75216
1.29051
1.74016
0.487247
0.719824
0.596246
0.711097
0.772509
0.92299
1.40629
1.33097
0.64259
1.03051
0.543097
0.560656
0.443924
0.387441
0.740459
1.30011
0.995371
0.587744
0.523799
0.768654
0.355285
0.530552
0.388906
0.331382
0.19054
0.131214
0.460108
0.43558
0.468197
0.53355
0.93097
0.479154
0.11331
0.13957
0.583192
0.4232
0.69757
1.63669
3.26595
2.52379
0.900849
0.732722
0.466765
0.446306
1.12146
0.923029
0.354978
0.647713
0.852614
0.689884
0.923699
0.520115
0.467132
0.336443
0.363866
0.336976
1.52891
1.45967
0.60666
0.622832
1.80147
1.4665
0.548116
0.983959
0.830287
0.713425
0.37391
0.526551
1.54102
1.60021
1.50983
1.63617
1.20757
0.597037
0.14308
0.106492
0.74742
0.547191
0.0570481
0.119135
0.437829
0.473979
0.308082
0.124407
0.112061
0.249508
0.562954
0.506216
0.508547
0.526062
0.584654
0.515546
0.0803892
0.154721
0.600603
0.513663
0.922148
0.825641
0.860616
0.483138
0.618035
0.720622
0.511929
0.511682
0.490211
0.747884
1.4146
1.38079
0.644152
0.676601
0.502156
0.583116
0.676765
0.611858
0.813111
0.785816
0.54125
0.762901
0.346366
0.519313
0.729308
0.488179
0.737683
0.691757
0.322985
0.258417
0.970673
1.20305
1.9066
1.86431
0.501428
0.639099
0.479066
0.474857
1.00681
1.5571
1.55016
1.65498
0.486868
0.512813
0.853886
0.860579
0.467735
0.546126
0.714978
0.64489
2.56754
1.68646
0.559172
0.587074
0.456472
0.525186
0.346804
0.447805
0.752714
1.18969
1.17062
0.984277
1.66543
1.37327
0.864826
0.613134
0.64999
0.672782
1.53536
1.28954
0.381362
0.336183
0.712675
0.718592
0.0950005
0.10309
0.381731
0.439823
0.617871
0.73994
0.720388
0.414124
1.61238
1.21744
0.785189
0.973875
0.451465
0.913633
0.792276
0.399842
0.327775
0.187937
0.180074
0.310244
0.330569
0.404387
0.895024
0.759717
1.45822
1.46464
0.672607
0.572144
0.513717
0.428392
1.57539
1.21376
0.876013
1.19354
0.469714
0.609831
0.626683
0.515966
0.341771
0.227181
0.906034
0.815044
0.636386
0.572016
0.923695
1.54821
2.5554
3.34563
1.25932
1.09955
0.473394
0.626369
1.06096
0.995249
1.34086
1.51377
0.907257
0.534161
0.542728
0.319321
0.395962
0.605442
0.632882
0.48688
0.659808
0.648678
0.50383
0.746582
1.21501
1.25036
0.641885
0.656526
1.52697
1.34528
1.19246
1.11456
0.506904
0.539405
0.472492
0.218615
0.604714
0.737151
0.843944
0.911059
0.278921
0.384124
0.686398
1.10315
0.611686
0.483201
0.868147
0.567424
0.496983
0.606068
0.492762
0.442654
0.7539
0.818034
1.21777
0.897587
0.691872
0.742863
0.249794
0.211588
0.483209
0.567219
1.48829
1.06972
0.901695
0.870163
0.145656
0.291825
0.479238
0.444604
0.377452
0.66884
1.29852
0.746693
0.828224
0.873322
1.36904
0.946425
0.190462
0.135849
0.794033
0.734789
0.655099
0.51153
0.63752
0.674069
0.391981
0.389008
1.37325
1.3902
0.708012
0.654658
0.383392
0.348132
0.593886
0.557166
0.349171
0.393243
1.35376
1.11315
1.42036
1.244
0.478581
0.530243
0.656548
0.78823
0.523833
0.672573
0.0942562
0.0981264
0.674524
0.925837
0.174782
0.372072
0.674265
0.88291
1.55288
1.12507
0.733278
0.522219
0.544844
0.277005
0.596605
0.582228
0.554216
0.586558
0.515134
0.634933
0.456682
0.444874
1.11435
1.58098
0.460198
0.523037
0.620768
0.694015
0.74727
0.871483
0.666393
0.610782
0.728385
0.829479
0.770924
0.928361
1.07338
0.810995
1.11511
0.998977
0.821335
0.718481
1.55715
1.30742
0.662026
0.795306
1.26712
1.00893
1.004
0.582697
0.485196
0.379067
0.671268
0.854605
0.677632
0.610888
0.718585
0.734465
0.477885
0.480937
1.14977
1.35209
1.55455
1.53931
0.742687
0.491085
0.0521178
0.138627
0.803954
0.521157
0.695069
0.718456
0.567641
0.564821
1.5813
1.42469
0.398771
0.974631
0.528108
0.7293
0.380022
0.413453
0.923876
0.915158
0.464123
0.430802
0.867633
0.727536
0.487554
0.479389
0.384262
0.525854
0.521902
0.431157
0.447166
0.460773
0.491481
0.44115
0.249923
0.131839
0.568727
0.65665
0.475321
0.518909
0.252658
0.242217
0.600249
0.729589
0.498717
0.533543
0.513089
0.779059
0.81082
0.851525
1.26371
0.672912
0.10831
0.240513
0.941912
0.479781
0.418399
0.493127
0.262514
0.361634
0.469387
0.566986
0.362169
0.422893
0.111381
0.0647828
0.813295
0.698534
1.1561
1.06997
0.618917
0.461018
0.455431
0.514603
0.273033
0.356598
0.613607
0.49774
1.1775
1.09791
0.768017
0.521939
1.574
1.35079
1.21361
1.58219
0.777955
0.757532
0.277786
0.753919
0.639421
0.544021
0.451981
0.356341
1.42171
1.33908
1.60179
1.07834
1.03375
1.00804
0.730482
0.639227
0.557004
0.462077
0.402431
0.654051
0.492511
0.459297
1.45255
1.00225
0.189248
0.0573065
1.35699
1.34113
0.865242
0.737605
1.99807
1.60956
0.492522
0.726141
0.400667
0.297679
0.331613
0.204318
1.97656
1.50373
1.03778
0.868338
0.636229
0.901095
1.35843
1.40729
0.339347
0.310389
0.345524
0.393866
1.18361
1.04058
0.472304
0.677902
0.197305
0.152879
0.581116
0.60942
0.366269
0.502196
0.189742
0.0767163
0.472243
0.662551
0.464056
0.705267
1.23059
0.930205
1.10711
1.10306
1.38781
1.47048
1.3857
1.42512
0.277431
0.153421
0.749165
0.747501
0.698219
0.587185
0.466622
0.448932
0.494979
0.517139
0.337464
0.17189
0.41983
0.797578
0.44584
0.810451
0.235123
0.145381
1.66055
0.976069
1.20741
1.54639
1.29779
1.19601
0.132433
0.140798
1.54218
1.28417
0.392838
0.367203
0.763526
0.758009
1.49217
1.58718
1.27572
1.47978
1.36173
1.46892
0.345171
0.411384
1.53166
1.42876
1.15161
0.378765
0.138898
0.324796
1.17489
1.98952
0.755542
0.818958
0.357435
0.346027
0.306777
0.111626
0.360595
0.0497988
1.15307
1.21563
1.47071
1.4501
0.26176
0.11157
0.712839
0.787815
1.58725
1.41232
0.560805
0.589222
0.651796
0.516925
1.48152
1.37242
0.958865
1.14702
0.749747
0.98789
0.681703
0.790618
0.0615957
0.115469
1.39409
1.37986
0.175881
0.164531
0.153208
0.214823
0.521406
0.307627
0.0582026
0.150848
0.413643
0.513543
2.29216
2.6271
0.406616
0.494354
0.587158
0.817208
0.849121
1.0112
1.28593
1.3428
0.643402
0.551313
0.732143
0.720945
0.495915
0.386315
0.404986
0.316212
0.431762
0.386639
0.198266
0.273869
0.520793
0.642374
3.22344
2.54204
1.16477
0.972497
2.85094
2.13919
0.313318
0.117199
0.387573
0.3868
0.201856
0.208038
1.22201
0.971036
0.372325
0.267514
0.415712
0.396529
0.939323
0.710434
0.334497
0.440299
0.390132
0.427388
0.352578
0.526176
0.403561
0.327742
0.546135
0.366554
0.308276
0.525285
0.54251
0.853444
0.751949
0.655859
0.88536
0.627349
0.029916
0.0246948
0.035912
0.0446373
0.0245036
0.101333
0.725833
0.10689
0.0269247
0.0249191
0.0441629
0.0213634
0.0227963
0.0344449
0.018021
0.0121658
0.0435667
0.0439698
0.0304078
0.0539277
0.0196866
0.0362715
0.0850459
0.0623146
0.0369895
0.0528954
0.0213292
0.019183
0.0819408
0.0231227
0.0986157
0.340754
0.177811
0.0122938
0.0335349
0.0358297
0.0312577
0.0423226
0.137644
0.140201
0.0454911
0.0302391
0.0378714
0.0725602

