# vtk DataFile Version 2.0
output of FEM program
ASCII

DATASET UNSTRUCTURED_GRID
POINTS 2692 float
    2.500000e+00    5.500000e+01    0.000000e+00
    2.500000e+00    5.750000e+01    0.000000e+00
    0.000000e+00    5.500000e+01    0.000000e+00
    0.000000e+00    0.000000e+00    0.000000e+00
    5.000000e+00    0.000000e+00    0.000000e+00
    5.000000e+00    2.750000e+01    0.000000e+00
    7.500000e+00    3.000000e+01    0.000000e+00
    2.750000e+01    3.000000e+01    0.000000e+00
    3.000000e+01    2.750000e+01    0.000000e+00
    3.000000e+01    0.000000e+00    0.000000e+00
    3.500000e+01    0.000000e+00    0.000000e+00
    3.500000e+01    3.250000e+01    0.000000e+00
    3.250000e+01    3.500000e+01    0.000000e+00
    3.000000e+01    3.500000e+01    0.000000e+00
    7.500000e+00    3.500000e+01    0.000000e+00
    5.000000e+00    3.750000e+01    0.000000e+00
    5.000000e+00    5.500000e+01    0.000000e+00
    2.500000e+00    5.550000e+01    0.000000e+00
    2.500000e+00    5.600000e+01    0.000000e+00
    2.500000e+00    5.650000e+01    0.000000e+00
    2.500000e+00    5.700000e+01    0.000000e+00
    2.012274e+00    5.745196e+01    0.000000e+00
    1.543291e+00    5.730970e+01    0.000000e+00
    1.111074e+00    5.707867e+01    0.000000e+00
    7.322330e-01    5.676777e+01    0.000000e+00
    4.213260e-01    5.638893e+01    0.000000e+00
    1.903012e-01    5.595671e+01    0.000000e+00
    4.803680e-02    5.548772e+01    0.000000e+00
    5.000000e-01    5.500000e+01    0.000000e+00
    1.000000e+00    5.500000e+01    0.000000e+00
    1.500000e+00    5.500000e+01    0.000000e+00
    2.000000e+00    5.500000e+01    0.000000e+00
    0.000000e+00    5.450000e+01    0.000000e+00
    0.000000e+00    5.400000e+01    0.000000e+00
    0.000000e+00    5.350000e+01    0.000000e+00
    0.000000e+00    5.300000e+01    0.000000e+00
    0.000000e+00    5.250000e+01    0.000000e+00
    0.000000e+00    5.200000e+01    0.000000e+00
    0.000000e+00    5.150000e+01    0.000000e+00
    0.000000e+00    5.100000e+01    0.000000e+00
    0.000000e+00    5.050000e+01    0.000000e+00
    0.000000e+00    5.000000e+01    0.000000e+00
    0.000000e+00    4.950000e+01    0.000000e+00
    0.000000e+00    4.900000e+01    0.000000e+00
    0.000000e+00    4.850000e+01    0.000000e+00
    0.000000e+00    4.800000e+01    0.000000e+00
    0.000000e+00    4.750000e+01    0.000000e+00
    0.000000e+00    4.700000e+01    0.000000e+00
    0.000000e+00    4.650000e+01    0.000000e+00
    0.000000e+00    4.600000e+01    0.000000e+00
    0.000000e+00    4.550000e+01    0.000000e+00
    0.000000e+00    4.500000e+01    0.000000e+00
    0.000000e+00    4.450000e+01    0.000000e+00
    0.000000e+00    4.400000e+01    0.000000e+00
    0.000000e+00    4.350000e+01    0.000000e+00
    0.000000e+00    4.300000e+01    0.000000e+00
    0.000000e+00    4.250000e+01    0.000000e+00
    0.000000e+00    4.200000e+01    0.000000e+00
    0.000000e+00    4.150000e+01    0.000000e+00
    0.000000e+00    4.100000e+01    0.000000e+00
    0.000000e+00    4.050000e+01    0.000000e+00
    0.000000e+00    4.000000e+01    0.000000e+00
    0.000000e+00    3.950000e+01    0.000000e+00
    0.000000e+00    3.900000e+01    0.000000e+00
    0.000000e+00    3.850000e+01    0.000000e+00
    0.000000e+00    3.800000e+01    0.000000e+00
    0.000000e+00    3.750000e+01    0.000000e+00
    0.000000e+00    3.700000e+01    0.000000e+00
    0.000000e+00    3.650000e+01    0.000000e+00
    0.000000e+00    3.600000e+01    0.000000e+00
    0.000000e+00    3.550000e+01    0.000000e+00
    0.000000e+00    3.500000e+01    0.000000e+00
    0.000000e+00    3.450000e+01    0.000000e+00
    0.000000e+00    3.400000e+01    0.000000e+00
    0.000000e+00    3.350000e+01    0.000000e+00
    0.000000e+00    3.300000e+01    0.000000e+00
    0.000000e+00    3.250000e+01    0.000000e+00
    0.000000e+00    3.200000e+01    0.000000e+00
    0.000000e+00    3.150000e+01    0.000000e+00
    0.000000e+00    3.100000e+01    0.000000e+00
    0.000000e+00    3.050000e+01    0.000000e+00
    0.000000e+00    3.000000e+01    0.000000e+00
    0.000000e+00    2.950000e+01    0.000000e+00
    0.000000e+00    2.900000e+01    0.000000e+00
    0.000000e+00    2.850000e+01    0.000000e+00
    0.000000e+00    2.800000e+01    0.000000e+00
    0.000000e+00    2.750000e+01    0.000000e+00
    0.000000e+00    2.700000e+01    0.000000e+00
    0.000000e+00    2.650000e+01    0.000000e+00
    0.000000e+00    2.600000e+01    0.000000e+00
    0.000000e+00    2.550000e+01    0.000000e+00
    0.000000e+00    2.500000e+01    0.000000e+00
    0.000000e+00    2.450000e+01    0.000000e+00
    0.000000e+00    2.400000e+01    0.000000e+00
    0.000000e+00    2.350000e+01    0.000000e+00
    0.000000e+00    2.300000e+01    0.000000e+00
    0.000000e+00    2.250000e+01    0.000000e+00
    0.000000e+00    2.200000e+01    0.000000e+00
    0.000000e+00    2.150000e+01    0.000000e+00
    0.000000e+00    2.100000e+01    0.000000e+00
    0.000000e+00    2.050000e+01    0.000000e+00
    0.000000e+00    2.000000e+01    0.000000e+00
    0.000000e+00    1.950000e+01    0.000000e+00
    0.000000e+00    1.900000e+01    0.000000e+00
    0.000000e+00    1.850000e+01    0.000000e+00
    0.000000e+00    1.800000e+01    0.000000e+00
    0.000000e+00    1.750000e+01    0.000000e+00
    0.000000e+00    1.700000e+01    0.000000e+00
    0.000000e+00    1.650000e+01    0.000000e+00
    0.000000e+00    1.600000e+01    0.000000e+00
    0.000000e+00    1.550000e+01    0.000000e+00
    0.000000e+00    1.500000e+01    0.000000e+00
    0.000000e+00    1.450000e+01    0.000000e+00
    0.000000e+00    1.400000e+01    0.000000e+00
    0.000000e+00    1.350000e+01    0.000000e+00
    0.000000e+00    1.300000e+01    0.000000e+00
    0.000000e+00    1.250000e+01    0.000000e+00
    0.000000e+00    1.200000e+01    0.000000e+00
    0.000000e+00    1.150000e+01    0.000000e+00
    0.000000e+00    1.100000e+01    0.000000e+00
    0.000000e+00    1.050000e+01    0.000000e+00
    0.000000e+00    1.000000e+01    0.000000e+00
    0.000000e+00    9.500000e+00    0.000000e+00
    0.000000e+00    9.000000e+00    0.000000e+00
    0.000000e+00    8.500000e+00    0.000000e+00
    0.000000e+00    8.000000e+00    0.000000e+00
    0.000000e+00    7.500000e+00    0.000000e+00
    0.000000e+00    7.000000e+00    0.000000e+00
    0.000000e+00    6.500000e+00    0.000000e+00
    0.000000e+00    6.000000e+00    0.000000e+00
    0.000000e+00    5.500000e+00    0.000000e+00
    0.000000e+00    5.000000e+00    0.000000e+00
    0.000000e+00    4.500000e+00    0.000000e+00
    0.000000e+00    4.000000e+00    0.000000e+00
    0.000000e+00    3.500000e+00    0.000000e+00
    0.000000e+00    3.000000e+00    0.000000e+00
    0.000000e+00    2.500000e+00    0.000000e+00
    0.000000e+00    2.000000e+00    0.000000e+00
    0.000000e+00    1.500000e+00    0.000000e+00
    0.000000e+00    1.000000e+00    0.000000e+00
    0.000000e+00    5.000000e-01    0.000000e+00
    5.000000e-01    0.000000e+00    0.000000e+00
    1.000000e+00    0.000000e+00    0.000000e+00
    1.500000e+00    0.000000e+00    0.000000e+00
    2.000000e+00    0.000000e+00    0.000000e+00
    2.500000e+00    0.000000e+00    0.000000e+00
    3.000000e+00    0.000000e+00    0.000000e+00
    3.500000e+00    0.000000e+00    0.000000e+00
    4.000000e+00    0.000000e+00    0.000000e+00
    4.500000e+00    0.000000e+00    0.000000e+00
    5.000000e+00    5.000000e-01    0.000000e+00
    5.000000e+00    1.000000e+00    0.000000e+00
    5.000000e+00    1.500000e+00    0.000000e+00
    5.000000e+00    2.000000e+00    0.000000e+00
    5.000000e+00    2.500000e+00    0.000000e+00
    5.000000e+00    3.000000e+00    0.000000e+00
    5.000000e+00    3.500000e+00    0.000000e+00
    5.000000e+00    4.000000e+00    0.000000e+00
    5.000000e+00    4.500000e+00    0.000000e+00
    5.000000e+00    5.000000e+00    0.000000e+00
    5.000000e+00    5.500000e+00    0.000000e+00
    5.000000e+00    6.000000e+00    0.000000e+00
    5.000000e+00    6.500000e+00    0.000000e+00
    5.000000e+00    7.000000e+00    0.000000e+00
    5.000000e+00    7.500000e+00    0.000000e+00
    5.000000e+00    8.000000e+00    0.000000e+00
    5.000000e+00    8.500000e+00    0.000000e+00
    5.000000e+00    9.000000e+00    0.000000e+00
    5.000000e+00    9.500000e+00    0.000000e+00
    5.000000e+00    1.000000e+01    0.000000e+00
    5.000000e+00    1.050000e+01    0.000000e+00
    5.000000e+00    1.100000e+01    0.000000e+00
    5.000000e+00    1.150000e+01    0.000000e+00
    5.000000e+00    1.200000e+01    0.000000e+00
    5.000000e+00    1.250000e+01    0.000000e+00
    5.000000e+00    1.300000e+01    0.000000e+00
    5.000000e+00    1.350000e+01    0.000000e+00
    5.000000e+00    1.400000e+01    0.000000e+00
    5.000000e+00    1.450000e+01    0.000000e+00
    5.000000e+00    1.500000e+01    0.000000e+00
    5.000000e+00    1.550000e+01    0.000000e+00
    5.000000e+00    1.600000e+01    0.000000e+00
    5.000000e+00    1.650000e+01    0.000000e+00
    5.000000e+00    1.700000e+01    0.000000e+00
    5.000000e+00    1.750000e+01    0.000000e+00
    5.000000e+00    1.800000e+01    0.000000e+00
    5.000000e+00    1.850000e+01    0.000000e+00
    5.000000e+00    1.900000e+01    0.000000e+00
    5.000000e+00    1.950000e+01    0.000000e+00
    5.000000e+00    2.000000e+01    0.000000e+00
    5.000000e+00    2.050000e+01    0.000000e+00
    5.000000e+00    2.100000e+01    0.000000e+00
    5.000000e+00    2.150000e+01    0.000000e+00
    5.000000e+00    2.200000e+01    0.000000e+00
    5.000000e+00    2.250000e+01    0.000000e+00
    5.000000e+00    2.300000e+01    0.000000e+00
    5.000000e+00    2.350000e+01    0.000000e+00
    5.000000e+00    2.400000e+01    0.000000e+00
    5.000000e+00    2.450000e+01    0.000000e+00
    5.000000e+00    2.500000e+01    0.000000e+00
    5.000000e+00    2.550000e+01    0.000000e+00
    5.000000e+00    2.600000e+01    0.000000e+00
    5.000000e+00    2.650000e+01    0.000000e+00
    5.000000e+00    2.700000e+01    0.000000e+00
    5.048037e+00    2.798773e+01    0.000000e+00
    5.190301e+00    2.845671e+01    0.000000e+00
    5.421326e+00    2.888893e+01    0.000000e+00
    5.732233e+00    2.926777e+01    0.000000e+00
    6.111074e+00    2.957867e+01    0.000000e+00
    6.543292e+00    2.980970e+01    0.000000e+00
    7.012274e+00    2.995196e+01    0.000000e+00
    8.000000e+00    3.000000e+01    0.000000e+00
    8.500000e+00    3.000000e+01    0.000000e+00
    9.000000e+00    3.000000e+01    0.000000e+00
    9.500000e+00    3.000000e+01    0.000000e+00
    1.000000e+01    3.000000e+01    0.000000e+00
    1.050000e+01    3.000000e+01    0.000000e+00
    1.100000e+01    3.000000e+01    0.000000e+00
    1.150000e+01    3.000000e+01    0.000000e+00
    1.200000e+01    3.000000e+01    0.000000e+00
    1.250000e+01    3.000000e+01    0.000000e+00
    1.300000e+01    3.000000e+01    0.000000e+00
    1.350000e+01    3.000000e+01    0.000000e+00
    1.400000e+01    3.000000e+01    0.000000e+00
    1.450000e+01    3.000000e+01    0.000000e+00
    1.500000e+01    3.000000e+01    0.000000e+00
    1.550000e+01    3.000000e+01    0.000000e+00
    1.600000e+01    3.000000e+01    0.000000e+00
    1.650000e+01    3.000000e+01    0.000000e+00
    1.700000e+01    3.000000e+01    0.000000e+00
    1.750000e+01    3.000000e+01    0.000000e+00
    1.800000e+01    3.000000e+01    0.000000e+00
    1.850000e+01    3.000000e+01    0.000000e+00
    1.900000e+01    3.000000e+01    0.000000e+00
    1.950000e+01    3.000000e+01    0.000000e+00
    2.000000e+01    3.000000e+01    0.000000e+00
    2.050000e+01    3.000000e+01    0.000000e+00
    2.100000e+01    3.000000e+01    0.000000e+00
    2.150000e+01    3.000000e+01    0.000000e+00
    2.200000e+01    3.000000e+01    0.000000e+00
    2.250000e+01    3.000000e+01    0.000000e+00
    2.300000e+01    3.000000e+01    0.000000e+00
    2.350000e+01    3.000000e+01    0.000000e+00
    2.400000e+01    3.000000e+01    0.000000e+00
    2.450000e+01    3.000000e+01    0.000000e+00
    2.500000e+01    3.000000e+01    0.000000e+00
    2.550000e+01    3.000000e+01    0.000000e+00
    2.600000e+01    3.000000e+01    0.000000e+00
    2.650000e+01    3.000000e+01    0.000000e+00
    2.700000e+01    3.000000e+01    0.000000e+00
    2.798773e+01    2.995196e+01    0.000000e+00
    2.845671e+01    2.980970e+01    0.000000e+00
    2.888893e+01    2.957867e+01    0.000000e+00
    2.926777e+01    2.926777e+01    0.000000e+00
    2.957867e+01    2.888893e+01    0.000000e+00
    2.980970e+01    2.845671e+01    0.000000e+00
    2.995196e+01    2.798773e+01    0.000000e+00
    3.000000e+01    2.700000e+01    0.000000e+00
    3.000000e+01    2.650000e+01    0.000000e+00
    3.000000e+01    2.600000e+01    0.000000e+00
    3.000000e+01    2.550000e+01    0.000000e+00
    3.000000e+01    2.500000e+01    0.000000e+00
    3.000000e+01    2.450000e+01    0.000000e+00
    3.000000e+01    2.400000e+01    0.000000e+00
    3.000000e+01    2.350000e+01    0.000000e+00
    3.000000e+01    2.300000e+01    0.000000e+00
    3.000000e+01    2.250000e+01    0.000000e+00
    3.000000e+01    2.200000e+01    0.000000e+00
    3.000000e+01    2.150000e+01    0.000000e+00
    3.000000e+01    2.100000e+01    0.000000e+00
    3.000000e+01    2.050000e+01    0.000000e+00
    3.000000e+01    2.000000e+01    0.000000e+00
    3.000000e+01    1.950000e+01    0.000000e+00
    3.000000e+01    1.900000e+01    0.000000e+00
    3.000000e+01    1.850000e+01    0.000000e+00
    3.000000e+01    1.800000e+01    0.000000e+00
    3.000000e+01    1.750000e+01    0.000000e+00
    3.000000e+01    1.700000e+01    0.000000e+00
    3.000000e+01    1.650000e+01    0.000000e+00
    3.000000e+01    1.600000e+01    0.000000e+00
    3.000000e+01    1.550000e+01    0.000000e+00
    3.000000e+01    1.500000e+01    0.000000e+00
    3.000000e+01    1.450000e+01    0.000000e+00
    3.000000e+01    1.400000e+01    0.000000e+00
    3.000000e+01    1.350000e+01    0.000000e+00
    3.000000e+01    1.300000e+01    0.000000e+00
    3.000000e+01    1.250000e+01    0.000000e+00
    3.000000e+01    1.200000e+01    0.000000e+00
    3.000000e+01    1.150000e+01    0.000000e+00
    3.000000e+01    1.100000e+01    0.000000e+00
    3.000000e+01    1.050000e+01    0.000000e+00
    3.000000e+01    1.000000e+01    0.000000e+00
    3.000000e+01    9.500000e+00    0.000000e+00
    3.000000e+01    9.000000e+00    0.000000e+00
    3.000000e+01    8.500000e+00    0.000000e+00
    3.000000e+01    8.000000e+00    0.000000e+00
    3.000000e+01    7.500000e+00    0.000000e+00
    3.000000e+01    7.000000e+00    0.000000e+00
    3.000000e+01    6.500000e+00    0.000000e+00
    3.000000e+01    6.000000e+00    0.000000e+00
    3.000000e+01    5.500000e+00    0.000000e+00
    3.000000e+01    5.000000e+00    0.000000e+00
    3.000000e+01    4.500000e+00    0.000000e+00
    3.000000e+01    4.000000e+00    0.000000e+00
    3.000000e+01    3.500000e+00    0.000000e+00
    3.000000e+01    3.000000e+00    0.000000e+00
    3.000000e+01    2.500000e+00    0.000000e+00
    3.000000e+01    2.000000e+00    0.000000e+00
    3.000000e+01    1.500000e+00    0.000000e+00
    3.000000e+01    1.000000e+00    0.000000e+00
    3.000000e+01    5.000000e-01    0.000000e+00
    3.050000e+01    0.000000e+00    0.000000e+00
    3.100000e+01    0.000000e+00    0.000000e+00
    3.150000e+01    0.000000e+00    0.000000e+00
    3.200000e+01    0.000000e+00    0.000000e+00
    3.250000e+01    0.000000e+00    0.000000e+00
    3.300000e+01    0.000000e+00    0.000000e+00
    3.350000e+01    0.000000e+00    0.000000e+00
    3.400000e+01    0.000000e+00    0.000000e+00
    3.450000e+01    0.000000e+00    0.000000e+00
    3.500000e+01    5.000000e-01    0.000000e+00
    3.500000e+01    1.000000e+00    0.000000e+00
    3.500000e+01    1.500000e+00    0.000000e+00
    3.500000e+01    2.000000e+00    0.000000e+00
    3.500000e+01    2.500000e+00    0.000000e+00
    3.500000e+01    3.000000e+00    0.000000e+00
    3.500000e+01    3.500000e+00    0.000000e+00
    3.500000e+01    4.000000e+00    0.000000e+00
    3.500000e+01    4.500000e+00    0.000000e+00
    3.500000e+01    5.000000e+00    0.000000e+00
    3.500000e+01    5.500000e+00    0.000000e+00
    3.500000e+01    6.000000e+00    0.000000e+00
    3.500000e+01    6.500000e+00    0.000000e+00
    3.500000e+01    7.000000e+00    0.000000e+00
    3.500000e+01    7.500000e+00    0.000000e+00
    3.500000e+01    8.000000e+00    0.000000e+00
    3.500000e+01    8.500000e+00    0.000000e+00
    3.500000e+01    9.000000e+00    0.000000e+00
    3.500000e+01    9.500000e+00    0.000000e+00
    3.500000e+01    1.000000e+01    0.000000e+00
    3.500000e+01    1.050000e+01    0.000000e+00
    3.500000e+01    1.100000e+01    0.000000e+00
    3.500000e+01    1.150000e+01    0.000000e+00
    3.500000e+01    1.200000e+01    0.000000e+00
    3.500000e+01    1.250000e+01    0.000000e+00
    3.500000e+01    1.300000e+01    0.000000e+00
    3.500000e+01    1.350000e+01    0.000000e+00
    3.500000e+01    1.400000e+01    0.000000e+00
    3.500000e+01    1.450000e+01    0.000000e+00
    3.500000e+01    1.500000e+01    0.000000e+00
    3.500000e+01    1.550000e+01    0.000000e+00
    3.500000e+01    1.600000e+01    0.000000e+00
    3.500000e+01    1.650000e+01    0.000000e+00
    3.500000e+01    1.700000e+01    0.000000e+00
    3.500000e+01    1.750000e+01    0.000000e+00
    3.500000e+01    1.800000e+01    0.000000e+00
    3.500000e+01    1.850000e+01    0.000000e+00
    3.500000e+01    1.900000e+01    0.000000e+00
    3.500000e+01    1.950000e+01    0.000000e+00
    3.500000e+01    2.000000e+01    0.000000e+00
    3.500000e+01    2.050000e+01    0.000000e+00
    3.500000e+01    2.100000e+01    0.000000e+00
    3.500000e+01    2.150000e+01    0.000000e+00
    3.500000e+01    2.200000e+01    0.000000e+00
    3.500000e+01    2.250000e+01    0.000000e+00
    3.500000e+01    2.300000e+01    0.000000e+00
    3.500000e+01    2.350000e+01    0.000000e+00
    3.500000e+01    2.400000e+01    0.000000e+00
    3.500000e+01    2.450000e+01    0.000000e+00
    3.500000e+01    2.500000e+01    0.000000e+00
    3.500000e+01    2.550000e+01    0.000000e+00
    3.500000e+01    2.600000e+01    0.000000e+00
    3.500000e+01    2.650000e+01    0.000000e+00
    3.500000e+01    2.700000e+01    0.000000e+00
    3.500000e+01    2.750000e+01    0.000000e+00
    3.500000e+01    2.800000e+01    0.000000e+00
    3.500000e+01    2.850000e+01    0.000000e+00
    3.500000e+01    2.900000e+01    0.000000e+00
    3.500000e+01    2.950000e+01    0.000000e+00
    3.500000e+01    3.000000e+01    0.000000e+00
    3.500000e+01    3.050000e+01    0.000000e+00
    3.500000e+01    3.100000e+01    0.000000e+00
    3.500000e+01    3.150000e+01    0.000000e+00
    3.500000e+01    3.200000e+01    0.000000e+00
    3.495196e+01    3.298772e+01    0.000000e+00
    3.480970e+01    3.345671e+01    0.000000e+00
    3.457867e+01    3.388893e+01    0.000000e+00
    3.426777e+01    3.426777e+01    0.000000e+00
    3.388893e+01    3.457867e+01    0.000000e+00
    3.345671e+01    3.480970e+01    0.000000e+00
    3.298772e+01    3.495196e+01    0.000000e+00
    3.200000e+01    3.500000e+01    0.000000e+00
    3.150000e+01    3.500000e+01    0.000000e+00
    3.100000e+01    3.500000e+01    0.000000e+00
    3.050000e+01    3.500000e+01    0.000000e+00
    2.950000e+01    3.500000e+01    0.000000e+00
    2.900000e+01    3.500000e+01    0.000000e+00
    2.850000e+01    3.500000e+01    0.000000e+00
    2.800000e+01    3.500000e+01    0.000000e+00
    2.750000e+01    3.500000e+01    0.000000e+00
    2.700000e+01    3.500000e+01    0.000000e+00
    2.650000e+01    3.500000e+01    0.000000e+00
    2.600000e+01    3.500000e+01    0.000000e+00
    2.550000e+01    3.500000e+01    0.000000e+00
    2.500000e+01    3.500000e+01    0.000000e+00
    2.450000e+01    3.500000e+01    0.000000e+00
    2.400000e+01    3.500000e+01    0.000000e+00
    2.350000e+01    3.500000e+01    0.000000e+00
    2.300000e+01    3.500000e+01    0.000000e+00
    2.250000e+01    3.500000e+01    0.000000e+00
    2.200000e+01    3.500000e+01    0.000000e+00
    2.150000e+01    3.500000e+01    0.000000e+00
    2.100000e+01    3.500000e+01    0.000000e+00
    2.050000e+01    3.500000e+01    0.000000e+00
    2.000000e+01    3.500000e+01    0.000000e+00
    1.950000e+01    3.500000e+01    0.000000e+00
    1.900000e+01    3.500000e+01    0.000000e+00
    1.850000e+01    3.500000e+01    0.000000e+00
    1.800000e+01    3.500000e+01    0.000000e+00
    1.750000e+01    3.500000e+01    0.000000e+00
    1.700000e+01    3.500000e+01    0.000000e+00
    1.650000e+01    3.500000e+01    0.000000e+00
    1.600000e+01    3.500000e+01    0.000000e+00
    1.550000e+01    3.500000e+01    0.000000e+00
    1.500000e+01    3.500000e+01    0.000000e+00
    1.450000e+01    3.500000e+01    0.000000e+00
    1.400000e+01    3.500000e+01    0.000000e+00
    1.350000e+01    3.500000e+01    0.000000e+00
    1.300000e+01    3.500000e+01    0.000000e+00
    1.250000e+01    3.500000e+01    0.000000e+00
    1.200000e+01    3.500000e+01    0.000000e+00
    1.150000e+01    3.500000e+01    0.000000e+00
    1.100000e+01    3.500000e+01    0.000000e+00
    1.050000e+01    3.500000e+01    0.000000e+00
    1.000000e+01    3.500000e+01    0.000000e+00
    9.500000e+00    3.500000e+01    0.000000e+00
    9.000000e+00    3.500000e+01    0.000000e+00
    8.500000e+00    3.500000e+01    0.000000e+00
    8.000000e+00    3.500000e+01    0.000000e+00
    7.012274e+00    3.504804e+01    0.000000e+00
    6.543292e+00    3.519030e+01    0.000000e+00
    6.111074e+00    3.542133e+01    0.000000e+00
    5.732233e+00    3.573223e+01    0.000000e+00
    5.421326e+00    3.611107e+01    0.000000e+00
    5.190301e+00    3.654329e+01    0.000000e+00
    5.048037e+00    3.701228e+01    0.000000e+00
    5.000000e+00    3.800000e+01    0.000000e+00
    5.000000e+00    3.850000e+01    0.000000e+00
    5.000000e+00    3.900000e+01    0.000000e+00
    5.000000e+00    3.950000e+01    0.000000e+00
    5.000000e+00    4.000000e+01    0.000000e+00
    5.000000e+00    4.050000e+01    0.000000e+00
    5.000000e+00    4.100000e+01    0.000000e+00
    5.000000e+00    4.150000e+01    0.000000e+00
    5.000000e+00    4.200000e+01    0.000000e+00
    5.000000e+00    4.250000e+01    0.000000e+00
    5.000000e+00    4.300000e+01    0.000000e+00
    5.000000e+00    4.350000e+01    0.000000e+00
    5.000000e+00    4.400000e+01    0.000000e+00
    5.000000e+00    4.450000e+01    0.000000e+00
    5.000000e+00    4.500000e+01    0.000000e+00
    5.000000e+00    4.550000e+01    0.000000e+00
    5.000000e+00    4.600000e+01    0.000000e+00
    5.000000e+00    4.650000e+01    0.000000e+00
    5.000000e+00    4.700000e+01    0.000000e+00
    5.000000e+00    4.750000e+01    0.000000e+00
    5.000000e+00    4.800000e+01    0.000000e+00
    5.000000e+00    4.850000e+01    0.000000e+00
    5.000000e+00    4.900000e+01    0.000000e+00
    5.000000e+00    4.950000e+01    0.000000e+00
    5.000000e+00    5.000000e+01    0.000000e+00
    5.000000e+00    5.050000e+01    0.000000e+00
    5.000000e+00    5.100000e+01    0.000000e+00
    5.000000e+00    5.150000e+01    0.000000e+00
    5.000000e+00    5.200000e+01    0.000000e+00
    5.000000e+00    5.250000e+01    0.000000e+00
    5.000000e+00    5.300000e+01    0.000000e+00
    5.000000e+00    5.350000e+01    0.000000e+00
    5.000000e+00    5.400000e+01    0.000000e+00
    5.000000e+00    5.450000e+01    0.000000e+00
    4.500000e+00    5.500000e+01    0.000000e+00
    4.000000e+00    5.500000e+01    0.000000e+00
    3.500000e+00    5.500000e+01    0.000000e+00
    3.000000e+00    5.500000e+01    0.000000e+00
    4.951963e+00    5.548772e+01    0.000000e+00
    4.809699e+00    5.595671e+01    0.000000e+00
    4.578674e+00    5.638893e+01    0.000000e+00
    4.267767e+00    5.676777e+01    0.000000e+00
    3.888926e+00    5.707867e+01    0.000000e+00
    3.456709e+00    5.730970e+01    0.000000e+00
    2.987726e+00    5.745196e+01    0.000000e+00
    1.131109e+00    5.658091e+01    0.000000e+00
    6.445425e-01    5.606510e+01    0.000000e+00
    6.810224e-01    5.557752e+01    0.000000e+00
    1.944473e+00    5.681562e+01    0.000000e+00
    2.030607e+00    5.620882e+01    0.000000e+00
    1.267812e+00    5.548374e+01    0.000000e+00
    1.457115e+00    5.683591e+01    0.000000e+00
    8.078571e-01    5.636983e+01    0.000000e+00
    2.057730e+00    5.566455e+01    0.000000e+00
    1.101432e+00    5.604892e+01    0.000000e+00
    1.547798e+00    5.639347e+01    0.000000e+00
    1.689519e+00    5.540379e+01    0.000000e+00
    1.615816e+00    5.586722e+01    0.000000e+00
    9.544297e-01    5.404916e+01    0.000000e+00
    1.979169e+00    5.403004e+01    0.000000e+00
    3.028959e+00    5.394140e+01    0.000000e+00
    4.040039e+00    5.407882e+01    0.000000e+00
    9.017477e-01    5.289999e+01    0.000000e+00
    2.025249e+00    5.288557e+01    0.000000e+00
    3.047985e+00    5.288044e+01    0.000000e+00
    4.103594e+00    5.294672e+01    0.000000e+00
    9.366975e-01    5.195182e+01    0.000000e+00
    2.055956e+00    5.192161e+01    0.000000e+00
    3.163444e+00    5.185585e+01    0.000000e+00
    4.109056e+00    5.192351e+01    0.000000e+00
    9.456918e-01    5.086401e+01    0.000000e+00
    2.017817e+00    5.085033e+01    0.000000e+00
    3.176815e+00    5.087712e+01    0.000000e+00
    4.139692e+00    5.081283e+01    0.000000e+00
    9.482605e-01    4.963108e+01    0.000000e+00
    2.024006e+00    4.962533e+01    0.000000e+00
    3.026514e+00    4.979345e+01    0.000000e+00
    4.111050e+00    4.968523e+01    0.000000e+00
    9.593365e-01    4.854189e+01    0.000000e+00
    2.058290e+00    4.862019e+01    0.000000e+00
    3.231498e+00    4.863618e+01    0.000000e+00
    4.132408e+00    4.855345e+01    0.000000e+00
    9.639022e-01    4.750906e+01    0.000000e+00
    2.177457e+00    4.747727e+01    0.000000e+00
    3.156103e+00    4.764650e+01    0.000000e+00
    4.120432e+00    4.755363e+01    0.000000e+00
    9.199170e-01    4.650087e+01    0.000000e+00
    2.040178e+00    4.645503e+01    0.000000e+00
    3.178039e+00    4.656053e+01    0.000000e+00
    4.106724e+00    4.652371e+01    0.000000e+00
    9.034927e-01    4.549991e+01    0.000000e+00
    2.024735e+00    4.555480e+01    0.000000e+00
    3.171299e+00    4.545927e+01    0.000000e+00
    4.105370e+00    4.548671e+01    0.000000e+00
    9.427288e-01    4.449558e+01    0.000000e+00
    2.137063e+00    4.455273e+01    0.000000e+00
    3.118575e+00    4.434609e+01    0.000000e+00
    4.115419e+00    4.444685e+01    0.000000e+00
    9.818544e-01    4.346646e+01    0.000000e+00
    2.165878e+00    4.346601e+01    0.000000e+00
    3.196890e+00    4.330877e+01    0.000000e+00
    4.145439e+00    4.341476e+01    0.000000e+00
    9.594613e-01    4.242041e+01    0.000000e+00
    2.052989e+00    4.232579e+01    0.000000e+00
    3.086976e+00    4.230041e+01    0.000000e+00
    4.121301e+00    4.232577e+01    0.000000e+00
    9.344985e-01    4.125190e+01    0.000000e+00
    2.048026e+00    4.125498e+01    0.000000e+00
    3.030951e+00    4.130047e+01    0.000000e+00
    4.048907e+00    4.122963e+01    0.000000e+00
    9.634498e-01    4.008218e+01    0.000000e+00
    2.067165e+00    4.017092e+01    0.000000e+00
    3.194816e+00    4.010876e+01    0.000000e+00
    4.103259e+00    4.007474e+01    0.000000e+00
    9.837340e-01    3.903831e+01    0.000000e+00
    2.156569e+00    3.903217e+01    0.000000e+00
    3.173490e+00    3.915361e+01    0.000000e+00
    4.126396e+00    3.907188e+01    0.000000e+00
    9.601875e-01    3.801714e+01    0.000000e+00
    2.041830e+00    3.802971e+01    0.000000e+00
    3.142585e+00    3.812883e+01    0.000000e+00
    4.110840e+00    3.804533e+01    0.000000e+00
    1.035342e+00    3.693168e+01    0.000000e+00
    2.134408e+00    3.698777e+01    0.000000e+00
    3.123547e+00    3.713829e+01    0.000000e+00
    4.021332e+00    3.700632e+01    0.000000e+00
    9.175527e-01    3.595739e+01    0.000000e+00
    2.028060e+00    3.593208e+01    0.000000e+00
    3.095738e+00    3.593102e+01    0.000000e+00
    4.103595e+00    3.591316e+01    0.000000e+00
    9.575540e-01    3.498178e+01    0.000000e+00
    2.043241e+00    3.496302e+01    0.000000e+00
    3.137926e+00    3.480969e+01    0.000000e+00
    4.106177e+00    3.502112e+01    0.000000e+00
    5.161726e+00    3.494738e+01    0.000000e+00
    6.135831e+00    3.488841e+01    0.000000e+00
    9.568034e-01    3.395816e+01    0.000000e+00
    2.031860e+00    3.389400e+01    0.000000e+00
    3.174797e+00    3.389260e+01    0.000000e+00
    4.184717e+00    3.386909e+01    0.000000e+00
    5.161070e+00    3.383068e+01    0.000000e+00
    6.155928e+00    3.377290e+01    0.000000e+00
    7.156810e+00    3.400300e+01    0.000000e+00
    8.196378e+00    3.384164e+01    0.000000e+00
    9.236029e+00    3.373267e+01    0.000000e+00
    1.026195e+01    3.375013e+01    0.000000e+00
    1.128150e+01    3.373906e+01    0.000000e+00
    1.233312e+01    3.381689e+01    0.000000e+00
    1.335382e+01    3.382475e+01    0.000000e+00
    1.449035e+01    3.388523e+01    0.000000e+00
    1.547640e+01    3.384757e+01    0.000000e+00
    1.645371e+01    3.383647e+01    0.000000e+00
    1.748860e+01    3.373772e+01    0.000000e+00
    1.852104e+01    3.374033e+01    0.000000e+00
    1.955193e+01    3.383173e+01    0.000000e+00
    2.054260e+01    3.385065e+01    0.000000e+00
    2.155164e+01    3.385867e+01    0.000000e+00
    2.255424e+01    3.389127e+01    0.000000e+00
    2.369263e+01    3.381703e+01    0.000000e+00
    2.473148e+01    3.379430e+01    0.000000e+00
    2.575276e+01    3.379224e+01    0.000000e+00
    2.677001e+01    3.382114e+01    0.000000e+00
    2.774631e+01    3.374751e+01    0.000000e+00
    2.878906e+01    3.373333e+01    0.000000e+00
    2.983945e+01    3.381578e+01    0.000000e+00
    3.084594e+01    3.381479e+01    0.000000e+00
    3.191592e+01    3.388172e+01    0.000000e+00
    3.294259e+01    3.395877e+01    0.000000e+00
    3.406107e+01    3.382170e+01    0.000000e+00
    9.492168e-01    3.286950e+01    0.000000e+00
    2.040995e+00    3.289436e+01    0.000000e+00
    3.090141e+00    3.289190e+01    0.000000e+00
    4.151918e+00    3.277795e+01    0.000000e+00
    5.155746e+00    3.275571e+01    0.000000e+00
    6.129179e+00    3.273163e+01    0.000000e+00
    7.165449e+00    3.274512e+01    0.000000e+00
    8.243895e+00    3.279036e+01    0.000000e+00
    9.231933e+00    3.280977e+01    0.000000e+00
    1.028552e+01    3.285649e+01    0.000000e+00
    1.128191e+01    3.288891e+01    0.000000e+00
    1.231656e+01    3.284803e+01    0.000000e+00
    1.334923e+01    3.284568e+01    0.000000e+00
    1.441259e+01    3.282084e+01    0.000000e+00
    1.545729e+01    3.279622e+01    0.000000e+00
    1.653748e+01    3.281256e+01    0.000000e+00
    1.751748e+01    3.277111e+01    0.000000e+00
    1.854597e+01    3.273893e+01    0.000000e+00
    1.959059e+01    3.277471e+01    0.000000e+00
    2.057594e+01    3.277754e+01    0.000000e+00
    2.159681e+01    3.278427e+01    0.000000e+00
    2.262857e+01    3.280198e+01    0.000000e+00
    2.365512e+01    3.280216e+01    0.000000e+00
    2.470802e+01    3.270248e+01    0.000000e+00
    2.576009e+01    3.277719e+01    0.000000e+00
    2.676373e+01    3.275867e+01    0.000000e+00
    2.770604e+01    3.281733e+01    0.000000e+00
    2.884693e+01    3.284168e+01    0.000000e+00
    2.985509e+01    3.281312e+01    0.000000e+00
    3.087932e+01    3.271461e+01    0.000000e+00
    3.189100e+01    3.282352e+01    0.000000e+00
    3.288357e+01    3.285013e+01    0.000000e+00
    3.409339e+01    3.287679e+01    0.000000e+00
    9.469758e-01    3.163535e+01    0.000000e+00
    2.039520e+00    3.161652e+01    0.000000e+00
    3.072817e+00    3.162123e+01    0.000000e+00
    4.021361e+00    3.163964e+01    0.000000e+00
    5.230447e+00    3.166008e+01    0.000000e+00
    6.122938e+00    3.170718e+01    0.000000e+00
    7.185057e+00    3.166709e+01    0.000000e+00
    8.138281e+00    3.183419e+01    0.000000e+00
    9.289463e+00    3.176331e+01    0.000000e+00
    1.030997e+01    3.171698e+01    0.000000e+00
    1.128313e+01    3.172347e+01    0.000000e+00
    1.228896e+01    3.173425e+01    0.000000e+00
    1.333587e+01    3.171961e+01    0.000000e+00
    1.439239e+01    3.170203e+01    0.000000e+00
    1.543818e+01    3.169967e+01    0.000000e+00
    1.646422e+01    3.168339e+01    0.000000e+00
    1.750698e+01    3.158388e+01    0.000000e+00
    1.856741e+01    3.176616e+01    0.000000e+00
    1.958428e+01    3.169324e+01    0.000000e+00
    2.059171e+01    3.167340e+01    0.000000e+00
    2.163360e+01    3.168759e+01    0.000000e+00
    2.265884e+01    3.170592e+01    0.000000e+00
    2.365987e+01    3.171296e+01    0.000000e+00
    2.470103e+01    3.179003e+01    0.000000e+00
    2.574673e+01    3.170259e+01    0.000000e+00
    2.672843e+01    3.168800e+01    0.000000e+00
    2.781662e+01    3.176427e+01    0.000000e+00
    2.890402e+01    3.167570e+01    0.000000e+00
    2.984118e+01    3.169972e+01    0.000000e+00
    3.092970e+01    3.168272e+01    0.000000e+00
    3.196972e+01    3.176626e+01    0.000000e+00
    3.294630e+01    3.176041e+01    0.000000e+00
    3.406672e+01    3.173638e+01    0.000000e+00
    9.550373e-01    3.055580e+01    0.000000e+00
    2.032082e+00    3.064568e+01    0.000000e+00
    3.085752e+00    3.064478e+01    0.000000e+00
    4.154443e+00    3.071200e+01    0.000000e+00
    5.277229e+00    3.055873e+01    0.000000e+00
    6.140890e+00    3.057573e+01    0.000000e+00
    7.087826e+00    3.070206e+01    0.000000e+00
    8.197007e+00    3.053060e+01    0.000000e+00
    9.305687e+00    3.057138e+01    0.000000e+00
    1.027957e+01    3.053174e+01    0.000000e+00
    1.128071e+01    3.053602e+01    0.000000e+00
    1.227490e+01    3.066223e+01    0.000000e+00
    1.340600e+01    3.058093e+01    0.000000e+00
    1.444485e+01    3.057890e+01    0.000000e+00
    1.544959e+01    3.072619e+01    0.000000e+00
    1.644087e+01    3.073508e+01    0.000000e+00
    1.749208e+01    3.066888e+01    0.000000e+00
    1.854633e+01    3.058624e+01    0.000000e+00
    1.955915e+01    3.071794e+01    0.000000e+00
    2.056773e+01    3.057911e+01    0.000000e+00
    2.172415e+01    3.065919e+01    0.000000e+00
    2.269570e+01    3.068995e+01    0.000000e+00
    2.370684e+01    3.053677e+01    0.000000e+00
    2.472933e+01    3.053416e+01    0.000000e+00
    2.574520e+01    3.053339e+01    0.000000e+00
    2.678071e+01    3.055140e+01    0.000000e+00
    2.784737e+01    3.066144e+01    0.000000e+00
    2.884278e+01    3.065067e+01    0.000000e+00
    2.978672e+01    3.056598e+01    0.000000e+00
    3.091161e+01    3.067716e+01    0.000000e+00
    3.192585e+01    3.071447e+01    0.000000e+00
    3.293405e+01    3.065326e+01    0.000000e+00
    3.403836e+01    3.056372e+01    0.000000e+00
    9.842309e-01    2.952890e+01    0.000000e+00
    2.086591e+00    2.963831e+01    0.000000e+00
    3.154459e+00    2.966833e+01    0.000000e+00
    4.204442e+00    2.964605e+01    0.000000e+00
    5.240769e+00    2.959843e+01    0.000000e+00
    2.978978e+01    2.960665e+01    0.000000e+00
    3.086464e+01    2.975426e+01    0.000000e+00
    3.182886e+01    2.962969e+01    0.000000e+00
    3.294874e+01    2.950196e+01    0.000000e+00
    3.403714e+01    2.950493e+01    0.000000e+00
    9.570085e-01    2.849639e+01    0.000000e+00
    2.045912e+00    2.840692e+01    0.000000e+00
    3.129879e+00    2.850178e+01    0.000000e+00
    4.107984e+00    2.857910e+01    0.000000e+00
    9.261938e-01    2.749743e+01    0.000000e+00
    2.076320e+00    2.746697e+01    0.000000e+00
    3.165787e+00    2.750822e+01    0.000000e+00
    4.129842e+00    2.751068e+01    0.000000e+00
    9.484121e-01    2.649637e+01    0.000000e+00
    2.080529e+00    2.645906e+01    0.000000e+00
    3.219082e+00    2.649375e+01    0.000000e+00
    4.121640e+00    2.647588e+01    0.000000e+00
    9.735860e-01    2.547076e+01    0.000000e+00
    2.025628e+00    2.540659e+01    0.000000e+00
    3.138827e+00    2.538537e+01    0.000000e+00
    4.121121e+00    2.544125e+01    0.000000e+00
    9.544677e-01    2.444558e+01    0.000000e+00
    2.036690e+00    2.436474e+01    0.000000e+00
    3.168986e+00    2.438503e+01    0.000000e+00
    4.112312e+00    2.442413e+01    0.000000e+00
    9.467376e-01    2.336316e+01    0.000000e+00
    2.017078e+00    2.335011e+01    0.000000e+00
    3.176273e+00    2.338212e+01    0.000000e+00
    4.139556e+00    2.331283e+01    0.000000e+00
    9.482676e-01    2.213108e+01    0.000000e+00
    2.023996e+00    2.212548e+01    0.000000e+00
    3.026403e+00    2.229385e+01    0.000000e+00
    4.110869e+00    2.218510e+01    0.000000e+00
    9.593374e-01    2.104189e+01    0.000000e+00
    2.058293e+00    2.112019e+01    0.000000e+00
    3.231495e+00    2.113618e+01    0.000000e+00
    4.132403e+00    2.105344e+01    0.000000e+00
    9.639025e-01    2.000906e+01    0.000000e+00
    2.177457e+00    1.997727e+01    0.000000e+00
    3.156101e+00    2.014650e+01    0.000000e+00
    4.120426e+00    2.005363e+01    0.000000e+00
    9.199171e-01    1.900087e+01    0.000000e+00
    2.040178e+00    1.895503e+01    0.000000e+00
    3.178038e+00    1.906051e+01    0.000000e+00
    4.106668e+00    1.902367e+01    0.000000e+00
    9.034927e-01    1.799991e+01    0.000000e+00
    2.024734e+00    1.805480e+01    0.000000e+00
    3.171299e+00    1.795926e+01    0.000000e+00
    4.105436e+00    1.798654e+01    0.000000e+00
    9.427290e-01    1.699558e+01    0.000000e+00
    2.137061e+00    1.705273e+01    0.000000e+00
    3.118565e+00    1.684609e+01    0.000000e+00
    4.115493e+00    1.694680e+01    0.000000e+00
    9.818561e-01    1.596647e+01    0.000000e+00
    2.165879e+00    1.596602e+01    0.000000e+00
    3.196958e+00    1.580849e+01    0.000000e+00
    4.145537e+00    1.591478e+01    0.000000e+00
    9.594722e-01    1.492041e+01    0.000000e+00
    2.053308e+00    1.482419e+01    0.000000e+00
    3.090403e+00    1.479258e+01    0.000000e+00
    4.124968e+00    1.482508e+01    0.000000e+00
    9.344417e-01    1.375168e+01    0.000000e+00
    2.042567e+00    1.374803e+01    0.000000e+00
    3.059934e+00    1.371758e+01    0.000000e+00
    4.075078e+00    1.374319e+01    0.000000e+00
    9.635095e-01    1.258213e+01    0.000000e+00
    2.057876e+00    1.267248e+01    0.000000e+00
    3.159591e+00    1.264774e+01    0.000000e+00
    4.102927e+00    1.259263e+01    0.000000e+00
    9.838140e-01    1.153797e+01    0.000000e+00
    2.156064e+00    1.153089e+01    0.000000e+00
    3.170748e+00    1.165613e+01    0.000000e+00
    4.126056e+00    1.157289e+01    0.000000e+00
    9.599698e-01    1.051669e+01    0.000000e+00
    2.040230e+00    1.052780e+01    0.000000e+00
    3.144779e+00    1.062690e+01    0.000000e+00
    4.116923e+00    1.055418e+01    0.000000e+00
    1.034317e+00    9.433209e+00    0.000000e+00
    2.129081e+00    9.489228e+00    0.000000e+00
    3.122216e+00    9.628072e+00    0.000000e+00
    4.111890e+00    9.523900e+00    0.000000e+00
    9.187919e-01    8.459865e+00    0.000000e+00
    2.022571e+00    8.454888e+00    0.000000e+00
    3.182728e+00    8.500472e+00    0.000000e+00
    4.115634e+00    8.484834e+00    0.000000e+00
    9.599196e-01    7.480921e+00    0.000000e+00
    2.065849e+00    7.433652e+00    0.000000e+00
    3.150226e+00    7.389185e+00    0.000000e+00
    4.119948e+00    7.451692e+00    0.000000e+00
    9.576446e-01    6.456222e+00    0.000000e+00
    2.066378e+00    6.351537e+00    0.000000e+00
    3.230391e+00    6.492188e+00    0.000000e+00
    4.114522e+00    6.442783e+00    0.000000e+00
    9.466953e-01    5.366565e+00    0.000000e+00
    2.011219e+00    5.340976e+00    0.000000e+00
    3.138352e+00    5.375150e+00    0.000000e+00
    4.135804e+00    5.320961e+00    0.000000e+00
    9.491423e-01    4.134295e+00    0.000000e+00
    2.020672e+00    4.128544e+00    0.000000e+00
    3.059076e+00    4.221816e+00    0.000000e+00
    4.130235e+00    4.212165e+00    0.000000e+00
    9.579440e-01    3.040648e+00    0.000000e+00
    2.099366e+00    3.153831e+00    0.000000e+00
    3.148483e+00    3.162721e+00    0.000000e+00
    4.105175e+00    3.081377e+00    0.000000e+00
    9.143715e-01    2.087249e+00    0.000000e+00
    2.004284e+00    2.104114e+00    0.000000e+00
    3.037436e+00    2.205694e+00    0.000000e+00
    4.084990e+00    2.059561e+00    0.000000e+00
    9.920233e-01    9.126999e-01    0.000000e+00
    1.987534e+00    9.543039e-01    0.000000e+00
    3.015277e+00    9.564679e-01    0.000000e+00
    4.053027e+00    9.470760e-01    0.000000e+00
    3.091850e+01    2.860420e+01    0.000000e+00
    3.188161e+01    2.858540e+01    0.000000e+00
    3.285884e+01    2.854310e+01    0.000000e+00
    3.404147e+01    2.846289e+01    0.000000e+00
    3.089966e+01    2.646965e+01    0.000000e+00
    3.183331e+01    2.644746e+01    0.000000e+00
    3.280730e+01    2.642217e+01    0.000000e+00
    3.403326e+01    2.651273e+01    0.000000e+00
    3.413595e+01    2.749085e+01    0.000000e+00
    3.297470e+01    2.748225e+01    0.000000e+00
    3.187721e+01    2.750212e+01    0.000000e+00
    3.090699e+01    2.751818e+01    0.000000e+00
    3.088424e+01    2.543941e+01    0.000000e+00
    3.185439e+01    2.537610e+01    0.000000e+00
    3.290964e+01    2.544945e+01    0.000000e+00
    3.402302e+01    2.547497e+01    0.000000e+00
    3.089269e+01    2.441965e+01    0.000000e+00
    3.186973e+01    2.438625e+01    0.000000e+00
    3.299216e+01    2.423411e+01    0.000000e+00
    3.402969e+01    2.443512e+01    0.000000e+00
    3.085077e+01    2.327141e+01    0.000000e+00
    3.195478e+01    2.328544e+01    0.000000e+00
    3.297919e+01    2.335992e+01    0.000000e+00
    3.404974e+01    2.335978e+01    0.000000e+00
    3.085092e+01    2.221418e+01    0.000000e+00
    3.195161e+01    2.218526e+01    0.000000e+00
    3.297748e+01    2.210596e+01    0.000000e+00
    3.405001e+01    2.212924e+01    0.000000e+00
    3.089214e+01    2.106869e+01    0.000000e+00
    3.185667e+01    2.110163e+01    0.000000e+00
    3.297269e+01    2.111371e+01    0.000000e+00
    3.404182e+01    2.104283e+01    0.000000e+00
    3.088276e+01    2.004807e+01    0.000000e+00
    3.187234e+01    2.009651e+01    0.000000e+00
    3.297508e+01    2.007366e+01    0.000000e+00
    3.402021e+01    2.001375e+01    0.000000e+00
    3.088366e+01    1.901495e+01    0.000000e+00
    3.179163e+01    1.899757e+01    0.000000e+00
    3.288818e+01    1.904252e+01    0.000000e+00
    3.402674e+01    1.898383e+01    0.000000e+00
    3.088750e+01    1.798057e+01    0.000000e+00
    3.186178e+01    1.793760e+01    0.000000e+00
    3.291534e+01    1.792633e+01    0.000000e+00
    3.404352e+01    1.799008e+01    0.000000e+00
    3.088580e+01    1.695651e+01    0.000000e+00
    3.186329e+01    1.697084e+01    0.000000e+00
    3.294562e+01    1.703469e+01    0.000000e+00
    3.403275e+01    1.700437e+01    0.000000e+00
    3.087656e+01    1.593074e+01    0.000000e+00
    3.185035e+01    1.582991e+01    0.000000e+00
    3.282882e+01    1.595127e+01    0.000000e+00
    3.401034e+01    1.596883e+01    0.000000e+00
    3.088783e+01    1.492116e+01    0.000000e+00
    3.179904e+01    1.488333e+01    0.000000e+00
    3.292790e+01    1.482272e+01    0.000000e+00
    3.403398e+01    1.491798e+01    0.000000e+00
    3.086895e+01    1.370107e+01    0.000000e+00
    3.196334e+01    1.368765e+01    0.000000e+00
    3.295170e+01    1.374368e+01    0.000000e+00
    3.406211e+01    1.375051e+01    0.000000e+00
    3.089749e+01    1.264622e+01    0.000000e+00
    3.193196e+01    1.268175e+01    0.000000e+00
    3.296690e+01    1.266841e+01    0.000000e+00
    3.404129e+01    1.258073e+01    0.000000e+00
    3.086557e+01    1.157466e+01    0.000000e+00
    3.183603e+01    1.166339e+01    0.000000e+00
    3.294895e+01    1.159207e+01    0.000000e+00
    3.401835e+01    1.153442e+01    0.000000e+00
    3.088828e+01    1.054190e+01    0.000000e+00
    3.188360e+01    1.055340e+01    0.000000e+00
    3.289411e+01    1.055202e+01    0.000000e+00
    3.400877e+01    1.048244e+01    0.000000e+00
    3.089438e+01    9.510914e+00    0.000000e+00
    3.182302e+01    9.518950e+00    0.000000e+00
    3.304079e+01    9.499249e+00    0.000000e+00
    3.406263e+01    9.451240e+00    0.000000e+00
    3.089351e+01    8.476118e+00    0.000000e+00
    3.182828e+01    8.436340e+00    0.000000e+00
    3.298738e+01    8.548272e+00    0.000000e+00
    3.407642e+01    8.501842e+00    0.000000e+00
    3.087956e+01    7.446311e+00    0.000000e+00
    3.184413e+01    7.351453e+00    0.000000e+00
    3.279794e+01    7.495268e+00    0.000000e+00
    3.402586e+01    7.512324e+00    0.000000e+00
    3.086766e+01    6.446564e+00    0.000000e+00
    3.176812e+01    6.364254e+00    0.000000e+00
    3.293821e+01    6.380843e+00    0.000000e+00
    3.403821e+01    6.461632e+00    0.000000e+00
    3.089211e+01    5.318377e+00    0.000000e+00
    3.196514e+01    5.227190e+00    0.000000e+00
    3.296591e+01    5.370342e+00    0.000000e+00
    3.404739e+01    5.367726e+00    0.000000e+00
    3.087305e+01    4.193636e+00    0.000000e+00
    3.193016e+01    4.168427e+00    0.000000e+00
    3.297197e+01    4.117033e+00    0.000000e+00
    3.404895e+01    4.135191e+00    0.000000e+00
    3.089464e+01    3.077035e+00    0.000000e+00
    3.185490e+01    3.132540e+00    0.000000e+00
    3.295388e+01    3.135235e+00    0.000000e+00
    3.405270e+01    3.071619e+00    0.000000e+00
    3.089619e+01    2.053015e+00    0.000000e+00
    3.193974e+01    2.104825e+00    0.000000e+00
    3.298425e+01    2.174827e+00    0.000000e+00
    3.399037e+01    2.132195e+00    0.000000e+00
    3.095994e+01    9.212514e-01    0.000000e+00
    3.196994e+01    1.059599e+00    0.000000e+00
    3.301769e+01    9.704602e-01    0.000000e+00
    3.403745e+01    9.489114e-01    0.000000e+00
    3.384949e+01    3.416046e+01    0.000000e+00
    5.165045e+00    3.558958e+01    0.000000e+00
    5.660204e+00    3.520119e+01    0.000000e+00
    3.455970e+01    3.266518e+01    0.000000e+00
    6.673259e+00    3.032593e+01    0.000000e+00
    3.268328e+01    3.452251e+01    0.000000e+00
    3.042919e+01    2.778275e+01    0.000000e+00
    4.589627e+00    2.777704e+01    0.000000e+00
    4.545352e+00    3.715920e+01    0.000000e+00
    2.931567e+01    2.982656e+01    0.000000e+00
    4.951049e+00    2.885787e+01    0.000000e+00
    4.926905e+00    3.615130e+01    0.000000e+00
    3.037238e+01    2.837351e+01    0.000000e+00
    2.830002e+01    3.031519e+01    0.000000e+00
    3.454558e+01    3.308088e+01    0.000000e+00
    3.310772e+01    3.450977e+01    0.000000e+00
    7.286973e+00    3.457037e+01    0.000000e+00
    5.697758e+00    2.982013e+01    0.000000e+00
    6.144236e+00    3.007042e+01    0.000000e+00
    3.006967e+01    2.885198e+01    0.000000e+00
    2.885483e+01    3.008428e+01    0.000000e+00
    4.748054e+00    3.663992e+01    0.000000e+00
    4.644346e+00    2.837251e+01    0.000000e+00
    3.431416e+01    3.341520e+01    0.000000e+00
    7.770730e+00    3.459253e+01    0.000000e+00
    6.839617e-01    5.454416e+01    0.000000e+00
    4.636709e-01    5.373286e+01    0.000000e+00
    4.633017e+00    4.974805e+01    0.000000e+00
    4.638583e+00    5.075294e+01    0.000000e+00
    4.333280e-01    5.271866e+01    0.000000e+00
    4.562070e+00    4.878358e+01    0.000000e+00
    4.365700e-01    5.172260e+01    0.000000e+00
    4.563761e+00    4.777770e+01    0.000000e+00
    3.840782e-01    5.076610e+01    0.000000e+00
    4.559187e+00    4.676539e+01    0.000000e+00
    4.326333e-01    4.928162e+01    0.000000e+00
    4.557990e+00    4.523848e+01    0.000000e+00
    4.484676e-01    4.826533e+01    0.000000e+00
    4.563079e+00    4.422041e+01    0.000000e+00
    4.446908e-01    4.725335e+01    0.000000e+00
    4.576665e+00    4.320228e+01    0.000000e+00
    4.265914e-01    4.625016e+01    0.000000e+00
    4.617590e+00    4.217355e+01    0.000000e+00
    4.229160e-01    4.524857e+01    0.000000e+00
    4.598722e+00    4.134820e+01    0.000000e+00
    4.419077e-01    4.424408e+01    0.000000e+00
    4.558299e+00    3.978984e+01    0.000000e+00
    4.527576e-01    4.323075e+01    0.000000e+00
    4.564126e+00    3.878265e+01    0.000000e+00
    4.408026e-01    4.220426e+01    0.000000e+00
    4.552908e+00    3.774813e+01    0.000000e+00
    4.252405e-01    4.081757e+01    0.000000e+00
    4.499391e-01    3.978186e+01    0.000000e+00
    1.228495e+01    3.458213e+01    0.000000e+00
    4.520671e-01    3.876461e+01    0.000000e+00
    4.487303e-01    3.775335e+01    0.000000e+00
    4.556297e-01    3.672646e+01    0.000000e+00
    4.364572e-01    3.573782e+01    0.000000e+00
    4.484836e-01    3.474092e+01    0.000000e+00
    4.429083e-01    3.372704e+01    0.000000e+00
    3.851849e-01    3.276764e+01    0.000000e+00
    4.312521e-01    3.128486e+01    0.000000e+00
    4.475197e-01    3.027143e+01    0.000000e+00
    4.564751e+00    2.674227e+01    0.000000e+00
    4.534602e-01    2.925896e+01    0.000000e+00
    4.563917e+00    2.572390e+01    0.000000e+00
    4.395506e-01    2.825131e+01    0.000000e+00
    4.560275e+00    2.471318e+01    0.000000e+00
    4.318348e-01    2.725166e+01    0.000000e+00
    4.573205e+00    2.369620e+01    0.000000e+00
    4.445348e-01    2.624784e+01    0.000000e+00
    4.632929e+00    2.224797e+01    0.000000e+00
    4.509575e-01    2.523587e+01    0.000000e+00
    4.562058e+00    2.128355e+01    0.000000e+00
    4.413396e-01    2.422204e+01    0.000000e+00
    4.563759e+00    2.027769e+01    0.000000e+00
    3.843632e-01    2.326590e+01    0.000000e+00
    4.559110e+00    1.926537e+01    0.000000e+00
    4.326348e-01    2.178162e+01    0.000000e+00
    4.555428e+00    1.824792e+01    0.000000e+00
    4.484680e-01    2.076533e+01    0.000000e+00
    4.560132e+00    1.722907e+01    0.000000e+00
    4.446909e-01    1.975335e+01    0.000000e+00
    4.569624e+00    1.621212e+01    0.000000e+00
    4.265914e-01    1.875016e+01    0.000000e+00
    4.580166e+00    1.518372e+01    0.000000e+00
    4.229160e-01    1.774857e+01    0.000000e+00
    4.704904e+00    1.425911e+01    0.000000e+00
    4.419079e-01    1.674408e+01    0.000000e+00
    4.547811e+00    1.280750e+01    0.000000e+00
    4.527588e-01    1.573075e+01    0.000000e+00
    4.564194e+00    1.178818e+01    0.000000e+00
    4.408090e-01    1.470426e+01    0.000000e+00
    4.561999e+00    1.077888e+01    0.000000e+00
    4.252456e-01    1.331753e+01    0.000000e+00
    4.559130e+00    9.763885e+00    0.000000e+00
    4.499722e-01    1.228185e+01    0.000000e+00
    4.560285e+00    8.746070e+00    0.000000e+00
    4.520975e-01    1.126453e+01    0.000000e+00
    4.562614e+00    7.728821e+00    0.000000e+00
    4.485905e-01    1.025331e+01    0.000000e+00
    4.560547e+00    6.720223e+00    0.000000e+00
    4.552656e-01    9.227005e+00    0.000000e+00
    4.573225e+00    5.701047e+00    0.000000e+00
    4.365312e-01    8.238230e+00    0.000000e+00
    4.637020e+00    4.255592e+00    0.000000e+00
    4.488079e-01    7.240695e+00    0.000000e+00
    4.556107e+00    3.296584e+00    0.000000e+00
    4.429481e-01    6.226673e+00    0.000000e+00
    4.552662e+00    2.281806e+00    0.000000e+00
    3.846459e-01    5.267032e+00    0.000000e+00
    4.542572e+00    1.263956e+00    0.000000e+00
    4.319587e-01    3.783977e+00    0.000000e+00
    4.318744e+00    4.547889e-01    0.000000e+00
    4.427828e-01    2.771053e+00    0.000000e+00
    2.752656e+00    4.482031e-01    0.000000e+00
    4.642018e-01    1.771486e+00    0.000000e+00
    1.745560e+00    4.436157e-01    0.000000e+00
    4.676731e-01    6.758491e-01    0.000000e+00
    1.265564e+01    3.035571e+01    0.000000e+00
    1.329229e+01    3.458439e+01    0.000000e+00
    1.378526e+01    3.034689e+01    0.000000e+00
    1.428434e+01    3.461095e+01    0.000000e+00
    1.482298e+01    3.035827e+01    0.000000e+00
    1.525456e+01    3.460142e+01    0.000000e+00
    1.572197e+01    3.039548e+01    0.000000e+00
    1.624152e+01    3.459653e+01    0.000000e+00
    1.574528e+01    3.460008e+01    0.000000e+00
    1.669895e+01    3.039510e+01    0.000000e+00
    1.724226e+01    3.458888e+01    0.000000e+00
    1.673868e+01    3.459312e+01    0.000000e+00
    3.455463e+01    2.421973e+01    0.000000e+00
    3.454563e+01    2.523656e+01    0.000000e+00
    2.474323e+01    3.457758e+01    0.000000e+00
    2.372841e+01    3.458448e+01    0.000000e+00
    2.273559e+01    3.461600e+01    0.000000e+00
    3.044742e+01    2.725469e+01    0.000000e+00
    3.461441e+01    2.326474e+01    0.000000e+00
    3.045632e+01    6.781479e-01    0.000000e+00
    3.173284e+01    4.721102e-01    0.000000e+00
    3.275380e+01    4.618944e-01    0.000000e+00
    3.431422e+01    4.556159e-01    0.000000e+00
    3.452435e+01    1.266881e+00    0.000000e+00
    3.453632e+01    2.294124e+00    0.000000e+00
    3.043807e+01    6.216504e+00    0.000000e+00
    3.036821e+01    5.253036e+00    0.000000e+00
    3.043624e+01    7.222291e+00    0.000000e+00
    3.455067e+01    6.736665e+00    0.000000e+00
    3.455332e+01    7.754035e+00    0.000000e+00
    3.456776e+01    8.745587e+00    0.000000e+00
    3.043153e+01    1.230777e+01    0.000000e+00
    3.043351e+01    1.128447e+01    0.000000e+00
    3.039825e+01    1.331552e+01    0.000000e+00
    3.457388e+01    1.331692e+01    0.000000e+00
    3.457326e+01    1.418389e+01    0.000000e+00
    3.043961e+01    1.875389e+01    0.000000e+00
    3.044075e+01    1.773754e+01    0.000000e+00
    3.043793e+01    1.977100e+01    0.000000e+00
    3.454470e+01    1.975043e+01    0.000000e+00
    3.455075e+01    2.076541e+01    0.000000e+00
    3.043880e+01    2.521735e+01    0.000000e+00
    3.044267e+01    2.420191e+01    0.000000e+00
    3.044124e+01    2.078239e+01    0.000000e+00
    3.042499e+01    2.180808e+01    0.000000e+00
    3.043843e+01    1.672362e+01    0.000000e+00
    3.043528e+01    1.571316e+01    0.000000e+00
    3.044430e+01    1.469798e+01    0.000000e+00
    3.044051e+01    1.026832e+01    0.000000e+00
    3.044455e+01    9.251640e+00    0.000000e+00
    3.044093e+01    8.234592e+00    0.000000e+00
    3.043033e+01    3.805542e+00    0.000000e+00
    3.044242e+01    2.786372e+00    0.000000e+00
    3.044818e+01    1.765697e+00    0.000000e+00
    3.456684e+01    3.785507e+00    0.000000e+00
    3.445871e+01    4.750459e+00    0.000000e+00
    3.456542e+01    5.718152e+00    0.000000e+00
    3.454489e+01    1.023868e+01    0.000000e+00
    3.454485e+01    1.125962e+01    0.000000e+00
    3.455146e+01    1.228100e+01    0.000000e+00
    3.454914e+01    1.521866e+01    0.000000e+00
    3.454726e+01    1.674844e+01    0.000000e+00
    3.455137e+01    1.774827e+01    0.000000e+00
    3.454813e+01    1.873970e+01    0.000000e+00
    3.456621e+01    2.178111e+01    0.000000e+00
    3.044419e+01    2.623020e+01    0.000000e+00
    3.455017e+01    2.625271e+01    0.000000e+00
    2.574823e+01    3.457660e+01    0.000000e+00
    3.457364e+01    2.725341e+01    0.000000e+00
    3.455722e+01    2.823399e+01    0.000000e+00
    3.454932e+01    2.975948e+01    0.000000e+00
    3.455738e+01    3.078915e+01    0.000000e+00
    3.464122e+01    3.174326e+01    0.000000e+00
    3.175436e+01    3.460791e+01    0.000000e+00
    3.220814e+01    3.459013e+01    0.000000e+00
    2.176185e+01    3.460778e+01    0.000000e+00
    2.076046e+01    3.460516e+01    0.000000e+00
    1.976125e+01    3.460044e+01    0.000000e+00
    1.876162e+01    3.458935e+01    0.000000e+00
    1.775033e+01    3.458769e+01    0.000000e+00
    4.557853e+00    5.170661e+01    0.000000e+00
    2.245646e+00    5.453843e+01    0.000000e+00
    4.551945e+00    5.323449e+01    0.000000e+00
    3.266973e+00    5.452811e+01    0.000000e+00
    4.543674e+00    5.432188e+01    0.000000e+00
    3.035492e+01    2.324123e+01    0.000000e+00
    9.241200e+00    3.457405e+01    0.000000e+00
    1.025169e+01    3.457764e+01    0.000000e+00
    1.126950e+01    3.457694e+01    0.000000e+00
    1.825644e+01    3.458721e+01    0.000000e+00
    1.926379e+01    3.459455e+01    0.000000e+00
    2.026161e+01    3.460417e+01    0.000000e+00
    2.126320e+01    3.460711e+01    0.000000e+00
    2.225586e+01    3.461296e+01    0.000000e+00
    2.674929e+01    3.458109e+01    0.000000e+00
    2.775244e+01    3.457927e+01    0.000000e+00
    2.877005e+01    3.457712e+01    0.000000e+00
    2.978493e+01    3.458210e+01    0.000000e+00
    3.078774e+01    3.458497e+01    0.000000e+00
    1.224868e+00    5.455247e+01    0.000000e+00
    1.737015e+00    5.454969e+01    0.000000e+00
    4.804890e-01    1.231971e+00    0.000000e+00
    4.397347e-01    2.277161e+00    0.000000e+00
    4.411595e-01    3.275798e+00    0.000000e+00
    3.845178e-01    4.233622e+00    0.000000e+00
    5.378865e-01    4.750234e+00    0.000000e+00
    4.317168e-01    5.717927e+00    0.000000e+00
    4.472691e-01    6.733522e+00    0.000000e+00
    4.429610e-01    7.741166e+00    0.000000e+00
    4.357120e-01    8.729375e+00    0.000000e+00
    4.614590e-01    9.735671e+00    0.000000e+00
    4.488445e-01    1.075955e+01    0.000000e+00
    4.545562e-01    1.177212e+01    0.000000e+00
    4.417216e-01    1.279818e+01    0.000000e+00
    3.575665e-01    1.375110e+01    0.000000e+00
    4.238282e-01    1.418364e+01    0.000000e+00
    4.484781e-01    1.521815e+01    0.000000e+00
    4.509178e-01    1.623733e+01    0.000000e+00
    4.317005e-01    1.724729e+01    0.000000e+00
    4.217405e-01    1.824978e+01    0.000000e+00
    4.339365e-01    1.925171e+01    0.000000e+00
    4.486534e-01    2.025829e+01    0.000000e+00
    4.428242e-01    2.127368e+01    0.000000e+00
    3.845058e-01    2.223267e+01    0.000000e+00
    5.379730e-01    2.274879e+01    0.000000e+00
    4.308698e-01    2.371497e+01    0.000000e+00
    4.468031e-01    2.472835e+01    0.000000e+00
    4.502824e-01    2.574107e+01    0.000000e+00
    4.369577e-01    2.674982e+01    0.000000e+00
    4.331115e-01    2.775045e+01    0.000000e+00
    4.479974e-01    2.875288e+01    0.000000e+00
    4.533518e-01    2.976550e+01    0.000000e+00
    4.410987e-01    3.077898e+01    0.000000e+00
    3.839384e-01    3.173402e+01    0.000000e+00
    5.382175e-01    3.225097e+01    0.000000e+00
    4.322741e-01    3.321860e+01    0.000000e+00
    4.471054e-01    3.423399e+01    0.000000e+00
    4.425668e-01    3.524129e+01    0.000000e+00
    4.356637e-01    3.622858e+01    0.000000e+00
    4.617825e-01    3.723532e+01    0.000000e+00
    4.488901e-01    3.825966e+01    0.000000e+00
    4.545194e-01    3.927220e+01    0.000000e+00
    4.416971e-01    4.029819e+01    0.000000e+00
    3.575747e-01    4.125115e+01    0.000000e+00
    4.238355e-01    4.168369e+01    0.000000e+00
    4.484746e-01    4.271815e+01    0.000000e+00
    4.509172e-01    4.373732e+01    0.000000e+00
    4.317004e-01    4.474729e+01    0.000000e+00
    4.217404e-01    4.574978e+01    0.000000e+00
    4.339364e-01    4.675171e+01    0.000000e+00
    4.486532e-01    4.775829e+01    0.000000e+00
    4.428235e-01    4.877368e+01    0.000000e+00
    3.845037e-01    4.973268e+01    0.000000e+00
    5.377772e-01    5.024894e+01    0.000000e+00
    4.293813e-01    5.121543e+01    0.000000e+00
    4.347655e-01    5.222547e+01    0.000000e+00
    4.580971e-01    5.321803e+01    0.000000e+00
    4.204125e-01    5.416524e+01    0.000000e+00
    3.777232e+00    4.457442e-01    0.000000e+00
    3.262851e+00    4.452836e-01    0.000000e+00
    2.246865e+00    4.456207e-01    0.000000e+00
    1.260402e+00    4.297738e-01    0.000000e+00
    8.440198e-01    4.036646e-01    0.000000e+00
    4.568660e+00    2.725383e+01    0.000000e+00
    4.562794e+00    2.623244e+01    0.000000e+00
    4.561898e+00    2.521788e+01    0.000000e+00
    4.558764e+00    2.420623e+01    0.000000e+00
    4.639555e+00    2.325261e+01    0.000000e+00
    4.486526e+00    2.275258e+01    0.000000e+00
    4.568324e+00    2.179734e+01    0.000000e+00
    4.564586e+00    2.077921e+01    0.000000e+00
    4.560607e+00    1.977289e+01    0.000000e+00
    4.554027e+00    1.875721e+01    0.000000e+00
    4.556373e+00    1.773837e+01    0.000000e+00
    4.562136e+00    1.671987e+01    0.000000e+00
    4.576493e+00    1.570169e+01    0.000000e+00
    4.620996e+00    1.467356e+01    0.000000e+00
    4.606539e+00    1.385129e+01    0.000000e+00
    4.551226e+00    1.333841e+01    0.000000e+00
    4.557135e+00    1.229487e+01    0.000000e+00
    4.562519e+00    1.128432e+01    0.000000e+00
    4.559067e+00    1.027211e+01    0.000000e+00
    4.558311e+00    9.255933e+00    0.000000e+00
    4.560338e+00    8.236958e+00    0.000000e+00
    4.561449e+00    7.223796e+00    0.000000e+00
    4.559381e+00    6.213471e+00    0.000000e+00
    4.639342e+00    5.256068e+00    0.000000e+00
    4.489653e+00    4.759904e+00    0.000000e+00
    4.570783e+00    3.811576e+00    0.000000e+00
    4.555305e+00    2.788493e+00    0.000000e+00
    4.541408e+00    1.772449e+00    0.000000e+00
    4.582869e+00    8.331642e-01    0.000000e+00
    2.737764e+01    3.041096e+01    0.000000e+00
    2.625622e+01    3.039448e+01    0.000000e+00
    2.524101e+01    3.039067e+01    0.000000e+00
    2.422801e+01    3.039112e+01    0.000000e+00
    2.313511e+01    3.040596e+01    0.000000e+00
    2.222857e+01    3.040942e+01    0.000000e+00
    2.133949e+01    3.035216e+01    0.000000e+00
    2.018047e+01    3.035813e+01    0.000000e+00
    1.929952e+01    3.038377e+01    0.000000e+00
    1.819017e+01    3.035539e+01    0.000000e+00
    3.046201e+01    1.231630e+00    0.000000e+00
    3.044444e+01    2.279007e+00    0.000000e+00
    3.044453e+01    3.294702e+00    0.000000e+00
    3.036415e+01    4.249299e+00    0.000000e+00
    3.051799e+01    4.750555e+00    0.000000e+00
    3.043244e+01    5.703442e+00    0.000000e+00
    3.043545e+01    6.720796e+00    0.000000e+00
    3.043940e+01    7.727090e+00    0.000000e+00
    3.044601e+01    8.742674e+00    0.000000e+00
    3.044368e+01    9.760165e+00    0.000000e+00
    3.043958e+01    1.077638e+01    0.000000e+00
    3.042989e+01    1.179261e+01    0.000000e+00
    3.041401e+01    1.281693e+01    0.000000e+00
    3.033972e+01    1.373801e+01    0.000000e+00
    3.042754e+01    1.417009e+01    0.000000e+00
    3.043946e+01    1.520899e+01    0.000000e+00
    3.043788e+01    1.621747e+01    0.000000e+00
    3.044142e+01    1.723086e+01    0.000000e+00
    3.044156e+01    1.824504e+01    0.000000e+00
    3.043967e+01    1.926285e+01    0.000000e+00
    3.043987e+01    2.027694e+01    0.000000e+00
    3.044233e+01    2.129244e+01    0.000000e+00
    3.035397e+01    2.225372e+01    0.000000e+00
    3.048794e+01    2.274615e+01    0.000000e+00
    3.042415e+01    2.368407e+01    0.000000e+00
    3.044173e+01    2.471132e+01    0.000000e+00
    3.044203e+01    2.572274e+01    0.000000e+00
    3.044909e+01    2.674031e+01    0.000000e+00
    3.377333e+01    4.473841e-01    0.000000e+00
    3.326194e+01    4.505470e-01    0.000000e+00
    3.224334e+01    4.764235e-01    0.000000e+00
    3.124491e+01    4.419660e-01    0.000000e+00
    3.083224e+01    4.082730e-01    0.000000e+00
    3.457794e+01    3.216896e+01    0.000000e+00
    3.457511e+01    3.131033e+01    0.000000e+00
    3.455111e+01    3.027394e+01    0.000000e+00
    3.455194e+01    2.924853e+01    0.000000e+00
    3.455475e+01    2.873874e+01    0.000000e+00
    3.457557e+01    2.773942e+01    0.000000e+00
    3.455732e+01    2.675774e+01    0.000000e+00
    3.454839e+01    2.574352e+01    0.000000e+00
    3.454763e+01    2.472613e+01    0.000000e+00
    3.456698e+01    2.371353e+01    0.000000e+00
    3.446057e+01    2.274740e+01    0.000000e+00
    3.461536e+01    2.223155e+01    0.000000e+00
    3.455675e+01    2.127368e+01    0.000000e+00
    3.454637e+01    2.025861e+01    0.000000e+00
    3.454613e+01    1.924477e+01    0.000000e+00
    3.455265e+01    1.824232e+01    0.000000e+00
    3.455099e+01    1.725104e+01    0.000000e+00
    3.454419e+01    1.624011e+01    0.000000e+00
    3.454352e+01    1.573003e+01    0.000000e+00
    3.455687e+01    1.470259e+01    0.000000e+00
    3.464185e+01    1.375026e+01    0.000000e+00
    3.455903e+01    1.279762e+01    0.000000e+00
    3.454610e+01    1.177023e+01    0.000000e+00
    3.454257e+01    1.074845e+01    0.000000e+00
    3.455547e+01    9.732458e+00    0.000000e+00
    3.456568e+01    9.235231e+00    0.000000e+00
    3.456428e+01    8.251984e+00    0.000000e+00
    3.454900e+01    7.247597e+00    0.000000e+00
    3.455590e+01    6.227197e+00    0.000000e+00
    3.461430e+01    5.267267e+00    0.000000e+00
    3.461490e+01    4.234231e+00    0.000000e+00
    3.455894e+01    3.283034e+00    0.000000e+00
    3.455176e+01    2.786792e+00    0.000000e+00
    3.451123e+01    1.788128e+00    0.000000e+00
    3.457520e+01    8.342817e-01    0.000000e+00
    3.028590e+01    3.458317e+01    0.000000e+00
    3.128037e+01    3.459370e+01    0.000000e+00
    8.738398e+00    3.457552e+01    0.000000e+00
    9.745360e+00    3.457792e+01    0.000000e+00
    1.075955e+01    3.457892e+01    0.000000e+00
    1.177834e+01    3.457856e+01    0.000000e+00
    1.278703e+01    3.458315e+01    0.000000e+00
    1.379400e+01    3.459387e+01    0.000000e+00
    1.476247e+01    3.460758e+01    0.000000e+00
    2.322526e+01    3.459719e+01    0.000000e+00
    2.423763e+01    3.458058e+01    0.000000e+00
    2.524693e+01    3.457697e+01    0.000000e+00
    2.624924e+01    3.457829e+01    0.000000e+00
    2.724971e+01    3.458354e+01    0.000000e+00
    2.825977e+01    3.457944e+01    0.000000e+00
    2.927890e+01    3.457873e+01    0.000000e+00
    4.537997e+00    5.376844e+01    0.000000e+00
    4.556589e+00    5.272118e+01    0.000000e+00
    4.557383e+00    5.221375e+01    0.000000e+00
    4.573834e+00    5.119604e+01    0.000000e+00
    4.486533e+00    5.025268e+01    0.000000e+00
    4.568376e+00    4.929739e+01    0.000000e+00
    4.564589e+00    4.827922e+01    0.000000e+00
    4.560625e+00    4.727290e+01    0.000000e+00
    4.555092e+00    4.625711e+01    0.000000e+00
    4.553548e+00    4.574811e+01    0.000000e+00
    4.558941e+00    4.472871e+01    0.000000e+00
    4.568804e+00    4.371144e+01    0.000000e+00
    4.579862e+00    4.268352e+01    0.000000e+00
    4.704995e+00    4.175875e+01    0.000000e+00
    4.542404e+00    4.082977e+01    0.000000e+00
    4.544034e+00    4.029935e+01    0.000000e+00
    4.562983e+00    3.928715e+01    0.000000e+00
    4.558360e+00    3.827345e+01    0.000000e+00
    2.756345e+00    5.452396e+01    0.000000e+00
    3.755052e+00    5.455810e+01    0.000000e+00
    4.167753e+00    5.459176e+01    0.000000e+00
    8.246442e+00    3.458577e+01    0.000000e+00
    1.184862e+01    3.039922e+01    0.000000e+00
    1.076975e+01    3.038900e+01    0.000000e+00
    1.692150e+01    3.083890e+01    0.000000e+00
    1.805745e+01    3.080682e+01    0.000000e+00
    1.907304e+01    3.082461e+01    0.000000e+00
    1.594847e+01    3.085816e+01    0.000000e+00
    3.355958e+01    3.383061e+01    0.000000e+00
    1.495645e+01    3.082208e+01    0.000000e+00
    2.004733e+01    3.081584e+01    0.000000e+00
    1.391000e+01    3.079278e+01    0.000000e+00
    2.113321e+01    3.080226e+01    0.000000e+00
    3.234658e+01    3.414320e+01    0.000000e+00
    3.420999e+01    3.236172e+01    0.000000e+00
    4.117460e+00    1.207976e+01    0.000000e+00
    3.087850e+01    1.542701e+01    0.000000e+00
    4.160185e+00    1.540078e+01    0.000000e+00
    3.085445e+01    1.208440e+01    0.000000e+00
    1.283651e+01    3.081714e+01    0.000000e+00
    2.219510e+01    3.092190e+01    0.000000e+00
    3.088740e+01    2.492966e+01    0.000000e+00
    4.116917e+00    2.493120e+01    0.000000e+00
    4.098014e+00    2.573686e+00    0.000000e+00
    3.089551e+01    2.566545e+00    0.000000e+00
    3.087328e+01    6.940701e+00    0.000000e+00
    4.119594e+00    6.947031e+00    0.000000e+00
    4.126720e+00    4.805925e+01    0.000000e+00
    4.126718e+00    2.055925e+01    0.000000e+00
    3.088736e+01    2.055896e+01    0.000000e+00
    4.118947e+00    1.106635e+01    0.000000e+00
    3.088736e+01    1.644411e+01    0.000000e+00
    4.126135e+00    1.642797e+01    0.000000e+00
    3.088443e+01    1.105767e+01    0.000000e+00
    4.077359e+00    5.348272e+01    0.000000e+00
    4.056271e+00    1.526740e+00    0.000000e+00
    3.092230e+01    1.517006e+00    0.000000e+00
    3.089626e+01    2.595425e+01    0.000000e+00
    4.116113e+00    2.595952e+01    0.000000e+00
    2.980608e+01    2.919003e+01    0.000000e+00
    6.695158e+00    3.457739e+01    0.000000e+00
    4.109647e+00    1.954025e+01    0.000000e+00
    3.089044e+01    7.959657e+00    0.000000e+00
    4.112875e+00    7.968276e+00    0.000000e+00
    3.088800e+01    1.953072e+01    0.000000e+00
    4.109676e+00    4.704027e+01    0.000000e+00
    1.490517e+00    8.040806e-01    0.000000e+00
    3.418924e+01    2.155627e+01    0.000000e+00
    3.146093e+01    8.395346e-01    0.000000e+00
    3.419194e+01    3.568652e+00    0.000000e+00
    3.415789e+01    9.962169e+00    0.000000e+00
    3.415976e+01    1.204905e+01    0.000000e+00
    3.415384e+01    1.649057e+01    0.000000e+00
    3.155872e+01    3.420460e+01    0.000000e+00
    8.469585e+00    3.416793e+01    0.000000e+00
    8.972234e+00    3.414670e+01    0.000000e+00
    3.538803e+00    5.416076e+01    0.000000e+00
    1.205977e+01    3.416183e+01    0.000000e+00
    1.800583e+01    3.410630e+01    0.000000e+00
    1.903267e+01    3.411459e+01    0.000000e+00
    2.003156e+01    3.414511e+01    0.000000e+00
    2.103209e+01    3.415401e+01    0.000000e+00
    2.203318e+01    3.416578e+01    0.000000e+00
    1.409691e+01    3.420861e+01    0.000000e+00
    1.597773e+01    3.414148e+01    0.000000e+00
    1.697103e+01    3.411695e+01    0.000000e+00
    1.471011e+00    5.417860e+01    0.000000e+00
    3.530740e+00    8.149790e-01    0.000000e+00
    1.621838e+01    3.039730e+01    0.000000e+00
    1.524183e+01    3.038367e+01    0.000000e+00
    1.412802e+01    3.034371e+01    0.000000e+00
    1.307963e+01    3.035076e+01    0.000000e+00
    1.225583e+01    3.028343e+01    0.000000e+00
    3.352388e+01    8.193593e-01    0.000000e+00
    3.250424e+01    8.593619e-01    0.000000e+00
    3.418263e+01    2.898679e+01    0.000000e+00
    3.419361e+01    2.795699e+01    0.000000e+00
    3.419043e+01    2.702372e+01    0.000000e+00
    3.417251e+01    2.599203e+01    0.000000e+00
    3.415082e+01    2.495961e+01    0.000000e+00
    3.417524e+01    1.848577e+01    0.000000e+00
    3.417938e+01    1.749979e+01    0.000000e+00
    3.414994e+01    1.100940e+01    0.000000e+00
    2.293756e+01    3.421355e+01    0.000000e+00
    2.396811e+01    3.416584e+01    0.000000e+00
    4.105538e+00    5.243287e+01    0.000000e+00
    4.119694e+00    3.957218e+01    0.000000e+00
    4.117127e+00    3.856371e+01    0.000000e+00
    1.307210e+01    3.417119e+01    0.000000e+00
    1.499747e+01    3.415722e+01    0.000000e+00
    2.549711e+01    3.415183e+01    0.000000e+00
    2.448117e+01    3.415821e+01    0.000000e+00
    3.419308e+01    1.311384e+01    0.000000e+00
    3.416138e+01    2.052487e+01    0.000000e+00
    2.650611e+01    3.416276e+01    0.000000e+00
    9.999351e+00    3.416283e+01    0.000000e+00
    1.102499e+01    3.415955e+01    0.000000e+00
    2.749697e+01    3.416945e+01    0.000000e+00
    2.852630e+01    3.415866e+01    0.000000e+00
    2.956324e+01    3.416231e+01    0.000000e+00
    3.056816e+01    3.416880e+01    0.000000e+00
    2.498923e+00    8.187236e-01    0.000000e+00
    3.418534e+01    2.392963e+01    0.000000e+00
    3.415532e+01    1.949820e+01    0.000000e+00
    9.489415e+00    3.415778e+01    0.000000e+00
    1.051318e+01    3.416355e+01    0.000000e+00
    2.499053e+01    3.415274e+01    0.000000e+00
    2.600408e+01    3.415445e+01    0.000000e+00
    2.699947e+01    3.418076e+01    0.000000e+00
    2.801014e+01    3.416407e+01    0.000000e+00
    4.098959e+00    4.600592e+01    0.000000e+00
    4.106253e+00    4.496616e+01    0.000000e+00
    4.126141e+00    4.392795e+01    0.000000e+00
    4.159405e+00    4.290105e+01    0.000000e+00
    2.494676e+00    5.414267e+01    0.000000e+00
    8.003139e+00    3.420586e+01    0.000000e+00
    4.111632e+00    1.004265e+01    0.000000e+00
    3.089495e+01    1.002527e+01    0.000000e+00
    3.088897e+01    1.746728e+01    0.000000e+00
    4.106205e+00    1.746617e+01    0.000000e+00
    3.379398e+01    3.336333e+01    0.000000e+00
    3.090906e+01    2.699066e+01    0.000000e+00
    4.120511e+00    2.699244e+01    0.000000e+00
    4.085987e+00    3.751865e+01    0.000000e+00
    2.318061e+01    3.090228e+01    0.000000e+00
    1.179081e+01    3.089894e+01    0.000000e+00
    5.266563e+00    3.008156e+01    0.000000e+00
    2.977246e+01    3.009529e+01    0.000000e+00
    4.099101e+00    1.850586e+01    0.000000e+00
    3.088959e+01    1.849679e+01    0.000000e+00
    3.090094e+01    8.992679e+00    0.000000e+00
    4.109375e+00    9.005920e+00    0.000000e+00
    2.420554e+01    3.087463e+01    0.000000e+00
    7.592709e+00    3.423946e+01    0.000000e+00
    2.625206e+01    3.087365e+01    0.000000e+00
    2.523166e+01    3.087224e+01    0.000000e+00
    3.090244e+01    2.806329e+01    0.000000e+00
    4.135813e+00    2.804485e+01    0.000000e+00
    1.077353e+01    3.374972e+01    0.000000e+00
    2.826930e+01    3.374002e+01    0.000000e+00
    9.749500e+00    3.374530e+01    0.000000e+00
    2.524156e+01    3.365608e+01    0.000000e+00
    2.722120e+01    3.376378e+01    0.000000e+00
    7.750633e+00    3.383981e+01    0.000000e+00
    8.670514e+00    3.367050e+01    0.000000e+00
    2.627438e+01    3.366592e+01    0.000000e+00
    3.682509e+00    3.935616e+01    0.000000e+00
    3.729578e+00    4.311065e+01    0.000000e+00
    3.678212e+00    1.186307e+01    0.000000e+00
    3.729924e+00    1.561026e+01    0.000000e+00
    3.132427e+01    1.564272e+01    0.000000e+00
    3.129156e+01    1.186958e+01    0.000000e+00
    2.420776e+01    3.366946e+01    0.000000e+00
    3.667434e+00    2.515926e+01    0.000000e+00
    3.136350e+01    2.340113e+00    0.000000e+00
    3.634610e+00    5.265427e+01    0.000000e+00
    3.617468e+00    2.368238e+00    0.000000e+00
    3.374068e+01    1.312995e+01    0.000000e+00
    3.133788e+01    2.515675e+01    0.000000e+00
    3.376001e+01    3.235534e+01    0.000000e+00
    3.374273e+01    3.574199e+00    0.000000e+00
    3.373183e+01    2.390938e+01    0.000000e+00
    3.680542e+00    4.784221e+01    0.000000e+00
    3.680540e+00    2.034220e+01    0.000000e+00
    3.674527e+00    7.178684e+00    0.000000e+00
    3.131946e+01    7.157352e+00    0.000000e+00
    3.134071e+01    2.032585e+01    0.000000e+00
    1.183662e+01    3.367462e+01    0.000000e+00
    2.315312e+01    3.370240e+01    0.000000e+00
    2.935166e+01    3.367036e+01    0.000000e+00
    3.374139e+01    2.155912e+01    0.000000e+00
    3.663856e+00    3.834508e+01    0.000000e+00
    3.667464e+00    1.084638e+01    0.000000e+00
    3.665282e+00    4.414578e+01    0.000000e+00
    3.665280e+00    1.664577e+01    0.000000e+00
    3.135571e+01    1.668768e+01    0.000000e+00
    3.135679e+01    1.081475e+01    0.000000e+00
    3.364521e+01    1.208248e+01    0.000000e+00
    3.662525e+00    2.621703e+01    0.000000e+00
    3.591239e+00    5.370786e+01    0.000000e+00
    3.140774e+01    1.291803e+00    0.000000e+00
    1.856559e+01    3.113559e+01    0.000000e+00
    1.644455e+01    3.115573e+01    0.000000e+00
    3.626973e+00    3.733126e+01    0.000000e+00
    3.136064e+01    2.619795e+01    0.000000e+00
    3.360861e+01    2.492031e+01    0.000000e+00
    1.956949e+01    3.114708e+01    0.000000e+00
    1.544285e+01    3.115779e+01    0.000000e+00
    1.283764e+01    3.369640e+01    0.000000e+00
    2.207308e+01    3.361319e+01    0.000000e+00
    3.034231e+01    3.368254e+01    0.000000e+00
    2.058916e+01    3.111162e+01    0.000000e+00
    1.441464e+01    3.112198e+01    0.000000e+00
    3.647735e+00    1.930050e+01    0.000000e+00
    3.650489e+00    8.224599e+00    0.000000e+00
    3.647749e+00    4.680051e+01    0.000000e+00
    3.135343e+01    8.198565e+00    0.000000e+00
    3.134468e+01    1.926987e+01    0.000000e+00
    3.365126e+01    2.055040e+01    0.000000e+00
    2.166151e+01    3.115068e+01    0.000000e+00
    1.336013e+01    3.112900e+01    0.000000e+00
    3.657500e+00    9.819661e+00    0.000000e+00
    3.642344e+00    4.521234e+01    0.000000e+00
    3.642349e+00    1.771230e+01    0.000000e+00
    3.135610e+01    9.769061e+00    0.000000e+00
    3.134014e+01    1.770867e+01    0.000000e+00
    2.267757e+01    3.118212e+01    0.000000e+00
    1.229518e+01    3.116812e+01    0.000000e+00
    3.362263e+01    1.102137e+01    0.000000e+00
    3.362742e+01    1.649417e+01    0.000000e+00
    3.542284e+00    1.275417e+00    0.000000e+00
    3.139722e+01    2.832342e+01    0.000000e+00
    1.154178e+01    3.414843e+01    0.000000e+00
    3.106789e+01    3.417677e+01    0.000000e+00
    1.549029e+01    3.426955e+01    0.000000e+00
    3.006400e+01    3.416579e+01    0.000000e+00
    1.256243e+01    3.416860e+01    0.000000e+00
    1.358394e+01    3.418133e+01    0.000000e+00
    1.452631e+01    3.429392e+01    0.000000e+00
    2.904654e+01    3.414675e+01    0.000000e+00
    3.665890e+00    2.724439e+01    0.000000e+00
    4.799445e+00    2.987210e+01    0.000000e+00
    5.703373e+00    3.030742e+01    0.000000e+00
    2.105718e+01    3.359624e+01    0.000000e+00
    1.388887e+01    3.371000e+01    0.000000e+00
    3.136103e+01    3.369627e+01    0.000000e+00
    3.372726e+01    2.898727e+01    0.000000e+00
    3.370473e+01    2.597773e+01    0.000000e+00
    2.368342e+01    3.115340e+01    0.000000e+00
    1.128532e+01    3.115409e+01    0.000000e+00
    2.502698e+00    1.286329e+00    0.000000e+00
    3.252744e+01    1.319627e+00    0.000000e+00
    2.466398e+00    5.368183e+01    0.000000e+00
    3.676594e+00    2.776314e+01    0.000000e+00
    3.633135e+00    4.574179e+01    0.000000e+00
    3.633173e+00    1.824173e+01    0.000000e+00
    3.641959e+00    9.290386e+00    0.000000e+00
    3.135169e+01    1.823172e+01    0.000000e+00
    3.136609e+01    9.249554e+00    0.000000e+00
    3.363641e+01    1.950923e+01    0.000000e+00
    3.025494e+01    2.990137e+01    0.000000e+00
    3.360899e+01    9.902526e+00    0.000000e+00
    3.372433e+01    1.749950e+01    0.000000e+00
    3.138629e+01    2.724668e+01    0.000000e+00
    1.481528e+00    1.278529e+00    0.000000e+00
    3.351875e+01    1.279770e+00    0.000000e+00
    1.466709e+00    5.370195e+01    0.000000e+00
    2.005647e+01    3.358619e+01    0.000000e+00
    1.496835e+01    3.361086e+01    0.000000e+00
    3.137568e+01    2.672058e+01    0.000000e+00
    3.365488e+01    2.786417e+01    0.000000e+00
    3.364726e+01    2.710408e+01    0.000000e+00
    3.370124e+01    1.848159e+01    0.000000e+00
    3.134248e+01    1.875351e+01    0.000000e+00
    3.136690e+01    8.722615e+00    0.000000e+00
    3.634640e+00    4.627391e+01    0.000000e+00
    3.634658e+00    1.877387e+01    0.000000e+00
    3.648548e+00    8.754407e+00    0.000000e+00
    3.663923e+00    2.828177e+01    0.000000e+00
    3.670202e+00    2.673197e+01    0.000000e+00
    3.139262e+01    2.778214e+01    0.000000e+00
    2.799826e+01    3.330495e+01    0.000000e+00
    1.052464e+01    3.333862e+01    0.000000e+00
    8.104656e+00    3.336720e+01    0.000000e+00
    3.349691e+01    3.286073e+01    0.000000e+00
    3.674186e+00    3.885542e+01    0.000000e+00
    3.676510e+00    3.984515e+01    0.000000e+00
    3.691963e+00    4.362578e+01    0.000000e+00
    3.674000e+00    1.135743e+01    0.000000e+00
    3.667149e+00    1.236840e+01    0.000000e+00
    3.692043e+00    1.612568e+01    0.000000e+00
    3.135212e+01    1.615663e+01    0.000000e+00
    3.131997e+01    1.515038e+01    0.000000e+00
    3.133857e+01    1.134560e+01    0.000000e+00
    2.367319e+01    3.335817e+01    0.000000e+00
    3.649307e+00    2.568850e+01    0.000000e+00
    3.614912e+00    5.318083e+01    0.000000e+00
    3.645447e+00    2.870633e+00    0.000000e+00
    3.561088e+00    1.834302e+00    0.000000e+00
    3.138205e+01    1.815416e+00    0.000000e+00
    3.346775e+01    1.264927e+01    0.000000e+00
    3.348240e+01    3.112790e+00    0.000000e+00
    3.704917e+00    4.833293e+01    0.000000e+00
    3.651859e+00    4.732676e+01    0.000000e+00
    3.704915e+00    2.083293e+01    0.000000e+00
    3.651849e+00    1.982675e+01    0.000000e+00
    3.647363e+00    7.695523e+00    0.000000e+00
    3.129501e+01    6.667011e+00    0.000000e+00
    3.134837e+01    7.672523e+00    0.000000e+00
    3.135787e+01    1.979716e+01    0.000000e+00
    3.134278e+01    2.465148e+01    0.000000e+00
    3.135763e+01    2.567556e+01    0.000000e+00
    2.685315e+01    3.333485e+01    0.000000e+00
    2.575814e+01    3.333306e+01    0.000000e+00
    3.651750e+00    3.783068e+01    0.000000e+00
    2.985286e+01    3.336236e+01    0.000000e+00
    2.260984e+01    3.336172e+01    0.000000e+00
    3.343930e+01    2.433922e+01    0.000000e+00
    1.233218e+01    3.338029e+01    0.000000e+00
    3.347294e+01    2.109745e+01    0.000000e+00
    9.508384e+00    3.332241e+01    0.000000e+00
    3.663925e+00    1.033369e+01    0.000000e+00
    3.639254e+00    4.467570e+01    0.000000e+00
    3.639257e+00    1.717569e+01    0.000000e+00
    3.134157e+01    1.720534e+01    0.000000e+00
    3.136408e+01    1.028640e+01    0.000000e+00
    3.589239e+00    3.688411e+01    0.000000e+00
    3.343443e+01    1.156279e+01    0.000000e+00
    3.296074e+00    2.800625e+01    0.000000e+00
    1.806732e+01    3.139237e+01    0.000000e+00
    1.694111e+01    3.138507e+01    0.000000e+00
    1.907853e+01    3.142531e+01    0.000000e+00
    1.595021e+01    3.142066e+01    0.000000e+00
    3.086111e+01    3.334526e+01    0.000000e+00
    1.335861e+01    3.338649e+01    0.000000e+00
    2.157631e+01    3.332925e+01    0.000000e+00
    2.007616e+01    3.139883e+01    0.000000e+00
    1.492716e+01    3.141383e+01    0.000000e+00
    4.753046e+00    2.933091e+01    0.000000e+00
    4.908486e+00    3.030987e+01    0.000000e+00
    3.344861e+01    2.004267e+01    0.000000e+00
    2.111814e+01    3.139521e+01    0.000000e+00
    1.387878e+01    3.141071e+01    0.000000e+00
    3.342326e+01    2.547528e+01    0.000000e+00
    2.216073e+01    3.143476e+01    0.000000e+00
    1.282026e+01    3.143074e+01    0.000000e+00
    3.345173e+01    1.703346e+01    0.000000e+00
    3.338982e+01    1.048393e+01    0.000000e+00
    3.188025e+01    3.336916e+01    0.000000e+00
    3.026889e+00    1.569012e+00    0.000000e+00
    3.238836e+00    2.697735e+01    0.000000e+00
    1.443321e+01    3.336967e+01    0.000000e+00
    2.056296e+01    3.331937e+01    0.000000e+00
    2.316834e+01    3.143860e+01    0.000000e+00
    1.178598e+01    3.144884e+01    0.000000e+00
    1.992471e+00    1.564164e+00    0.000000e+00
    3.301052e+01    1.572003e+00    0.000000e+00
    1.979720e+00    5.341912e+01    0.000000e+00
    3.342077e+01    1.897573e+01    0.000000e+00
    3.343791e+01    2.848952e+01    0.000000e+00
    3.355391e+01    9.361196e+00    0.000000e+00
    3.344482e+01    1.797729e+01    0.000000e+00
    3.341165e+01    2.647325e+01    0.000000e+00
    9.681408e-01    1.531297e+00    0.000000e+00
    3.401387e+01    1.540658e+00    0.000000e+00
    9.526373e-01    5.344559e+01    0.000000e+00
    1.546214e+01    3.333111e+01    0.000000e+00
    1.957724e+01    3.330479e+01    0.000000e+00
    3.635700e+00    2.881603e+01    0.000000e+00
    3.180501e+00    9.035032e+00    0.000000e+00
    3.179058e+01    1.850161e+01    0.000000e+00
    3.031704e+01    2.932921e+01    0.000000e+00
    1.078661e+01    3.086703e+01    0.000000e+00
    2.418214e+01    3.144908e+01    0.000000e+00
    2.733133e+01    3.098554e+01    0.000000e+00
    3.323919e+01    3.337367e+01    0.000000e+00
    4.592304e+00    3.577469e+01    0.000000e+00
    4.484327e+00    2.891135e+01    0.000000e+00
    3.051765e+01    2.885943e+01    0.000000e+00
    4.436834e+00    3.627433e+01    0.000000e+00
    2.932427e+01    3.032927e+01    0.000000e+00
    2.471930e+01    3.332208e+01    0.000000e+00
    3.139806e+01    2.886728e+01    0.000000e+00
    2.471264e+01    3.116123e+01    0.000000e+00
    3.188155e+01    2.804013e+01    0.000000e+00
    7.447644e+00    3.338890e+01    0.000000e+00
    1.101770e+01    3.334411e+01    0.000000e+00
    2.852666e+01    3.330694e+01    0.000000e+00
    2.574113e+01    3.114380e+01    0.000000e+00
    2.674200e+01    3.116186e+01    0.000000e+00
    3.186025e+01    2.697250e+01    0.000000e+00
    3.418988e+01    1.438627e+01    0.000000e+00
    8.049067e-01    1.438800e+01    0.000000e+00
    8.074086e-01    1.311474e+01    0.000000e+00
    8.049102e-01    4.188805e+01    0.000000e+00
    8.073815e-01    4.061481e+01    0.000000e+00
    3.419286e+01    3.110049e+01    0.000000e+00
    8.117371e-01    3.559116e+00    0.000000e+00
    8.013521e-01    5.143765e+01    0.000000e+00
    8.071474e-01    2.393539e+01    0.000000e+00
    8.072090e-01    3.106471e+01    0.000000e+00
    3.418753e+01    5.943783e+00    0.000000e+00
    8.096586e-01    3.344371e+01    0.000000e+00
    8.101892e-01    2.155680e+01    0.000000e+00
    8.101868e-01    4.905680e+01    0.000000e+00
    8.090909e-01    5.942300e+00    0.000000e+00
    3.415216e+01    1.545077e+01    0.000000e+00
    8.417780e-01    4.295171e+01    0.000000e+00
    8.452194e-01    3.955123e+01    0.000000e+00
    8.417825e-01    1.545171e+01    0.000000e+00
    8.452939e-01    1.205107e+01    0.000000e+00
    2.271188e+01    3.030106e+01    0.000000e+00
    3.416320e+01    3.002927e+01    0.000000e+00
    3.417005e+01    2.583766e+00    0.000000e+00
    8.349431e-01    2.496359e+01    0.000000e+00
    8.386877e-01    3.003758e+01    0.000000e+00
    8.182691e-01    2.536146e+00    0.000000e+00
    8.001162e-01    5.245231e+01    0.000000e+00
    5.654175e+00    3.463401e+01    0.000000e+00
    3.134132e+01    2.083395e+01    0.000000e+00
    3.685446e+00    6.693721e+00    0.000000e+00
    6.587958e+00    3.088472e+01    0.000000e+00
    2.830671e+01    3.080100e+01    0.000000e+00
    3.415920e+01    6.987641e+00    0.000000e+00
    8.330131e-01    6.973471e+00    0.000000e+00
    8.321335e-01    3.447491e+01    0.000000e+00
    8.358094e-01    2.052232e+01    0.000000e+00
    8.358089e-01    4.802232e+01    0.000000e+00
    6.146160e+00    3.432800e+01    0.000000e+00
    8.339868e-01    4.398425e+01    0.000000e+00
    8.339874e-01    1.648425e+01    0.000000e+00
    8.385291e-01    3.852261e+01    0.000000e+00
    8.385109e-01    1.102227e+01    0.000000e+00
    8.325977e-01    2.598576e+01    0.000000e+00
    8.434035e-01    2.900982e+01    0.000000e+00
    3.135001e+01    2.851680e+00    0.000000e+00
    3.655308e+00    5.214336e+01    0.000000e+00
    3.670661e+00    2.465359e+01    0.000000e+00
    1.596274e+01    3.359400e+01    0.000000e+00
    5.703022e+00    3.073735e+01    0.000000e+00
    3.419009e+01    8.010787e+00    0.000000e+00
    8.053775e-01    7.978212e+00    0.000000e+00
    8.060614e-01    1.950470e+01    0.000000e+00
    8.033871e-01    3.547736e+01    0.000000e+00
    8.060613e-01    4.700470e+01    0.000000e+00
    4.454111e+00    3.025486e+01    0.000000e+00
    3.319421e+01    1.748803e+01    0.000000e+00
    3.308348e+01    1.847731e+01    0.000000e+00
    3.906322e+00    3.646387e+01    0.000000e+00
    4.771038e+00    3.078642e+01    0.000000e+00
    1.262179e+00    4.063171e+01    0.000000e+00
    3.373426e+01    1.436828e+01    0.000000e+00
    1.258365e+00    4.187199e+01    0.000000e+00
    1.258253e+00    1.437165e+01    0.000000e+00
    1.262072e+00    1.313141e+01    0.000000e+00
    1.256038e+00    3.107232e+01    0.000000e+00
    1.269180e+00    3.562840e+00    0.000000e+00
    1.248196e+00    5.143443e+01    0.000000e+00
    1.256244e+00    2.392735e+01    0.000000e+00
    3.373637e+01    3.111455e+01    0.000000e+00
    3.318912e+00    3.962353e+01    0.000000e+00
    3.306960e+00    1.213977e+01    0.000000e+00
    3.168546e+01    1.536782e+01    0.000000e+00
    4.076244e+00    2.909122e+01    0.000000e+00
    3.373586e+01    5.940814e+00    0.000000e+00
    1.260121e+00    5.933329e+00    0.000000e+00
    1.261492e+00    4.905988e+01    0.000000e+00
    1.261495e+00    2.155988e+01    0.000000e+00
    1.258323e+00    3.344139e+01    0.000000e+00
    3.295966e+00    2.489235e+01    0.000000e+00
    3.253110e+00    2.670578e+00    0.000000e+00
    3.264228e+00    5.236317e+01    0.000000e+00
    3.173831e+01    2.621534e+00    0.000000e+00
    1.373042e+00    3.958268e+01    0.000000e+00
    3.362197e+01    1.541765e+01    0.000000e+00
    1.369037e+00    4.292114e+01    0.000000e+00
    1.369045e+00    1.542114e+01    0.000000e+00
    1.373002e+00    1.208226e+01    0.000000e+00
    3.171592e+01    2.489290e+01    0.000000e+00
    3.328259e+00    4.811889e+01    0.000000e+00
    3.328257e+00    2.061888e+01    0.000000e+00
    3.322102e+00    6.928757e+00    0.000000e+00
    3.167143e+01    6.880487e+00    0.000000e+00
    3.171942e+01    2.059255e+01    0.000000e+00
    1.356351e+00    3.007462e+01    0.000000e+00
    1.336477e+00    2.507747e+00    0.000000e+00
    3.373164e+01    2.643299e+00    0.000000e+00
    1.294134e+00    5.245469e+01    0.000000e+00
    1.346718e+00    2.493287e+01    0.000000e+00
    3.090307e+01    2.913791e+01    0.000000e+00
    3.364603e+01    3.004716e+01    0.000000e+00
    3.642156e+00    4.032959e+01    0.000000e+00
    3.643683e+00    1.288792e+01    0.000000e+00
    3.134371e+01    1.466029e+01    0.000000e+00
    3.669050e+00    2.414756e+01    0.000000e+00
    3.664658e+00    5.163901e+01    0.000000e+00
    3.647150e+00    3.380152e+00    0.000000e+00
    3.135269e+01    3.362506e+00    0.000000e+00
    3.135519e+01    2.412964e+01    0.000000e+00
    3.362438e+01    6.980747e+00    0.000000e+00
    1.350497e+00    6.949173e+00    0.000000e+00
    1.360438e+00    4.803605e+01    0.000000e+00
    1.360439e+00    2.053605e+01    0.000000e+00
    1.343079e+00    3.445654e+01    0.000000e+00
    3.738925e+00    4.877493e+01    0.000000e+00
    3.738913e+00    2.127491e+01    0.000000e+00
    3.659761e+00    6.194410e+00    0.000000e+00
    3.126120e+01    6.225680e+00    0.000000e+00
    3.135132e+01    2.135354e+01    0.000000e+00
    7.179122e+00    3.029701e+01    0.000000e+00
    1.356476e+00    3.852816e+01    0.000000e+00
    1.359148e+00    1.648746e+01    0.000000e+00
    1.359147e+00    4.398746e+01    0.000000e+00
    1.356326e+00    1.102707e+01    0.000000e+00
    2.745506e+01    3.331932e+01    0.000000e+00
    1.001589e+01    3.333128e+01    0.000000e+00
    2.315234e+01    3.198131e+01    0.000000e+00
    2.418373e+01    3.306021e+01    0.000000e+00
    3.321885e+01    1.314789e+01    0.000000e+00
    3.322286e+01    3.587011e+00    0.000000e+00
    2.314399e+01    3.309263e+01    0.000000e+00
    2.937681e+01    3.309653e+01    0.000000e+00
    1.183635e+01    3.312057e+01    0.000000e+00
    3.322692e+01    2.157011e+01    0.000000e+00
    3.320003e+01    1.193038e+01    0.000000e+00
    1.768713e+01    3.111608e+01    0.000000e+00
    3.236690e+01    3.363900e+01    0.000000e+00
    3.138427e+01    3.307946e+01    0.000000e+00
    3.035270e+01    3.307099e+01    0.000000e+00
    2.210091e+01    3.306750e+01    0.000000e+00
    1.283397e+01    3.312329e+01    0.000000e+00
    3.321329e+01    2.040179e+01    0.000000e+00
    9.061589e+00    3.332800e+01    0.000000e+00
    3.318144e+01    1.668545e+01    0.000000e+00
    3.315341e+01    1.086963e+01    0.000000e+00
    3.322522e+01    2.387151e+01    0.000000e+00
    1.388501e+01    3.311652e+01    0.000000e+00
    2.107638e+01    3.305170e+01    0.000000e+00
    3.251116e+01    1.846145e+00    0.000000e+00
    2.501625e+00    1.854223e+00    0.000000e+00
    2.472579e+00    5.314982e+01    0.000000e+00
    3.378165e+01    8.966505e+00    0.000000e+00
    1.483263e+00    1.908064e+00    0.000000e+00
    1.494456e+01    3.307669e+01    0.000000e+00
    2.007371e+01    3.304464e+01    0.000000e+00
    1.908368e+01    3.354922e+01    0.000000e+00
    1.379189e+00    2.900330e+01    0.000000e+00
    1.347433e+00    2.596951e+01    0.000000e+00
    3.314032e+01    2.509588e+01    0.000000e+00
    3.231127e+01    2.669740e+01    0.000000e+00
    1.030104e+01    3.114905e+01    0.000000e+00
    3.235154e+01    2.829974e+01    0.000000e+00
    3.373168e+01    8.035357e+00    0.000000e+00
    1.261787e+00    7.969880e+00    0.000000e+00
    1.262758e+00    1.949367e+01    0.000000e+00
    1.262758e+00    4.699367e+01    0.000000e+00
    1.246952e+00    3.546645e+01    0.000000e+00
    6.028677e+00    3.113665e+01    0.000000e+00
    2.213780e+01    3.196971e+01    0.000000e+00
    2.624342e+01    3.142260e+01    0.000000e+00
    2.523251e+01    3.144165e+01    0.000000e+00
    2.858159e+01    3.118610e+01    0.000000e+00
    2.110410e+01    3.195267e+01    0.000000e+00
    5.366535e+00    3.110437e+01    0.000000e+00
    2.795820e+01    3.121553e+01    0.000000e+00
    6.980542e+00    3.114799e+01    0.000000e+00
    3.223961e+01    1.833546e+01    0.000000e+00
    2.683139e+00    9.262314e+00    0.000000e+00
    2.859199e+00    2.713601e+01    0.000000e+00
    3.322081e+01    3.234748e+01    0.000000e+00
    2.008353e+01    3.195617e+01    0.000000e+00
    3.236695e+01    2.776151e+01    0.000000e+00
    3.226884e+00    5.342357e+01    0.000000e+00
    3.176844e+01    1.572890e+00    0.000000e+00
    1.647653e+01    3.425691e+01    0.000000e+00
    2.844793e+00    2.798399e+01    0.000000e+00
    6.746640e+00    3.344289e+01    0.000000e+00
    5.161571e+00    3.437992e+01    0.000000e+00
    1.079405e+01    3.143336e+01    0.000000e+00
    3.235316e+01    2.722603e+01    0.000000e+00
    1.911390e+01    3.197987e+01    0.000000e+00
    3.180949e+01    1.000964e+01    0.000000e+00
    3.178641e+00    1.743439e+01    0.000000e+00
    3.178643e+00    4.493440e+01    0.000000e+00
    1.476124e+00    5.306158e+01    0.000000e+00
    3.349986e+01    1.831062e+00    0.000000e+00
    3.182147e+01    1.950701e+01    0.000000e+00
    3.168075e+00    7.972900e+00    0.000000e+00
    3.015425e+01    3.032378e+01    0.000000e+00
    3.186327e+00    2.598232e+01    0.000000e+00
    3.180027e+01    1.109394e+01    0.000000e+00
    3.284756e+00    1.634395e+01    0.000000e+00
    3.284730e+00    4.384402e+01    0.000000e+00
    1.597327e+01    3.306640e+01    0.000000e+00
    1.698938e+01    3.192171e+01    0.000000e+00
    1.800720e+01    3.193618e+01    0.000000e+00
    2.711258e+01    3.143871e+01    0.000000e+00
    1.644379e+01    3.334298e+01    0.000000e+00
    2.897822e+01    3.332977e+01    0.000000e+00
    1.145081e+01    3.335345e+01    0.000000e+00
    6.580139e+00    3.402483e+01    0.000000e+00
    3.183031e+00    2.910094e+01    0.000000e+00
    3.257636e+00    3.648877e+01    0.000000e+00
    3.314765e+01    2.594068e+01    0.000000e+00
    3.182509e+01    1.640821e+01    0.000000e+00
    3.278505e+00    1.113484e+01    0.000000e+00
    3.277960e+00    3.863462e+01    0.000000e+00
    3.181232e+01    2.593568e+01    0.000000e+00
    3.275796e+01    3.338485e+01    0.000000e+00
    3.180907e+01    7.919971e+00    0.000000e+00
    3.196481e+00    1.957726e+01    0.000000e+00
    3.196486e+00    4.707727e+01    0.000000e+00
    5.654764e+00    3.408091e+01    0.000000e+00
    3.171397e+01    1.745364e+01    0.000000e+00
    3.284534e+00    1.011264e+01    0.000000e+00
    3.276090e+00    3.761760e+01    0.000000e+00
    3.267767e+01    1.108078e+01    0.000000e+00
    3.272492e+01    1.654391e+01    0.000000e+00
    3.278242e+01    2.059317e+01    0.000000e+00
    3.270467e+01    2.498181e+01    0.000000e+00
    3.264447e+01    1.826085e+01    0.000000e+00
    3.138941e+01    2.941359e+01    0.000000e+00
    3.276911e+01    1.213651e+01    0.000000e+00
    8.667958e+00    3.310336e+01    0.000000e+00
    3.060013e+01    3.027928e+01    0.000000e+00
    3.032599e+01    3.077948e+01    0.000000e+00
    3.267933e+01    1.746544e+01    0.000000e+00
    2.470509e+00    5.263943e+01    0.000000e+00
    3.246413e+01    2.298459e+00    0.000000e+00
    3.271623e+01    2.157731e+01    0.000000e+00
    3.271376e+01    2.694215e+01    0.000000e+00
    3.273674e+01    2.387418e+01    0.000000e+00
    3.270532e+01    3.600117e+00    0.000000e+00
    3.270831e+01    1.315092e+01    0.000000e+00
    3.349440e+01    3.194672e+01    0.000000e+00
    3.276166e+01    3.231563e+01    0.000000e+00
    2.726314e+01    3.190219e+01    0.000000e+00
    3.273896e+01    2.803194e+01    0.000000e+00
    3.596911e+00    3.598380e+01    0.000000e+00
    4.331579e+00    3.670873e+01    0.000000e+00
    4.379515e+00    2.924488e+01    0.000000e+00
    3.195675e+01    3.428551e+01    0.000000e+00
    1.548213e+00    4.015109e+01    0.000000e+00
    3.344753e+01    1.484658e+01    0.000000e+00
    1.542027e+00    4.235083e+01    0.000000e+00
    1.542028e+00    1.485040e+01    0.000000e+00
    1.546525e+00    1.265114e+01    0.000000e+00
    1.529075e+00    3.062032e+01    0.000000e+00
    1.566674e+00    3.079166e+00    0.000000e+00
    1.507090e+00    5.190867e+01    0.000000e+00
    1.527929e+00    2.438567e+01    0.000000e+00
    3.345569e+01    3.062782e+01    0.000000e+00
    3.345337e+01    6.409667e+00    0.000000e+00
    1.539044e+00    6.390450e+00    0.000000e+00
    1.541140e+00    4.859499e+01    0.000000e+00
    1.541142e+00    2.109499e+01    0.000000e+00
    1.527070e+00    3.390714e+01    0.000000e+00
    1.588588e+00    3.904943e+01    0.000000e+00
    3.339816e+01    1.595533e+01    0.000000e+00
    1.591250e+00    4.345709e+01    0.000000e+00
    1.591253e+00    1.595709e+01    0.000000e+00
    1.588429e+00    1.154838e+01    0.000000e+00
    4.668131e+00    3.412578e+01    0.000000e+00
    1.588329e+00    2.956243e+01    0.000000e+00
    1.546627e+00    2.543810e+01    0.000000e+00
    4.063818e+00    4.060333e+01    0.000000e+00
    4.087198e+00    1.313216e+01    0.000000e+00
    3.090753e+01    1.437908e+01    0.000000e+00
    3.345861e+01    2.948743e+01    0.000000e+00
    4.118517e+00    2.390338e+01    0.000000e+00
    4.105974e+00    3.614139e+00    0.000000e+00
    4.117218e+00    5.140172e+01    0.000000e+00
    3.089478e+01    3.602373e+00    0.000000e+00
    3.336660e+01    7.580549e+00    0.000000e+00
    1.548776e+00    7.482394e+00    0.000000e+00
    1.570031e+00    4.747612e+01    0.000000e+00
    1.570031e+00    1.997612e+01    0.000000e+00
    1.527486e+00    3.498863e+01    0.000000e+00
    4.105752e+00    4.906320e+01    0.000000e+00
    4.105705e+00    2.156315e+01    0.000000e+00
    4.113240e+00    5.921396e+00    0.000000e+00
    3.089507e+01    5.938067e+00    0.000000e+00
    3.088914e+01    2.160571e+01    0.000000e+00
    3.088992e+01    2.388080e+01    0.000000e+00
    1.549667e+00    3.799933e+01    0.000000e+00
    1.543533e+00    4.453992e+01    0.000000e+00
    1.543533e+00    1.703992e+01    0.000000e+00
    1.548589e+00    1.049814e+01    0.000000e+00
    3.349065e+01    1.354524e+01    0.000000e+00
    3.349103e+01    3.974268e+00    0.000000e+00
    3.349380e+01    2.196358e+01    0.000000e+00
    3.321852e+01    2.075130e+01    0.000000e+00
    3.316742e+01    1.122533e+01    0.000000e+00
    1.851552e+01    3.422756e+01    0.000000e+00
    3.214334e+01    1.580617e+00    0.000000e+00
    2.848561e+00    5.341541e+01    0.000000e+00
    3.328186e+01    8.982030e+00    0.000000e+00
    1.542150e+00    2.844017e+01    0.000000e+00
    1.910443e+01    3.302452e+01    0.000000e+00
    1.539068e+00    2.650216e+01    0.000000e+00
    3.317920e+01    1.936630e+01    0.000000e+00
    5.654853e+00    3.353993e+01    0.000000e+00
    3.349165e+01    2.350671e+01    0.000000e+00
    3.351293e+01    8.520449e+00    0.000000e+00
    1.484145e+00    8.457854e+00    0.000000e+00
    1.498728e+00    1.898616e+01    0.000000e+00
    1.498728e+00    4.648616e+01    0.000000e+00
    1.471620e+00    3.594929e+01    0.000000e+00
    9.807620e+00    3.088102e+01    0.000000e+00
    2.914343e+01    3.114796e+01    0.000000e+00
    1.597986e+01    3.252005e+01    0.000000e+00
    7.429775e+00    3.106800e+01    0.000000e+00
    6.586352e+00    3.141653e+01    0.000000e+00
    2.614300e+00    2.749912e+01    0.000000e+00
    2.554362e+00    9.759439e+00    0.000000e+00
    3.241726e+01    1.789524e+01    0.000000e+00
    1.079420e+01    3.199582e+01    0.000000e+00
    3.235780e+01    3.310638e+01    0.000000e+00
    1.649155e+01    3.222879e+01    0.000000e+00
    1.837452e+01    3.222977e+01    0.000000e+00
    3.908197e+00    3.021302e+01    0.000000e+00
    2.749637e+01    3.146125e+01    0.000000e+00
    3.226476e+01    2.618119e+01    0.000000e+00
    1.690823e+01    3.357391e+01    0.000000e+00
    2.717166e+00    2.891767e+01    0.000000e+00
    3.651332e+00    2.935595e+01    0.000000e+00
    2.624770e+01    3.196056e+01    0.000000e+00
    3.262257e+01    2.585108e+01    0.000000e+00
    2.697209e+00    3.675563e+01    0.000000e+00
    2.731395e+00    3.868541e+01    0.000000e+00
    2.831097e+00    3.765446e+01    0.000000e+00
    3.306928e+01    2.466426e+01    0.000000e+00
    2.526575e+01    3.198310e+01    0.000000e+00
    3.322261e+01    2.673509e+00    0.000000e+00
    3.234800e+01    2.885510e+01    0.000000e+00
    1.959468e+01    3.223599e+01    0.000000e+00
    2.058723e+01    3.222809e+01    0.000000e+00
    2.161370e+01    3.223539e+01    0.000000e+00
    2.264042e+01    3.225048e+01    0.000000e+00
    2.831501e+00    1.015067e+01    0.000000e+00
    2.692078e+00    1.723496e+01    0.000000e+00
    2.692081e+00    4.473495e+01    0.000000e+00
    3.216148e+01    1.745505e+01    0.000000e+00
    3.225548e+01    1.016560e+01    0.000000e+00
    2.725729e+00    4.728040e+01    0.000000e+00
    2.725727e+00    1.978040e+01    0.000000e+00
    2.769421e+00    7.761933e+00    0.000000e+00
    3.228472e+01    7.707361e+00    0.000000e+00
    3.224604e+01    1.969806e+01    0.000000e+00
    2.758878e+00    2.579030e+01    0.000000e+00
    2.745349e+00    4.378670e+01    0.000000e+00
    2.745361e+00    1.628665e+01    0.000000e+00
    2.730884e+00    1.118453e+01    0.000000e+00
    3.230317e+01    1.618018e+01    0.000000e+00
    3.218868e+01    1.128018e+01    0.000000e+00
    3.302818e+01    1.008708e+01    0.000000e+00
    2.364757e+01    3.225426e+01    0.000000e+00
    1.683658e+01    3.317132e+01    0.000000e+00
    3.218106e+01    2.490434e+01    0.000000e+00
    3.213979e+01    1.873817e+01    0.000000e+00
    2.793400e+00    8.791103e+00    0.000000e+00
    9.815731e+00    3.144796e+01    0.000000e+00
    2.883555e+00    2.677472e+01    0.000000e+00
    3.218790e+01    2.665439e+00    0.000000e+00
    2.810239e+00    2.741419e+00    0.000000e+00
    2.823633e+00    5.229781e+01    0.000000e+00
    2.824995e+00    2.488394e+01    0.000000e+00
    3.219116e+01    2.059900e+01    0.000000e+00
    3.212458e+01    6.856826e+00    0.000000e+00
    2.869863e+00    6.894973e+00    0.000000e+00
    2.873310e+00    2.064152e+01    0.000000e+00
    2.873310e+00    4.814153e+01    0.000000e+00
    1.750694e+01    3.218990e+01    0.000000e+00
    7.756867e+00    3.293658e+01    0.000000e+00
    4.654680e+00    3.468792e+01    0.000000e+00
    1.725872e+01    3.323415e+01    0.000000e+00
    2.429200e+00    2.694792e+01    0.000000e+00
    2.685737e+00    2.633400e+01    0.000000e+00
    2.317651e+00    8.884319e+00    0.000000e+00
    2.600874e+00    8.288122e+00    0.000000e+00
    3.231418e+01    1.917883e+01    0.000000e+00
    2.444103e+00    2.391479e+00    0.000000e+00
    2.320831e+00    2.795933e+01    0.000000e+00
    3.275235e+01    1.959736e+01    0.000000e+00
    4.161603e+00    3.441728e+01    0.000000e+00
    1.911606e+01    3.250015e+01    0.000000e+00
    3.243375e+01    1.701483e+01    0.000000e+00
    3.242526e+01    1.058429e+01    0.000000e+00
    3.246990e+01    2.010962e+01    0.000000e+00
    3.243245e+01    1.165394e+01    0.000000e+00
    2.064670e+00    5.242614e+01    0.000000e+00
    3.245335e+01    2.109657e+01    0.000000e+00
    3.241123e+01    2.538350e+01    0.000000e+00
    3.243263e+01    3.140072e+00    0.000000e+00
    3.253880e+01    2.441817e+01    0.000000e+00
    3.236697e+01    3.257323e+01    0.000000e+00
    3.245874e+01    1.266004e+01    0.000000e+00
    3.219305e+01    2.574551e+01    0.000000e+00
    2.974327e+01    3.112052e+01    0.000000e+00
    2.674940e+01    3.221618e+01    0.000000e+00
    1.795656e+00    4.065226e+01    0.000000e+00
    3.320103e+01    1.434557e+01    0.000000e+00
    1.786667e+00    4.185136e+01    0.000000e+00
    1.785904e+00    1.434873e+01    0.000000e+00
    1.788954e+00    1.315105e+01    0.000000e+00
    1.777919e+00    3.108802e+01    0.000000e+00
    1.797754e+00    3.586406e+00    0.000000e+00
    1.776356e+00    5.141921e+01    0.000000e+00
    1.777012e+00    2.390489e+01    0.000000e+00
    3.320119e+01    3.114309e+01    0.000000e+00
    3.320935e+01    5.921551e+00    0.000000e+00
    1.784692e+00    5.897782e+00    0.000000e+00
    1.786336e+00    4.907835e+01    0.000000e+00
    1.786337e+00    2.157838e+01    0.000000e+00
    1.777835e+00    3.343301e+01    0.000000e+00
    1.846264e+00    3.941843e+01    0.000000e+00
    3.314544e+01    1.557568e+01    0.000000e+00
    1.846249e+00    4.308191e+01    0.000000e+00
    1.846256e+00    1.558192e+01    0.000000e+00
    1.845747e+00    1.191812e+01    0.000000e+00
    1.812441e+00    2.994187e+01    0.000000e+00
    1.787520e+00    2.508029e+01    0.000000e+00
    3.510147e+00    4.085914e+01    0.000000e+00
    3.614611e+00    1.342406e+01    0.000000e+00
    3.146473e+01    1.411895e+01    0.000000e+00
    3.673156e+00    2.363535e+01    0.000000e+00
    3.672037e+00    5.113103e+01    0.000000e+00
    3.634263e+00    3.911213e+00    0.000000e+00
    3.136495e+01    3.882664e+00    0.000000e+00
    3.313515e+01    7.144660e+00    0.000000e+00
    1.807301e+00    7.099254e+00    0.000000e+00
    1.841216e+00    4.786544e+01    0.000000e+00
    1.841217e+00    2.036545e+01    0.000000e+00
    3.523663e+00    4.928328e+01    0.000000e+00
    3.523586e+00    2.178332e+01    0.000000e+00
    3.642504e+00    5.660658e+00    0.000000e+00
    3.147640e+01    5.722407e+00    0.000000e+00
    3.136543e+01    2.190755e+01    0.000000e+00
    1.787171e+00    3.834875e+01    0.000000e+00
    1.307286e+00    3.751408e+01    0.000000e+00
    1.786677e+00    3.461848e+01    0.000000e+00
    1.814934e+00    4.418154e+01    0.000000e+00
    1.239269e+00    4.501273e+01    0.000000e+00
    1.305784e+00    1.001415e+01    0.000000e+00
    1.786463e+00    1.084705e+01    0.000000e+00
    1.239269e+00    1.751273e+01    0.000000e+00
    1.814934e+00    1.668154e+01    0.000000e+00
    1.825107e+00    2.877631e+01    0.000000e+00
    1.255589e+00    2.797931e+01    0.000000e+00
    9.778576e+00    3.039683e+01    0.000000e+00
    1.255780e+00    2.699214e+01    0.000000e+00
    1.800874e+00    2.611742e+01    0.000000e+00
    1.870563e+01    3.326339e+01    0.000000e+00
    1.219065e+00    4.599938e+01    0.000000e+00
    1.219065e+00    1.849938e+01    0.000000e+00
    1.182757e+00    8.866455e+00    0.000000e+00
    3.136694e+01    2.357232e+01    0.000000e+00
    3.828378e+00    3.552560e+01    0.000000e+00
    3.319314e+01    2.987454e+01    0.000000e+00
    1.180816e+00    3.636251e+01    0.000000e+00
    2.936809e+01    3.076288e+01    0.000000e+00
    3.615837e+00    3.066837e+01    0.000000e+00
    7.614005e+00    3.050627e+01    0.000000e+00
    2.805500e+00    2.933536e+01    0.000000e+00
    2.550092e+00    2.843553e+01    0.000000e+00
    3.319691e+01    2.901413e+01    0.000000e+00
    1.701261e+01    3.246910e+01    0.000000e+00
    2.643069e+00    3.923256e+01    0.000000e+00
    2.544466e+00    3.810889e+01    0.000000e+00
    3.270757e+01    2.681257e+00    0.000000e+00
    2.558738e+00    3.726004e+01    0.000000e+00
    2.008428e+01    3.250286e+01    0.000000e+00
    2.109236e+01    3.250494e+01    0.000000e+00
    2.211970e+01    3.251822e+01    0.000000e+00
    2.543874e+00    1.060675e+01    0.000000e+00
    2.580680e+00    4.428630e+01    0.000000e+00
    2.797508e+00    4.518146e+01    0.000000e+00
    2.797507e+00    1.768145e+01    0.000000e+00
    2.580679e+00    1.678630e+01    0.000000e+00
    2.536769e+00    2.537432e+01    0.000000e+00
    3.217321e+01    9.771889e+00    0.000000e+00
    2.643139e+00    4.772867e+01    0.000000e+00
    2.643139e+00    2.022867e+01    0.000000e+00
    2.577893e+00    7.363632e+00    0.000000e+00
    3.235221e+01    7.262321e+00    0.000000e+00
    2.652306e+00    4.324248e+01    0.000000e+00
    2.652370e+00    1.574227e+01    0.000000e+00
    2.640401e+00    1.173476e+01    0.000000e+00
    3.236506e+01    1.572885e+01    0.000000e+00
    3.219510e+01    1.091852e+01    0.000000e+00
    3.263876e+01    1.024677e+01    0.000000e+00
    2.314467e+01    3.253047e+01    0.000000e+00
    2.414024e+01    3.199276e+01    0.000000e+00
    2.593691e+00    3.190292e+00    0.000000e+00
    2.570956e+00    2.438107e+01    0.000000e+00
    2.602762e+00    5.183894e+01    0.000000e+00
    2.605722e+00    4.862641e+01    0.000000e+00
    2.605723e+00    2.112641e+01    0.000000e+00
    2.672977e+00    6.316408e+00    0.000000e+00
    3.239177e+01    6.373514e+00    0.000000e+00
    1.799621e+01    3.246091e+01    0.000000e+00
    9.824362e+00    3.200124e+01    0.000000e+00
    3.347883e+01    2.302701e+01    0.000000e+00
    7.823548e+00    3.238511e+01    0.000000e+00
    3.311094e+01    2.688478e+01    0.000000e+00
    3.186899e+01    2.913977e+01    0.000000e+00
    4.668575e+00    3.358349e+01    0.000000e+00
    3.348795e+01    1.395066e+01    0.000000e+00
    8.704720e+00    3.265191e+01    0.000000e+00
    1.544842e+01    3.224933e+01    0.000000e+00
    3.322047e+01    8.092072e+00    0.000000e+00
    3.313306e+01    2.808220e+01    0.000000e+00
    3.348899e+01    3.154023e+01    0.000000e+00
    3.220412e+01    8.152911e+00    0.000000e+00
    2.817143e+00    1.933571e+01    0.000000e+00
    2.817144e+00    4.683571e+01    0.000000e+00
    3.223005e+01    1.662359e+01    0.000000e+00
    4.656426e+00    3.525125e+01    0.000000e+00
    1.128618e+01    3.229114e+01    0.000000e+00
    2.790302e+00    3.628764e+01    0.000000e+00
    2.575806e+01    3.223610e+01    0.000000e+00
    9.353301e+00    3.117117e+01    0.000000e+00
    2.240955e+00    2.883363e+01    0.000000e+00
    2.177972e+00    1.098165e+01    0.000000e+00
    2.211418e+00    1.651496e+01    0.000000e+00
    2.211417e+00    4.401497e+01    0.000000e+00
    2.178653e+00    3.848328e+01    0.000000e+00
    2.232181e+00    3.441848e+01    0.000000e+00
    2.287742e+00    2.059995e+01    0.000000e+00
    2.287742e+00    4.809995e+01    0.000000e+00
    2.266612e+00    6.886099e+00    0.000000e+00
    3.270243e+01    6.897068e+00    0.000000e+00
    3.272232e+01    3.008413e+01    0.000000e+00
    2.224499e+00    2.488929e+01    0.000000e+00
    2.241136e+00    3.014652e+01    0.000000e+00
    2.366488e+00    4.689594e+01    0.000000e+00
    2.366487e+00    1.939594e+01    0.000000e+00
    3.270221e+01    8.063135e+00    0.000000e+00
    2.341146e+00    4.512098e+01    0.000000e+00
    2.341145e+00    1.762098e+01    0.000000e+00
    2.622745e+00    1.884731e+01    0.000000e+00
    2.622746e+00    4.634731e+01    0.000000e+00
    3.239813e+01    8.642983e+00    0.000000e+00
    2.318229e+00    3.639427e+01    0.000000e+00
    2.614861e+00    4.566868e+01    0.000000e+00
    2.614861e+00    1.816867e+01    0.000000e+00
    3.238621e+01    9.322541e+00    0.000000e+00
    2.280628e+00    1.213821e+01    0.000000e+00
    2.282679e+00    1.534945e+01    0.000000e+00
    2.282443e+00    4.285033e+01    0.000000e+00
    3.270778e+01    1.535125e+01    0.000000e+00
    2.288018e+00    3.963518e+01    0.000000e+00
    2.585083e+00    2.970563e+01    0.000000e+00
    2.584872e+00    3.588952e+01    0.000000e+00
    2.299600e+00    3.343068e+01    0.000000e+00
    2.315624e+00    2.160742e+01    0.000000e+00
    2.315625e+00    4.910738e+01    0.000000e+00
    2.314468e+00    5.841388e+00    0.000000e+00
    3.268042e+01    5.892205e+00    0.000000e+00
    2.308882e+00    2.387865e+01    0.000000e+00
    2.318230e+00    5.138006e+01    0.000000e+00
    2.309588e+00    3.620272e+00    0.000000e+00
    2.295539e+00    3.109474e+01    0.000000e+00
    2.306170e+00    1.315401e+01    0.000000e+00
    2.303708e+00    1.433409e+01    0.000000e+00
    2.302982e+00    4.184380e+01    0.000000e+00
    3.265736e+01    1.433593e+01    0.000000e+00
    2.338417e+00    4.065887e+01    0.000000e+00
    3.239427e+01    3.205040e+01    0.000000e+00
    1.792793e+00    2.795548e+01    0.000000e+00
    3.320980e+01    1.229341e+01    0.000000e+00
    3.255162e+01    1.867219e+01    0.000000e+00
    1.930850e+00    2.620280e+00    0.000000e+00
    3.319833e+01    1.971784e+01    0.000000e+00
    3.217837e+01    1.217191e+01    0.000000e+00
    3.192151e+01    3.229011e+01    0.000000e+00
    3.219935e+01    2.159435e+01    0.000000e+00
    3.218827e+01    3.611646e+00    0.000000e+00
    3.220165e+01    1.314720e+01    0.000000e+00
    2.723167e+01    3.248409e+01    0.000000e+00
    1.509732e+00    3.147428e+01    0.000000e+00
    1.510826e+00    4.104973e+01    0.000000e+00
    1.507676e+00    4.145599e+01    0.000000e+00
    1.508279e+00    1.354778e+01    0.000000e+00
    1.505889e+00    1.395357e+01    0.000000e+00
    1.511954e+00    3.974563e+00    0.000000e+00
    3.845812e+00    3.114294e+01    0.000000e+00
    3.375005e+00    3.019587e+01    0.000000e+00
    1.502684e+00    5.102037e+01    0.000000e+00
    1.504514e+00    2.351586e+01    0.000000e+00
    3.348563e+01    5.527411e+00    0.000000e+00
    1.503824e+00    5.514241e+00    0.000000e+00
    1.508424e+00    4.947039e+01    0.000000e+00
    1.508428e+00    2.197044e+01    0.000000e+00
    1.784671e+00    2.473057e+01    0.000000e+00
    3.308141e+00    2.388631e+01    0.000000e+00
    8.022907e-01    2.799498e+01    0.000000e+00
    3.306697e+00    5.137362e+01    0.000000e+00
    3.173819e+01    3.631557e+00    0.000000e+00
    3.186795e+00    5.968899e+00    0.000000e+00
    1.805966e+00    6.735303e+00    0.000000e+00
    1.885057e+00    3.752262e+01    0.000000e+00
    8.426655e-01    3.749031e+01    0.000000e+00
    1.794040e+00    4.504862e+01    0.000000e+00
    1.794039e+00    1.754862e+01    0.000000e+00
    8.420241e-01    9.990607e+00    0.000000e+00
    1.882044e+00    1.002231e+01    0.000000e+00
    3.174488e+01    2.162846e+01    0.000000e+00
    1.828525e+00    4.382141e+01    0.000000e+00
    1.828526e+00    1.632141e+01    0.000000e+00
    1.816143e+00    2.697474e+01    0.000000e+00
    1.511296e+00    3.303606e+01    0.000000e+00
    1.680524e+00    9.027238e+00    0.000000e+00
    7.781614e-01    4.600002e+01    0.000000e+00
    1.744094e+00    4.600198e+01    0.000000e+00
    7.781614e-01    1.850002e+01    0.000000e+00
    1.744094e+00    1.850198e+01    0.000000e+00
    1.784173e+00    3.425893e+01    0.000000e+00
    1.680645e+00    3.652299e+01    0.000000e+00
    2.871277e+00    3.965026e+01    0.000000e+00
    2.856251e+00    1.216233e+01    0.000000e+00
    2.862014e+00    4.279551e+01    0.000000e+00
    2.862878e+00    1.529317e+01    0.000000e+00
    3.213205e+01    1.533410e+01    0.000000e+00
    2.855259e+00    2.388380e+01    0.000000e+00
    2.816608e+00    3.645660e+00    0.000000e+00
    2.861317e+00    5.136847e+01    0.000000e+00
    2.403506e+00    5.222479e+01    0.000000e+00
    2.875058e+00    4.916322e+01    0.000000e+00
    2.875027e+00    2.166331e+01    0.000000e+00
    3.212199e+01    5.840930e+00    0.000000e+00
    3.396084e+00    3.559631e+01    0.000000e+00
    1.030178e+01    3.227497e+01    0.000000e+00
    3.031990e+01    3.139305e+01    0.000000e+00
    1.596208e+01    3.196698e+01    0.000000e+00
    1.492928e+01    3.253189e+01    0.000000e+00
    3.697327e+00    3.413943e+01    0.000000e+00
    1.703258e+01    3.289165e+01    0.000000e+00
    3.144387e+01    2.995818e+01    0.000000e+00
    2.527048e+01    3.249754e+01    0.000000e+00
    1.078927e+01    3.255034e+01    0.000000e+00
    1.178778e+01    3.201255e+01    0.000000e+00
    8.427336e+00    3.228602e+01    0.000000e+00
    3.222177e+01    2.388326e+01    0.000000e+00
    1.826340e+01    3.325487e+01    0.000000e+00
    2.240452e+00    2.589259e+01    0.000000e+00
    5.159119e+00    3.329545e+01    0.000000e+00
    8.951799e+00    3.097132e+01    0.000000e+00
    1.820756e+00    1.229244e+01    0.000000e+00
    3.317012e+01    1.520278e+01    0.000000e+00
    1.824540e+00    3.979166e+01    0.000000e+00
    1.774456e+00    3.545176e+01    0.000000e+00
    1.819273e+00    1.946403e+01    0.000000e+00
    1.819273e+00    4.696403e+01    0.000000e+00
    1.848039e+00    7.962575e+00    0.000000e+00
    3.302180e+01    7.807756e+00    0.000000e+00
    7.892496e+00    3.094603e+01    0.000000e+00
    2.414108e+01    3.250920e+01    0.000000e+00
    2.625942e+01    3.250165e+01    0.000000e+00
    3.298641e+01    2.273487e+01    0.000000e+00
    7.789096e+00    3.143524e+01    0.000000e+00
    3.511820e+00    3.516488e+01    0.000000e+00
    8.417777e+00    3.117926e+01    0.000000e+00
    2.832016e+00    3.016625e+01    0.000000e+00
    2.451578e+01    3.224703e+01    0.000000e+00
    2.586743e+00    3.489531e+01    0.000000e+00
    1.792203e+00    2.576484e+01    0.000000e+00
    3.142453e+00    4.600858e+01    0.000000e+00
    3.142462e+00    1.850856e+01    0.000000e+00
    3.186144e+01    8.982164e+00    0.000000e+00
    3.105853e+01    3.024394e+01    0.000000e+00
    3.235700e+01    2.949165e+01    0.000000e+00
    2.565602e+00    3.390751e+01    0.000000e+00
    2.550449e+00    3.063315e+01    0.000000e+00
    2.615406e+00    4.014752e+01    0.000000e+00
    2.566046e+00    4.232613e+01    0.000000e+00
    2.579061e+00    1.265440e+01    0.000000e+00
    2.568043e+00    1.481914e+01    0.000000e+00
    1.520470e+00    2.747768e+01    0.000000e+00
    3.143883e+01    3.252296e+01    0.000000e+00
    4.382141e+00    3.123865e+01    0.000000e+00
    2.770494e+01    3.226255e+01    0.000000e+00
    3.244938e+01    1.353187e+01    0.000000e+00
    1.608547e+00    3.709583e+01    0.000000e+00
    1.487449e+00    4.551957e+01    0.000000e+00
    1.487449e+00    1.801957e+01    0.000000e+00
    1.606350e+00    9.597227e+00    0.000000e+00
    2.344764e+00    7.822506e+00    0.000000e+00
    1.179983e+01    3.257682e+01    0.000000e+00
    3.074031e+01    3.112448e+01    0.000000e+00
    8.941778e+00    3.137467e+01    0.000000e+00
    8.728712e+00    3.054210e+01    0.000000e+00
    2.327483e+00    3.541879e+01    0.000000e+00
    3.246992e+01    2.198374e+01    0.000000e+00
    3.652258e+00    3.465539e+01    0.000000e+00
    3.703145e+00    3.361730e+01    0.000000e+00
    8.961737e+00    3.226265e+01    0.000000e+00
    3.245846e+01    3.990348e+00    0.000000e+00
    3.348074e+01    2.245110e+01    0.000000e+00
    3.250683e+01    2.300856e+01    0.000000e+00
    2.627815e+01    3.306189e+01    0.000000e+00
    1.514406e+00    4.460377e+00    0.000000e+00
    1.528106e+00    3.196156e+01    0.000000e+00
    3.202052e+01    3.015588e+01    0.000000e+00
    4.660866e+00    3.303678e+01    0.000000e+00
    3.335392e+00    3.111152e+01    0.000000e+00
    1.726905e+00    5.226705e+01    0.000000e+00
    2.345083e+00    1.015464e+01    0.000000e+00
    1.492164e+01    3.197759e+01    0.000000e+00
    3.240946e+01    3.158897e+01    0.000000e+00
    3.169144e+01    1.315925e+01    0.000000e+00
    2.347476e+00    3.765611e+01    0.000000e+00
    2.720193e+01    3.294285e+01    0.000000e+00
    9.804890e+00    3.253230e+01    0.000000e+00
    2.940286e+01    3.152629e+01    0.000000e+00
    3.238019e+01    1.484293e+01    0.000000e+00
    3.148241e+01    3.199273e+01    0.000000e+00
    5.651024e+00    3.300954e+01    0.000000e+00
    1.776123e+01    3.325402e+01    0.000000e+00
    2.596944e+00    2.339360e+01    0.000000e+00
    2.599857e+00    5.088995e+01    0.000000e+00
    4.257376e+00    3.549716e+01    0.000000e+00
    1.749161e+01    3.422751e+01    0.000000e+00
    2.543311e+00    2.203911e+01    0.000000e+00
    2.543344e+00    4.953890e+01    0.000000e+00
    3.244596e+01    5.464993e+00    0.000000e+00
    1.077981e+01    3.299570e+01    0.000000e+00
    3.658687e+00    2.981585e+01    0.000000e+00
    9.769323e+00    3.297045e+01    0.000000e+00
    3.261116e+00    3.664312e+00    0.000000e+00
    3.175368e+01    2.385138e+01    0.000000e+00
    2.524293e+01    3.304807e+01    0.000000e+00
    3.390398e+01    2.274291e+01    0.000000e+00
    2.391935e+00    2.926971e+01    0.000000e+00
    5.683728e+00    3.151696e+01    0.000000e+00
    2.209323e+00    4.600556e+01    0.000000e+00
    2.209322e+00    1.850556e+01    0.000000e+00
    3.281888e+01    8.999015e+00    0.000000e+00
    2.826753e+01    3.286849e+01    0.000000e+00
    3.421083e+01    8.980082e+00    0.000000e+00
    4.174984e+00    3.332888e+01    0.000000e+00
    3.274190e+01    2.908119e+01    0.000000e+00
    3.139212e+01    4.340276e+00    0.000000e+00
    3.645169e+00    5.068047e+01    0.000000e+00
    3.645101e+00    2.318245e+01    0.000000e+00
    3.139056e+01    2.246631e+01    0.000000e+00
    3.630205e+00    5.186847e+00    0.000000e+00
    6.150792e+00    3.323819e+01    0.000000e+00
    3.347504e+01    4.458726e+00    0.000000e+00
    1.514663e+00    5.053024e+01    0.000000e+00
    1.515013e+00    2.302942e+01    0.000000e+00
    1.874357e+01    3.224298e+01    0.000000e+00
    1.952824e+01    3.425728e+01    0.000000e+00
    1.813051e+00    1.118701e+01    0.000000e+00
    3.315215e+01    1.632603e+01    0.000000e+00
    1.813491e+00    3.868835e+01    0.000000e+00
    2.937204e+01    3.254026e+01    0.000000e+00
    1.801686e+01    3.289597e+01    0.000000e+00
    1.282079e+01    3.257151e+01    0.000000e+00
    3.032916e+01    3.250409e+01    0.000000e+00
    1.387179e+01    3.255779e+01    0.000000e+00
    3.266080e+01    3.116787e+01    0.000000e+00
    2.948667e+00    3.538650e+01    0.000000e+00
    5.651312e+00    3.248402e+01    0.000000e+00
    3.120952e+01    3.108391e+01    0.000000e+00
    3.572322e+00    3.149378e+01    0.000000e+00
    3.146014e+01    3.054832e+01    0.000000e+00
    2.816140e+00    3.109772e+01    0.000000e+00
    1.818549e+00    4.270600e+01    0.000000e+00
    1.818663e+00    1.520542e+01    0.000000e+00
    3.108777e+01    3.222658e+01    0.000000e+00
    6.560338e+00    3.292682e+01    0.000000e+00
    1.800802e+01    3.361865e+01    0.000000e+00
    1.717417e+00    5.261901e+01    0.000000e+00
    2.832657e+00    3.438392e+01    0.000000e+00
    2.831754e+00    3.342280e+01    0.000000e+00
    2.807636e+00    4.184156e+01    0.000000e+00
    2.815599e+00    1.431678e+01    0.000000e+00
    1.230314e+01    3.229325e+01    0.000000e+00
    2.489221e+01    3.224404e+01    0.000000e+00
    3.247986e+01    2.348227e+01    0.000000e+00
    4.876465e+00    3.132268e+01    0.000000e+00
    7.661516e+00    3.190217e+01    0.000000e+00
    1.439789e+01    3.226484e+01    0.000000e+00
    3.142775e+01    1.269865e+01    0.000000e+00
    8.696062e+00    3.178335e+01    0.000000e+00
    3.250544e+01    2.245844e+01    0.000000e+00
    3.155381e+01    3.145493e+01    0.000000e+00
    3.241576e+01    1.392587e+01    0.000000e+00
    2.815507e+01    3.210695e+01    0.000000e+00
    9.422477e+00    3.227385e+01    0.000000e+00
    3.205011e+01    1.432774e+01    0.000000e+00
    2.938185e+01    3.199077e+01    0.000000e+00
    3.357510e+00    2.281474e+01    0.000000e+00
    3.357830e+00    5.031324e+01    0.000000e+00
    3.165920e+01    4.721587e+00    0.000000e+00
    3.357166e+00    4.802176e+00    0.000000e+00
    3.176661e+01    2.273669e+01    0.000000e+00
    2.846763e+01    3.243224e+01    0.000000e+00
    3.249107e+01    4.453633e+00    0.000000e+00
    3.208057e+01    3.119420e+01    0.000000e+00
    5.665051e+00    3.196649e+01    0.000000e+00
    2.818566e+00    1.314737e+01    0.000000e+00
    2.940466e+00    4.066158e+01    0.000000e+00
    3.249292e+01    4.994641e+00    0.000000e+00
    2.469274e+00    2.251112e+01    0.000000e+00
    2.469446e+00    5.001035e+01    0.000000e+00
    2.892114e+01    3.225045e+01    0.000000e+00
    3.886536e+00    2.276940e+01    0.000000e+00
    3.886685e+00    5.026884e+01    0.000000e+00
    3.112675e+01    4.744456e+00    0.000000e+00
    2.985146e+01    3.225053e+01    0.000000e+00
    2.384046e+00    5.047628e+01    0.000000e+00
    2.383184e+00    2.297758e+01    0.000000e+00
    3.891690e+00    4.777163e+00    0.000000e+00
    3.099517e+01    2.274244e+01    0.000000e+00
    1.334037e+01    3.228497e+01    0.000000e+00
    3.296104e+00    3.338265e+01    0.000000e+00
    2.043298e+00    3.225335e+01    0.000000e+00
    3.297775e+01    4.738500e+00    0.000000e+00
    1.983621e+00    4.736865e+00    0.000000e+00
    1.988668e+00    5.024164e+01    0.000000e+00
    1.988431e+00    2.274185e+01    0.000000e+00
    1.098526e+00    3.225188e+01    0.000000e+00
    3.389994e+01    4.749745e+00    0.000000e+00
    1.092905e+00    4.748805e+00    0.000000e+00
    1.093684e+00    5.024631e+01    0.000000e+00
    1.094007e+00    2.274596e+01    0.000000e+00
    3.258710e+01    9.848855e+00    0.000000e+00
    7.998357e-01    2.699748e+01    0.000000e+00
    3.375985e+00    4.274369e+01    0.000000e+00
    3.377357e+00    1.524107e+01    0.000000e+00
    4.647166e+00    3.246579e+01    0.000000e+00
    7.880214e-01    1.750081e+01    0.000000e+00
    7.880214e-01    4.500082e+01    0.000000e+00
    3.033000e+01    3.195833e+01    0.000000e+00
    3.143458e+01    1.356496e+01    0.000000e+00
    3.795578e+00    1.516981e+01    0.000000e+00
    3.793804e+00    4.267146e+01    0.000000e+00
    6.599816e+00    3.246616e+01    0.000000e+00
    3.239069e+01    3.066163e+01    0.000000e+00
    2.565006e+00    3.303677e+01    0.000000e+00
    3.117950e+01    1.315037e+01    0.000000e+00
    3.164749e+01    1.223271e+01    0.000000e+00
    3.298993e+00    3.437621e+01    0.000000e+00
    2.832831e+01    3.166176e+01    0.000000e+00
    2.834931e+00    2.289550e+01    0.000000e+00
    2.835752e+00    5.039340e+01    0.000000e+00
    3.210770e+01    4.713096e+00    0.000000e+00
    2.828064e+00    4.870820e+00    0.000000e+00
    3.213705e+01    2.273488e+01    0.000000e+00
    1.281823e+01    3.200572e+01    0.000000e+00
    6.130207e+00    3.221850e+01    0.000000e+00
    3.347528e+01    5.035408e+00    0.000000e+00
    2.559513e+00    3.196088e+01    0.000000e+00
    1.528573e+00    3.254445e+01    0.000000e+00
    2.466417e+00    4.490711e+00    0.000000e+00
    1.508778e+00    5.027971e+00    0.000000e+00
    1.512951e+00    4.995750e+01    0.000000e+00
    1.513024e+00    2.245737e+01    0.000000e+00
    2.855523e+01    3.202542e+01    0.000000e+00
    2.555282e+00    1.393200e+01    0.000000e+00
    2.553430e+00    4.146137e+01    0.000000e+00
    7.365637e+00    3.218160e+01    0.000000e+00
    3.323711e+00    1.429914e+01    0.000000e+00
    3.309208e+00    4.181995e+01    0.000000e+00
    3.321896e+00    4.048977e+01    0.000000e+00
    3.582953e+00    4.227712e+01    0.000000e+00
    3.588859e+00    1.477119e+01    0.000000e+00
    3.672783e+00    3.308752e+01    0.000000e+00
    3.166440e+01    1.449758e+01    0.000000e+00
    3.071119e+01    3.221727e+01    0.000000e+00
    4.634270e+00    3.181818e+01    0.000000e+00
    5.163999e+00    3.219171e+01    0.000000e+00
    4.110225e+00    3.219693e+01    0.000000e+00
    2.806024e+01    3.249751e+01    0.000000e+00
    3.579856e+00    3.195453e+01    0.000000e+00
    6.602831e+00    3.194733e+01    0.000000e+00
    3.833048e+00    1.430144e+01    0.000000e+00
    3.817919e+00    4.180402e+01    0.000000e+00
    3.319025e+01    3.025738e+01    0.000000e+00
    3.122375e+01    1.230631e+01    0.000000e+00
    2.573868e+00    5.361394e+00    0.000000e+00
    2.534472e+00    4.021401e+00    0.000000e+00
    2.556706e+00    3.147822e+01    0.000000e+00
    2.563493e+00    3.254774e+01    0.000000e+00
    2.556504e+00    1.353980e+01    0.000000e+00
    2.582258e+00    4.106745e+01    0.000000e+00
    3.614488e+00    3.252633e+01    0.000000e+00
    6.983758e+00    3.220146e+01    0.000000e+00
    1.386952e+01    3.198999e+01    0.000000e+00
    3.080051e+00    3.225043e+01    0.000000e+00
    3.138747e+01    2.301244e+01    0.000000e+00
    3.142392e+01    5.146803e+00    0.000000e+00
    3.581149e+00    4.986880e+01    0.000000e+00
    3.580981e+00    2.236928e+01    0.000000e+00
    3.543427e+00    4.140264e+01    0.000000e+00
    3.581276e+00    1.389708e+01    0.000000e+00
    2.777292e+00    5.772648e+00    0.000000e+00
    2.372638e+00    4.960153e+00    0.000000e+00
    3.259277e+00    1.316494e+01    0.000000e+00
    4.327589e+00    1.427561e+01    0.000000e+00
    4.318239e+00    4.177332e+01    0.000000e+00
    1.817767e+00    2.074333e+01    0.000000e+00
    1.817765e+00    4.824332e+01    0.000000e+00
    3.317071e+01    6.762597e+00    0.000000e+00
    3.348574e+01    2.290978e+00    0.000000e+00
    1.784794e+01    3.036622e+01    0.000000e+00
    1.794217e+00    3.028580e+01    0.000000e+00
    2.204062e+00    8.132023e+00    0.000000e+00
    1.888378e+01    3.035892e+01    0.000000e+00
    2.052567e+01    3.427182e+01    0.000000e+00
    3.075164e+01    1.312602e+01    0.000000e+00
    1.730976e+01    3.111856e+01    0.000000e+00
    8.050007e-01    3.644133e+01    0.000000e+00
    8.053688e-01    8.943182e+00    0.000000e+00
    2.780255e+01    3.026791e+01    0.000000e+00
    1.976441e+01    3.037928e+01    0.000000e+00
    2.175844e+01    3.028415e+01    0.000000e+00
    2.090809e+01    3.034671e+01    0.000000e+00
    5.219685e+00    2.918878e+01    0.000000e+00
    2.152839e+01    3.427867e+01    0.000000e+00
    2.227643e+00    9.856402e+00    0.000000e+00
    2.231420e+00    3.735663e+01    0.000000e+00
    3.346750e+01    3.430800e+01    0.000000e+00
    1.918684e+00    2.918061e+01    0.000000e+00
    3.614486e+00    4.384906e+00    0.000000e+00
    2.250328e+01    3.429991e+01    0.000000e+00
    2.345085e+01    3.418008e+01    0.000000e+00
    2.375650e+00    2.819460e+00    0.000000e+00
    1.688718e+00    2.285051e+00    0.000000e+00
    3.164598e+01    3.099916e+01    0.000000e+00
    1.712251e+01    3.038058e+01    0.000000e+00
    3.799095e+00    5.660613e+01    0.000000e+00
    4.107299e+00    5.630918e+01    0.000000e+00
    3.030998e+00    5.682984e+01    0.000000e+00
    4.352166e+00    5.601306e+01    0.000000e+00
    4.324046e+00    5.554047e+01    0.000000e+00
    3.508187e+00    5.685284e+01    0.000000e+00
    2.952129e+00    5.622441e+01    0.000000e+00
    2.940824e+00    5.567073e+01    0.000000e+00
    3.740108e+00    5.545477e+01    0.000000e+00
    3.719998e+00    5.622858e+01    0.000000e+00
    3.402501e+00    5.644022e+01    0.000000e+00
    3.317106e+00    5.540500e+01    0.000000e+00
    3.941369e+00    5.590759e+01    0.000000e+00
    3.430576e+00    5.590447e+01    0.000000e+00

CELLS 4904 19616
       3     491      23      24
       3     493      26      27
       3     493     492      26
       3      20       1      21
       3     494      20      21
       3     498      24      25
       3     500     493     496
       3     494      21      22
       3     497      23     491
       3     500     492     493
       3     493      27      28
       3      27       2      28
       3     502      31     499
       3     499      18     495
       3     503     495     501
       3      31       0      17
       3     495      19     494
       3     501     494     497
       3     492      25      26
       3     496     493      29
       3     493      28      29
       3     496      29      30
       3     494      19      20
       3     497     494      22
       3     503     501     500
       3     495      18      19
       3     503     502     499
       3     500     498     492
       3     497      22      23
       3     501     497     491
       3     498     491      24
       3     498      25     492
       3     499      31      17
       3     499      17      18
       3     503     496     502
       3     500     491     498
       3     501     495     494
       3     501     491     500
       3     502     496      30
       3     502      30      31
       3     503     500     496
       3     503     499     495
       3     965      28      32
       3    1216      32      33
       3    1215     969     508
       3    2518    1929    1832
       3    2240     514    2110
       3    2488     519    2171
       3    1349     470     471
       3    1349     523     967
       3     968     471     472
       3    1348     519     968
       3    1781    1450    1520
       3    1885    1597    1702
       3    1159     505    1140
       3    1611     505    1431
       3    1929    1611    1710
       3    1710     966    1215
       3    1214     971     512
       3    2152    1994    1802
       3    2592     518    2465
       3    2178    2023     523
       3    1350     970     468
       3    2023    1350     523
       3    1762     969    1214
       3    1213     973     516
       3    2494     517    2333
       3    2469    2301    2373
       3    1647    1392     527
       3    1351     972     466
       3    1392     972    1351
       3    1743     971    1213
       3    1212      40      41
       3    2337    1811    2157
       3    2116    1824     526
       3    1956    1560    1648
       3    1352     974     464
       3    1410     974    1352
       3    1212     516     973
       3     975      42      43
       3    2649    1846    2176
       3    2089    1956     530
       3    2412    1599    1620
       3    1354     461     462
       3    1353     462     463
       3    1211     975     520
       3     977      44      45
       3    2398    2280     529
       3    2286     534    2260
       3    1928    1667    1567
       3    1355     459     460
       3    1355     543     978
       3    1210     977     524
       3     979      46      47
       3    2398    2051     533
       3    2221    1928     538
       3    1538    1477     543
       3    1356     457     458
       3    1356     547     980
       3    1209     979     528
       3    1207     983     536
       3    2429    2187    2348
       3    2095    1937     542
       3    1512    1478     547
       3    1357     455     456
       3    1357     551     982
       3    2358    2198     532
       3    1206     985     540
       3    2186    2030    1857
       3    2230     546    2095
       3    2612     551    2583
       3    1358     453     454
       3    2647     984    1358
       3    2579    2187     536
       3    1205     987     544
       3    2162    2004    1820
       3    2521    2420    2310
       3    2167    2010     555
       3    1360     986     450
       3    1359     984     555
       3    1774     985    1205
       3    1204     989     548
       3    2147    1989    1797
       3    2632    2607     553
       3    1631    1451     559
       3    1361     988     448
       3     986     449     450
       3    1752     987    1204
       3    1203    1202     552
       3    2326    1795    2145
       3    2419    2296    2364
       3    1630    1452     563
       3    1362     990     446
       3     988     447     448
       3    1739     989    1203
       3     991      59      60
       3    2395    1818    2160
       3    2074    1951     562
       3    1659    1488     567
       3    1984    1793    1724
       3    1488     948     990
       3    1202     991     552
       3     992      61      62
       3    2500    1855    2183
       3    2075    1960     566
       3    1671     571    1548
       3     942     442     941
       3    1763     581     942
       3    1921    1730     588
       3    2248     622    2118
       3    2435    2266     656
       3    2194    2053     689
       3    2194     690    2053
       3    1368     216     217
       3    1368     690     216
       3    1367     218     219
       3    1699    1490    1572
       3    2433    2263    2386
       3    1944     592    1731
       3    1577    1147    1461
       3    1470    1461    1333
       3    2471    1627     624
       3    2263    2061     658
       3    1717    1368     691
       3    1594     691    1490
       3    1490     691    1367
       3    1201     992     556
       3     994      63      64
       3    2183    2029     565
       3    2073    1947     570
       3    2202     575    1983
       3    2119    2007    1922
       3    2046     587    1957
       3    2584     621    2516
       3    2405    2056    2401
       3    2436     689    2392
       3    2436     213     689
       3    1200     994     560
       3    1198     996     568
       3    2363     568    2204
       3    2298     574    2264
       3    2439    2129     579
       3    2251     586    2007
       3    2508     620    2462
       3    2057    1910     654
       3    2401    2207     688
       3    2207     211     688
       3    2347    2184     564
       3    1197     997     572
       3    2396    2052    1901
       3    2519    2410    2272
       3    2440     585    2381
       3    2577     619    2449
       3    2479    1908    1902
       3     958     209     944
       3    1854     944     210
       3    2659    2204     568
       3    1196     998     576
       3    2185    2022    1848
       3    2520    2417    2299
       3    2633    2621    2619
       3    2617    2425    2526
       3    1587     957     958
       3    1788     997    1196
       3    1195     999     582
       3    2159    2001    1813
       3    2636    2630    2599
       3    2331    2206     684
       3    1684    1491     685
       3    2665     207     718
       3    1587    1491     957
       3    1770     998    1195
       3    1194    1000     615
       3    2600    2563     616
       3    2629    2307    2512
       3    2206    2065     684
       3    2665    1683     950
       3    2665     950     206
       3    1747     999    1194
       3    1193      76      77
       3    2325    1800    2150
       3    2418    2279    2408
       3    2070    1946    1713
       3     962     947     204
       3    1722     962     950
       3    1193     615    1000
       3    1001      78      79
       3    2653    1829    2165
       3    2208    1946     716
       3    1673    1598    1623
       3    1222    1003     203
       3     947       5     204
       3    1192    1001     648
       3    1002      80      81
       3    2670    1891    2192
       3    1920    1673     726
       3    1695    1585     730
       3    1223    1005     201
       3    1003     202     203
       3    1191    1002     681
       3    1004      82      83
       3    2192    2042     725
       3    1913    1695     730
       3    1934    1640    1543
       3    1224    1007     199
       3    1005     200     201
       3    1190    1004     714
       3    1188    1008     728
       3    2423    2195    2355
       3    2122    1934     734
       3    1518    1387     739
       3    1225    1009     197
       3    1007     198     199
       3    2341    2193     724
       3    1187    1010     732
       3    2196    2044    1892
       3    2111    1814     738
       3    1839     743    1782
       3    1227     751    1011
       3    1009     196     197
       3    2574    2195     728
       3    1186    1012     736
       3    2166    2009    1833
       3    2239     742    2111
       3    2489     747    2170
       3    2024    1228     751
       3    1227     194     195
       3    1778    1010    1186
       3    1185    1014     740
       3    2153    1995    1803
       3    2591     746    2464
       3    2179    2024     751
       3    1393    1015    1229
       3    1228    1013     192
       3    1759    1012    1185
       3    1184    1016     744
       3    2495     745    2334
       3    2468    2300    2374
       3    1649    1393     755
       3    1406    1017    1230
       3    1229    1015     190
       3    1744    1014    1184
       3    1183      95      96
       3    2338    1812    2158
       3    2115    1825     754
       3    1955    1558    1650
       3    1231    1019     186
       3    1230    1017     188
       3    1183     744    1016
       3    1018      97      98
       3    2648    1847    2177
       3    2090    1955     758
       3    2413    1600    1621
       3    1232    1021     184
       3    1019     185     186
       3    1182    1018     748
       3    1020      99     100
       3    2397    2281     757
       3    2285     762    2259
       3    1927    1668    1568
       3    1233    1023     182
       3    1021     183     184
       3    1181    1020     752
       3    1022     101     102
       3    2397    2050     761
       3    2222    1927     766
       3    1539    1397     771
       3    1234    1025     180
       3    1023     181     182
       3    1180    1022     756
       3    1178    1026     764
       3    2430    2190    2349
       3    2096    1936     770
       3    1514    1382     775
       3    1235    1027     178
       3    1025     179     180
       3    2360    2199     760
       3    1177    1028     768
       3    2191    2031    1856
       3    2231     774    2096
       3    2613     779    2582
       3    2011    1029    1237
       3    1027     177     178
       3    2578    2190     764
       3    1176    1030     772
       3    2163    2005    1821
       3    2522    2422    2309
       3    2168    2011     783
       3    1380    1031    1238
       3    1237    1236     783
       3    1775    1028    1176
       3    1175    1032     776
       3    2148    1990    1798
       3    2631    2606     781
       3    1634    1380     787
       3    1395    1033    1239
       3    1238    1031     173
       3    1754    1030    1175
       3    1174    1173     780
       3    2328    1799    2149
       3    2421    2292    2365
       3    1633    1395     791
       3    1481    1035    1240
       3    1239    1033     171
       3    1737    1032    1174
       3    1034     114     115
       3    2393    1822    2164
       3    2097    1950     790
       3    1959    1566    1666
       3    1241    1037     167
       3    1240    1035     169
       3    1173    1034     780
       3    1036     116     117
       3    2498    1858    2189
       3    2084    1959     794
       3    1714    1622    1601
       3    1242    1039     165
       3    1037     166     167
       3    1172    1036     784
       3    1038     118     119
       3    2189    2032     793
       3    1912    1714     798
       3    1932    1651    1559
       3    1243    1041     163
       3    1039     164     165
       3    1171    1038     788
       3    1169    1042     796
       3    2357     796    2200
       3    2124    1932     802
       3    1529    1391     807
       3    1244    1043     161
       3    1041     162     163
       3    2350    2188     792
       3    1168    1044     800
       3    2399    2049    1898
       3    2114    1826     806
       3    1851     811    1765
       3    1246     819    1045
       3    1043     160     161
       3    2660    2200     796
       3    1167    1046     804
       3    2175    2019    1845
       3    2243     810    2114
       3    2491     815    2180
       3    2015    1247     819
       3    1246     158     159
       3    1786    1044    1167
       3    1166    1048     808
       3    2156    1998    1810
       3    2601    2565     817
       3    2172    2015     819
       3    1388    1049    1248
       3    1247    1047     156
       3    1769    1046    1166
       3    1165    1050     812
       3    2602    2565     813
       3    2628    2306    2370
       3    1642    1388     823
       3    1400    1051    1249
       3    1248    1049     154
       3    1750    1048    1165
       3    1164     131     132
       3    2330    1801    2151
       3    2109    1815     822
       3    1643    1400     827
       3    1250    1053     150
       3    1249    1051     152
       3    1164     812    1050
       3    1052     133     134
       3    2317    1993    1830
       3    1884    1595    1694
       3    1217     147     148
       3    1053     149     150
       3    1163    1052     816
       3    1054     135     136
       3    1887    1609    1700
       3    1219     829    1057
       3    1218     146     147
       3    1162    1054     820
       3    1056     137     138
       3    1411    1220    1057
       3    1219     144     145
       3    1161    1056     824
       3    1708    1160     828
       3    1221     141     142
       3    1367     691     218
       3    1059     220     221
       3    1690    1384    1565
       3    2523    2503     626
       3    1663    1553     593
       3    1335    1060     428
       3    1437    1059     692
       3    1061     222     223
       3    1687    1376    1557
       3    2561    2505     627
       3    1679    1589     594
       3    1336    1062     426
       3    1061     693     222
       3    1063     224     225
       3    1682    1374    1552
       3    2380    2254     629
       3    1696    1613     595
       3    1337     424     425
       3    1063     694     224
       3    1065     226     227
       3    1677    1372    1547
       3    2254    2055     629
       3    1938    1783    1711
       3    1067    1066     422
       3    1067     423    1064
       3    1434    1065     695
       3    1068     228     229
       3    1675     663    1547
       3    2211     630    2063
       3    2068     597    1942
       3    1070    1069     420
       3    1070     421    1066
       3    1433    1068     696
       3    2652     230     231
       3    2655     232     233
       3    2662     234     235
       3    2664     236     237
       3    2663     701    1257
       3    1756     702    1256
       3     703     242     243
       3     704     244     245
       3     705     246     247
       3     706     248     249
       3    2661     707    1251
       3     949     253     719
       3     946     256       8
       3    1614    1486     836
       3    2072     838    2067
       3    1550    1444     847
       3    1302     368     369
       3    1302     851    1071
       3    1072     369     370
       3    1301     847    1072
       3    2249    1975     838
       3    1916    1896    1729
       3    1727     832    1576
       3    1605    1492     719
       3    2054    1906     708
       3    2534    2426     674
       3    2457    1859    1657
       3    1472    1459    1341
       3    1073     404     405
       3    1074     406     407
       3    1075     408     409
       3    2673    1074    1338
       3    1865    1661     636
       3    2101    1861     670
       3    1593    1489     703
       3    1255     241     242
       3    1288     257     258
       3    1656    1549    1402
       3    2137    1964     846
       3    1526    1467     851
       3    1303     366     367
       3    1303     855    1077
       3    1261    1112     308
       3    1078     309     310
       3    1293     311     312
       3    1413    1292    1079
       3    1439    1291    1080
       3    1289    1081     939
       3    1328     320     321
       3    1327    1083     935
       3    1709    1082    1327
       3    1326    1325     931
       3    1864    1646    1525
       3    2593     925    2544
       3    2181    2026     920
       3    1390    1086    1267
       3    1266    1085     920
       3    2026    1084    1266
       3    1265     301     302
       3    2173     924    2017
       3    2214    2108    1973
       3    1930    1610    1709
       3    2078    1831    1646
       3    1831    1758     931
       3    1407    1109    1268
       3    1267    1086     297
       3    1652    1390     916
       3    2113    1827     917
       3    2650    1844    2174
       3    1087     332     333
       3    1321    1087     333
       3    1088     334     335
       3    1321    1088     915
       3    1319    1318     907
       3    1705    1606     906
       3    2234    2132    1961
       3    1516    1383     896
       3    1273    1092     285
       3    1090     286     287
       3    1273    1090     892
       3    1091     288     289
       3    1670    1482    1569
       3    2482    2291    2287
       3    1897    1785     911
       3    2048    1886    2041
       3    2041    1886    1705
       3    2012    1106    1275
       3    1092     284     285
       3    2587    2455    2581
       3    2323    2141    1978
       3    1863    1645    1522
       3    1457    1093     891
       3    1314    1093     346
       3    1094     347     348
       3    1313    1094     348
       3    1313    1119     887
       3    2499    1574    1878
       3    2087    1971    2060
       3    1715    1618    1602
       3    1280    1097     272
       3    1095     273     274
       3    1280    1095     868
       3    1278    1104     876
       3    1540     876    1396
       3    2233     882    2098
       3    1988    1796     887
       3    2394    1819    2161
       3    1819    1751     883
       3    1281    1102     270
       3    1097     271     272
       3    1931    1654    1562
       3    2125    1931     869
       3    2045    1703    1604
       3    1468    1098     867
       3    1307    1098     359
       3    1099     360     361
       3    1306    1099     361
       3    1412    1306    1123
       3    2443    2404     858
       3    2525    2444     854
       3    1655    1386     848
       3    1402    1124    1287
       3    1286    1101     848
       3    1386    1100    1286
       3    1285    1144     852
       3    2637    2560    2490
       3    2438    2321    1974
       3    1563    1458     863
       3    1868    1664    1535
       3    1535    1412     859
       3    1282    1103     268
       3    1102     269     270
       3    1531    1394     864
       3    2133    2112     865
       3    1876    1685    1563
       3    2136    2112    1963
       3    2321    2136    1974
       3    2182     856    2027
       3    1103     267     268
       3    1853     860    1764
       3    1764    1394    1531
       3    1483    1096    1278
       3    1277    1105     880
       3    1515     880    1381
       3    2460    2311     886
       3    2033    1522     891
       3    2252    2146     890
       3    1396    1104    1277
       3    1276    1106     884
       3    1838     885    1637
       3    2427    2323    1978
       3    2533    2427     890
       3    1381    1105    1276
       3    1275    1274     888
       3    2581    2455     889
       3    2169    2012     888
       3    1272    1091     896
       3    1107     290     291
       3    1603    1569     904
       3    2282    2258    2092
       3    1844    1768     915
       3    2255    2018    1897
       3    1271    1107     900
       3    1108     292     293
       3    1653    1561    1407
       3    2276    2229    2113
       3    2092    1954     913
       3    1270    1108     904
       3    1268    1109     295
       3    1530     912    1390
       3    1954    1561    1653
       3    1265     920    1085
       3    1110     303     304
       3    1780    1389    1519
       3    1883    1596    1701
       3    1290     938    1080
       3    1610     938    1438
       3    1264    1110     924
       3    1111     305     306
       3    1644    1401    1545
       3    1291     937    1079
       3    1596     937    1439
       3    1263    1111     928
       3    1112     307     308
       3    1413    1079     937
       3    1545    1401     936
       3    1758    1083    1326
       3    1113     326     327
       3    2493     926    2034
       3    2470    2303    2375
       3    2026    1852     916
       3    1414    1325    1113
       3    1114     328     329
       3    2335    1809    2155
       3    2375    2244     917
       3    1324    1114     927
       3    1115     330     331
       3    1809    1746     919
       3    1323    1115     923
       3    2484    1886     911
       3    1415    1318    1116
       3    1879    1692    1573
       3    2134    2099    1961
       3    2626    1383    1516
       3    1116     339     340
       3    1317     903    1116
       3    1869    1672    1542
       3    2319    1967    2141
       3    1316    1117     342
       3    1416    1316    1118
       3    1542    1416     895
       3    1315    1118     344
       3    1312    1119     350
       3    1417    1120     879
       3    1791    1691    1607
       3    1911    1715     873
       3    1618     868    1494
       3    1120     352     353
       3    1310     879    1120
       3    1792    1706    1617
       3    2316    1911    1965
       3    1121     354     355
       3    1309     875    1121
       3    1617    1445     871
       3    1122     356     357
       3    1305    1123     363
       3    1304    1077     855
       3    2047    1526    1880
       3    2137    2103    1964
       3    1952    1549    1656
       3    1486    1076    1288
       3    1287    1124     259
       3    1125     371     372
       3    1300     839    1125
       3    1616    1615     841
       3    2079     833    1896
       3    2383     720    1966
       3    1970     709    1933
       3    2552    2537    2501
       3    2483    1626     641
       3    1473    1462    1342
       3    1126     402     403
       3    1127     373     374
       3    1299     840    1127
       3    2210    1704    1591
       3    2448    2416    2277
       3    2509    2434     710
       3    2580    2504    2556
       3    1866     643    1660
       3    1474    1463    1343
       3    1128     375     376
       3    1297     377     378
       3    2203    2013    1835
       3    2585    2506    2545
       3    2461    2320    2424
       3    1873     644    1678
       3    1584    1464    1344
       3    1129     378     379
       3    1757    1129    1296
       3    2154    1996    1804
       3    2313     679    1980
       3    1872     645    1693
       3    1580    1465    1329
       3    1130     380     381
       3    1741    1130    1295
       3    1979    1524    1914
       3    2062    1953    1871
       3    1418    1132    1330
       3    1131     382     383
       3    1294     680    1131
       3    1720    1485    1373
       3    1378     945    1133
       3    1578    1157    1465
       3    1133     391    1132
       3     943      11     384
       3     963     647     954
       3    2669    1373     940
       3    2669     389     955
       3     386     387     614
       3    1134     410     411
       3    2672    1152    1427
       3    1874    1680     635
       3    2083    1903     669
       3    1571    1385     702
       3    1256     239     240
       3    1135     412     413
       3    2666    1151    1426
       3    1882    1697     634
       3    2082    1907     668
       3    1564    1377     701
       3    1257     237     238
       3    1136     414     415
       3    2656    1150    1425
       3    1889    1712     633
       3    2081    1915     667
       3    1556    1375     700
       3    1258     235     236
       3    1137     416     417
       3    2497    1149    1424
       3    2043    1712    1890
       3    2080    1925     666
       3    1551    1371     699
       3    1259     233     234
       3    1138     419    1069
       3    2038    1148    1423
       3    2502    2389    2463
       3    2064    1940     665
       3    1546    1370     698
       3    1260     231     232
       3    1469    1460    1332
       3    2473    2458     624
       3    2377    2246     657
       3    2106    2053    1895
       3    1895     690    1717
       3    1480    1419    1366
       3    1420    1145    1331
       3    1968     623    1877
       3    2530    2387     655
       3    2441     623    2253
       3    1498    1480     964
       3    1498     956     588
       3    2118    1628    1730
       3    1730    1628    1508
       3    1405     588     956
       3    1405     956     439
       3     941     442     443
       3    1139     473     474
       3    1347     515    1139
       3    1641    1399    1544
       3    1363     506    1142
       3    1159      31      30
       3    1141     476     477
       3    1345    1141     477
       3    1421    1142     506
       3    1363     483       0
       3    1143     478     479
       3    1365     480     481
       3    1284     852    1144
       3    1284     265     266
       3    2028    1101    1285
       3    1597     506    1479
       3    1544    1399     507
       3    2372    2110    1972
       3    2110     510    1972
       3    1520    1450     511
       3    1832    1762     512
       3    2171     519    2016
       3    2342    2171    1840
       3    1802    1743     516
       3    2371    2342     514
       3    2603    2571     520
       3    2551     521    2469
       3    2639    2554    2539
       3    1811    1749     524
       3    2274    2241     525
       3    1849     526    1647
       3    1846    1772     528
       3    2274    2226    2116
       3    1527     531    1392
       3    1900    1789     532
       3    2280    2260    2089
       3    1648    1560    1410
       3    2429    2198     536
       3    2480    2289    2286
       3    1599    1567     539
       3    2030     540    1857
       3    2220    2086     541
       3    1667    1476    1567
       3    1857    1774     544
       3    2230    2095     545
       3    1632    1477    1538
       3    1820    1752     548
       3    2420    2294     549
       3    2583    1478    1512
       3    2327     552    2326
       3    2607    2521    2310
       3    2641    2624    2610
       3    1987    1795     556
       3    2419    2312     557
       3    1836     558    1631
       3    1818    1753     560
       3    2212     561    2074
       3    1511     563    1451
       3    1855    1776     564
       3    2271    2213    2074
       3    1536     567    1452
       3    2428    2184     568
       3    2456    2215    2075
       3    1548     571    1488
       3    2052     572    1901
       3    2288    2264    2073
       3    1983    1793    1947
       3    2262    2119     580
       3    1721     941     951
       3     961     951     444
       3    1901    1788     576
       3    2507    2410     578
       3    2376    1983     574
       3     942     581     441
       3    1331     436     437
       3    1332    1146     434
       3    1422     993    1334
       3    1333    1147     432
       3    2467    1423    1138
       3    2038    1424    1137
       3    2497    1425    1136
       3    2656    1426    1135
       3    2666    1427    1134
       3    1338     407     408
       3    1339     405     406
       3    1341     401     402
       3    1342     399     400
       3    1343     397     398
       3    1344     395     396
       3    1329     394      13
       3    1848    1770     582
       3    2417    2272     583
       3    2381     585    2129
       3    2007     586    1922
       3    1957     587    1773
       3    1509     590    1420
       3    1505     591    1460
       3    1867     626    1663
       3    1731    1503    1627
       3    1581    1453    1335
       3    1428    1062    1336
       3    1583    1454    1337
       3    1429    1066    1067
       3    1430    1069    1070
       3    2389    2197     599
       3    2197    2043    1890
       3    1612     601    1425
       3    1588     602    1426
       3    1554     603    1427
       3    1661    1533     603
       3    1862    1639     637
       3    2476    1658    1506
       3    2445    1510    1658
       3    1510     607    1459
       3    1517     605    1456
       3    1506     606    1455
       3    1507     608    1462
       3    1504     609    1463
       3    1534     610    1464
       3    1555     611    1465
       3    1590     612    1418
       3    1871     612    1693
       3    1373     614     940
       3    1813    1747     615
       3    2586    2520    2299
       3    2614    2562     617
       3    2485    2251     585
       3    2462    2046    2391
       3    2516    1921    2492
       3    2458    2246    2377
       3    2386    2263     658
       3    2385    2263     625
       3    1875     627    1679
       3    1881     628    1696
       3    1888     629    1711
       3    1942    1783    1938
       3    2102    1942     630
       3    2245    2117    1940
       3    2130    2080     633
       3    2216    2081     634
       3    2217    2082     635
       3    2218    2083     636
       3    2236    2101     637
       3    2237    2101     670
       3    2524    2384     638
       3    2403    2265    2071
       3    2324    2144    1981
       3    2426    1981     674
       3    2402    2101    2237
       3    2384    2265     639
       3    2403    2071    2144
       3    2605    2543    2534
       3    2501     643    1866
       3    2504     644    1873
       3    2515    2424     644
       3    2140     646    2062
       3    1524    1379     647
       3    2447     648    2325
       3    2599    2563     649
       3    2621    2510     651
       3    2619    2617    2577
       3    2546     652    2479
       3    2622    2584    2597
       3    2527    2405     655
       3    2596    1690     660
       3    2635    2505    2561
       3    2453    2254    2380
       3    2379    2254     662
       3    1939     663    1675
       3    1674    1546     665
       3    1676    1371    1551
       3    1681    1375    1556
       3    1686    1377    1564
       3    1689    1385    1571
       3    1698    1489    1593
       3    1718    1593    1497
       3    1905    1728    1500
       3    1904    1733    1499
       3    1941    1734    1719
       3    1909    1767    1906
       3    2590    1909    1906
       3    1728    1718    1497
       3    1905    1500    1733
       3    1904    1499    1734
       3    2066    1719    1909
       3    2459    2054    2143
       3    2378     676    2143
       3    2676     711    2545
       3    2454     679    2313
       3    1804    1741     680
       3    1800    1745     681
       3    2418    2307     682
       3    2450    2206    2331
       3    1794     684    1790
       3    1784     685    1587
       3    1766     686     944
       3    2056    1910     687
       3    2436    2392    2407
       3    1384     692    1059
       3    1376     693    1061
       3    1374     694    1063
       3    1372     695    1065
       3    1369     696    1068
       3    1254     243     244
       3    1253     245     246
       3    1499    1252     706
       3    1719    1251     707
       3     953     250     251
       3     949     252     253
       3    1725    1492     709
       3    1969    1933    1605
       3    2511    2509     710
       3    2585    2277     712
       3    1835    1757     713
       3    1829    1760     714
       3    2478    2297     715
       3    2472    2332     716
       3    1683    1586     717
       3    1723    1716     959
       3    1723     952     832
       3    1966    1834    1727
       3    2486    2416    2079
       3    1591    1440     723
       3    1891    1779     724
       3    2267    2209    2069
       3    1713     726    1623
       3    2423    2193     728
       3    2127    2058    1920
       3    1623    1598    1502
       3    2044     732    1892
       3    2121    2107    1913
       3    1624    1487    1585
       3    1892    1778     736
       3    2390    2224    2094
       3    1640    1403    1543
       3    1833    1759     740
       3    2278    2239    2111
       3    1782    1387    1518
       3    1803    1744     744
       3    2369    2340     742
       3    2170     747    2014
       3    2604    2572     748
       3    2550     749    2468
       3    2640    2553    2538
       3    1812    1748     752
       3    2273    2242     753
       3    1850     754    1649
       3    1847    1771     756
       3    2273    2227    2115
       3    1528     759    1393
       3    1899    1787     760
       3    2281    2259    2090
       3    1650    1558    1406
       3    2430    2199     764
       3    2481    2290    2285
       3    1600    1568     767
       3    2031     768    1856
       3    2223    2085     769
       3    1668    1484    1568
       3    1856    1775     772
       3    2231    2096     773
       3    1635    1397    1539
       3    1821    1754     776
       3    2422    2293     777
       3    2582    1382    1514
       3    2329     780    2328
       3    2606    2522    2309
       3    2642    2623    2609
       3    1991    1799     784
       3    2421    2308     785
       3    1837     786    1634
       3    1822    1755     788
       3    2232     789    2097
       3    1513     791    1380
       3    1858    1777     792
       3    2268    2219    2097
       3    1537     795    1395
       3    2431    2188     796
       3    2059     797    1912
       3    1666    1566    1481
       3    2049     800    1898
       3    2123    2105    1912
       3    1622     803    1496
       3    1898    1786     804
       3    2432    2228    2091
       3    1651    1408    1559
       3    1845    1769     808
       3    2275    2243    2114
       3    1765    1391    1529
       3    1810    1750     812
       3    2643    2627     814
       3    2180     815    2025
       3    2446     816    2330
       3    2594     818    2541
       3    2671    2559    2541
       3    1801    1742     820
       3    2674    2317    2126
       3    1841     822    1642
       3    1830    1761     824
       3    2674    2109    2238
       3    1521     827    1388
       3    1609     828    1411
       3    1595     829    1466
       3    1575    1432     831
       3    1625     843    1608
       3    1625    1501     843
       3    1896     833    1729
       3    1615    1441     835
       3     959     255     952
       3    1614     836    1549
       3    1924    1735    1894
       3    1894    1735     837
       3    1948    1688    1592
       3    1592    1443     839
       3    1616    1442     840
       3    2072    1948     838
       3    1523     844    1386
       3    2201    2028     852
       3    2028    1843     848
       3    2076    1550    1893
       3    2139     850    2076
       3    2595    2542     857
       3    2444    2404     854
       3    2247     855    2047
       3    2490     856    2182
       3    1654    1409    1562
       3    2133     866    1963
       3    1604    1468     867
       3    1958    1570    1669
       3    1669    1570    1483
       3    2060     874    1965
       3    1607    1446     875
       3    2261    1962    2131
       3    2261    1949    2098
       3    1574    1417     879
       3    1636    1396     880
       3    1637    1381     884
       3    2460    2295    2368
       3    1541    1398     900
       3    1638    1398    1541
       3    2134     898    1967
       3    1573    1447     899
       3    2225    1926     905
       3    2132     902    1961
       3    1606    1415     903
       3    1926    1670    1569
       3    2414    1603    1619
       3    2287     909    2258
       3    2487     924    2173
       3    2638    2555    2540
       3    2564    2549    2544
       3    2598    2569     923
       3    2322    2138    1977
       3    2442    1977     926
       3    1525    1414     927
       3    1842     928    1780
       3    1519    1389     932
       3    2108     933    1973
       3      28       2      32
       3    1158      29     965
       3    1431    1158     504
       3     140       3     141
       3    1160     139    1058
       3    1161     136     137
       3    1162     134     135
       3    1163     132     133
       3    1164    1163     816
       3    1165     130    1050
       3    1166     128    1048
       3    1167     126    1046
       3    1168     124    1044
       3    1169     122    1042
       3    1170     120    1040
       3    1171     117     118
       3    1172     115     116
       3    1173     113     114
       3    1174     113    1173
       3    1175     111    1032
       3    1176     109    1030
       3    1177     107    1028
       3    1178     105    1026
       3    1179     103    1024
       3    1180     100     101
       3    1181      98      99
       3    1182      96      97
       3    1183    1182     748
       3    1184      94    1016
       3    1185      92    1014
       3    1186      90    1012
       3    1187      88    1010
       3    1188      86    1008
       3    1189      84    1006
       3    1190      81      82
       3    1191      79      80
       3    1192      77      78
       3    1193    1192     648
       3    1194      75    1000
       3    1195      73     999
       3    1196      71     998
       3    1197      69     997
       3    1198      67     996
       3    1199      65     995
       3    1200      62      63
       3    1201      60      61
       3    1202      58      59
       3    1203      58    1202
       3    1204      56     989
       3    1205      54     987
       3    1206      52     985
       3    1207      50     983
       3    1208      48     981
       3    1209      45      46
       3    1210      43      44
       3    1211      41      42
       3    1212    1211     520
       3    1213      39     973
       3    1214      37     971
       3    1215      35     969
       3    1216     966     504
       3     149       4     150
       3    1217     148    1053
       3    1432    1218    1217
       3    1219    1057     144
       3    1220     142     143
       3    1221    1220     828
       3    1222     203       5
       3    1223     201     202
       3    1224     199     200
       3    1225     197     198
       3    1226     195     196
       3    1227    1226     747
       3    1228     193    1011
       3    1229     191    1013
       3    1230     189    1015
       3    1231     187    1017
       3    1232     184     185
       3    1233     182     183
       3    1234     180     181
       3    1235     178     179
       3    1236     176     177
       3    1237     176    1236
       3    1238     174    1029
       3    1239     172    1031
       3    1240     170    1033
       3    1241     168    1035
       3    1242     165     166
       3    1243     163     164
       3    1244     161     162
       3    1245     159     160
       3    1246    1245     815
       3    1247     157    1045
       3    1248     155    1047
       3    1249     153    1049
       3    1250     151    1051
       3    1854     210       6
       3     944     209     210
       3     957     207     208
       3     962     204     205
       3    1251     249       7
       3    1252     247     248
       3    1253     246     705
       3    1254     244     704
       3    1255     242     703
       3    1756    1256     240
       3    2663    1257     238
       3    1258     236     700
       3    2662    1259     234
       3    1260     232     698
       3    2677     230     697
       3    1433     228    1068
       3    1434     226    1065
       3    1435     224     694
       3    1436     222     693
       3    1437     220    1059
       3     217     218     691
       3     215     216     690
       3     213     214     689
       3     211     212     688
       3     952     255     256
       3    1404     253     254
       3     960     251     252
       3     960     953     251
       3     310       9     311
       3    1261     308     309
       3    1262     306     307
       3    1263     304     305
       3    1264     302     303
       3    1265    1264     924
       3    1266     300    1085
       3    1267     298    1084
       3    1268     296    1086
       3    1269     294    1109
       3    1270     291     292
       3    1271     289     290
       3    1272     287     288
       3    1273     285     286
       3    1274     283     284
       3    1275     283    1274
       3    1276     281    1106
       3    1277     279    1105
       3    1278     277    1104
       3    1279     275    1096
       3    1280     272     273
       3    1281     270     271
       3    1282     268     269
       3    1283     266     267
       3    1284    1283     856
       3    1285     264    1144
       3    1286     262    1101
       3    1287     260    1100
       3    1288     258    1124
       3     319      10     320
       3    1289     318    1081
       3    1438    1289     939
       3    1439    1080     938
       3    1292     312     313
       3    1293    1292     936
       3    1294    1131     383
       3    1295     382    1131
       3    1296     380    1130
       3    1297     378    1129
       3    1440    1298    1297
       3    1441    1299    1128
       3    1442    1127     840
       3    1443    1125     839
       3    1444    1072     847
       3    1303    1077     366
       3    1304     364     365
       3    1305     363     364
       3    1306     361     362
       3    1307     359     360
       3    1308    1122     357
       3    1445    1309    1122
       3    1446    1121     875
       3    1311     351     352
       3    1312     350     351
       3    1313     348     349
       3    1314     346     347
       3    1315     344     345
       3    1316     342     343
       3    1447    1317    1117
       3    1318     338     339
       3    1319     338    1318
       3    1320     336    1089
       3    1321     333     334
       3    1322     331     332
       3    1323     329     330
       3    1324     327     328
       3    1325     325     326
       3    1326     325    1325
       3    1327     323    1083
       3    1328    1082     939
       3     954     943     384
       3     963     954     385
       3     940     387     388
       3     955     390     945
       3     945     390      12
       3    1329    1157     394
       3    1330     393    1157
       3     964     438      14
       3    1331    1145     436
       3    1332     435    1145
       3    1333     433    1146
       3    1334     431    1147
       3    1335     429     993
       3    1336     427    1060
       3    1337    1064     424
       3    2672    1448    1075
       3    2673    1449    1074
       3    1340    1126     403
       3    1341    1153     401
       3    1342    1154     399
       3    1343    1155     397
       3    1344    1156     395
       3     948     445      15
       3     961     445     948
       3    1405     440     581
       3     479      16     480
       3    1345     477     478
       3    1346     475     476
       3    1450    1346     511
       3    2016    1139     515
       3    1349     968     519
       3    1350     469     967
       3    1351     467     970
       3    1352     465     972
       3    1353     463     974
       3    1354     976     461
       3    1355     978     459
       3    1356     980     457
       3    1357     982     455
       3    1358     984     453
       3    1359     452     984
       3    1360     450     451
       3    1361     448     449
       3    1362     446     447
       3    1363    1142     483
       3    1364     481     482
       3    1365    1364     507
       3    1076     946       8
       3     440     441     581
       3     940     614     387
       3    2669     388     389
       3     942     941     580
       3     951     941     443
       3    1763     942     580
       3     942     441     442
       3     954     384     385
       3    1379    1294     943
       3    1766     944     687
       3     958     944     686
       3    1986    1133    1132
       3     955     945     613
       3    1501     946     843
       3    1501     952     946
       3    1502     947     962
       3    1222     947     731
       3     990     948      15
       3    1984     948     571
       3    1492     949     719
       3    1725     949    1492
       3    1985    1808    1722
       3     950     205     206
       3    1724    1721     951
       3     951     443     444
       3     952     256     946
       3    1834    1716    1723
       3    1767     953     708
       3    2661     953     707
       3     963     385     386
       3     954     647     943
       3    2669     613    1373
       3     955     389     390
       3     956      14     439
       3    1405     439     440
       3     957     718     207
       3     958     957     208
       3     958     208     209
       3    1587     685    1491
       3    1716    1404     959
       3     959     254     255
       3     960     708     953
       3     960     252     949
       3     961     444     445
       3    1793     571    1671
       3     962     205     950
       3    1502     962     727
       3     963     386     614
       3    1485     963     614
       3    1480    1366     964
       3     964      14     956
       3    1158     965     504
       3     965      29      28
       3    1216     504     965
       3     966      33      34
       3    2023     970    1350
       3     967     469     470
       3    1348     472     473
       3    2554    1349     519
       3    1710    1611     504
       3     969      35      36
       3    1392    1351     527
       3     970     467     468
       3    1762    1214     512
       3     971      37      38
       3    1410    1352     531
       3     972     465     466
       3    1743    1213     516
       3     973      39      40
       3    1353     974     535
       3     974     463     464
       3    1210     975      43
       3    1749     975    1210
       3    1476    1355     976
       3     976     460     461
       3    1209     977      45
       3    1772     977    1209
       3    1477    1356     978
       3     978     458     459
       3    1208     981     532
       3    1789     979    1208
       3    1478    1357     980
       3     980     456     457
       3    1789    1208     532
       3     981      48      49
       3    2647     551    2624
       3     982     454     455
       3    2358     536    2198
       3     983      50      51
       3    2010    1359     555
       3     984     452     453
       3    2579     540    2187
       3     985      52      53
       3    1451     986     559
       3    1451    1361     986
       3    1774    1205     544
       3     987      54      55
       3    1452     988     563
       3    1452    1362     988
       3    1752    1204     548
       3     989      56      57
       3     990      15     446
       3    1488     990     567
       3    1201     991      60
       3    1740     991    1201
       3    1200     992      62
       3    1753     992    1200
       3    1453    1060    1335
       3     993     429     430
       3    1199     995     564
       3    1776     994    1199
       3    1776    1199     564
       3     995      65      66
       3    2347     568    2184
       3     996      67      68
       3    2659     572    2204
       3     997      69      70
       3    1788    1196     576
       3     998      71      72
       3    1770    1195     582
       3     999      73      74
       3    1747    1194     615
       3    1000      75      76
       3    1191    1001      79
       3    1745    1001    1191
       3    1190    1002      81
       3    1760    1002    1190
       3    1487    1003    1222
       3    1223    1003     735
       3    1189    1006     724
       3    1779    1004    1189
       3    1403    1005    1223
       3    1224    1005     739
       3    1779    1189     724
       3    1006      84      85
       3    1387    1007    1224
       3    1225    1007     743
       3    2341     728    2193
       3    1008      86      87
       3    2014    1009    1225
       3    1226    1009     747
       3    2574     732    2195
       3    1010      88      89
       3    2024    1013    1228
       3    1011     193     194
       3    1778    1186     736
       3    1012      90      91
       3    1393    1229     755
       3    1013     191     192
       3    1759    1185     740
       3    1014      92      93
       3    1406    1230     759
       3    1015     189     190
       3    1744    1184     744
       3    1016      94      95
       3    1493    1231     763
       3    1017     187     188
       3    1181    1018      98
       3    1748    1018    1181
       3    1493    1019    1231
       3    1232    1019     767
       3    1180    1020     100
       3    1771    1020    1180
       3    1484    1021    1232
       3    1233    1021     771
       3    1179    1024     760
       3    1787    1022    1179
       3    1397    1023    1233
       3    1234    1023     775
       3    1787    1179     760
       3    1024     103     104
       3    1382    1025    1234
       3    1235    1025     779
       3    2360     764    2199
       3    1026     105     106
       3    2646     779    2623
       3    2646    1236    1027
       3    2578     768    2190
       3    1028     107     108
       3    1380    1238     787
       3    1029     174     175
       3    1775    1176     772
       3    1030     109     110
       3    1395    1239     791
       3    1031     172     173
       3    1754    1175     776
       3    1032     111     112
       3    1481    1240     795
       3    1033     170     171
       3    1172    1034     115
       3    1738    1034    1172
       3    1241    1035     799
       3    1035     168     169
       3    1171    1036     117
       3    1755    1036    1171
       3    1496    1037    1241
       3    1242    1037     803
       3    1170    1040     792
       3    1777    1038    1170
       3    1408    1039    1242
       3    1243    1039     807
       3    1777    1170     792
       3    1040     120     121
       3    1391    1041    1243
       3    1244    1041     811
       3    2350     796    2188
       3    1042     122     123
       3    2025    1043    1244
       3    1245    1043     815
       3    2660     800    2200
       3    1044     124     125
       3    2015    1047    1247
       3    1045     157     158
       3    1786    1167     804
       3    1046     126     127
       3    1388    1248     823
       3    1047     155     156
       3    1769    1166     808
       3    1048     128     129
       3    1400    1249     827
       3    1049     153     154
       3    1750    1165     812
       3    1050     130     131
       3    1250    1051     831
       3    1051     151     152
       3    1162    1052     134
       3    1742    1052    1162
       3    1217    1053     831
       3    1053     148     149
       3    1161    1054     136
       3    1761    1054    1161
       3    1466    1055     830
       3    1055     145     146
       3    1160    1058     828
       3    1708     828    1609
       3    1411    1057     829
       3    1057     143     144
       3    1058     139     140
       3    1058     140     141
       3    1436    1059     221
       3    1436    1384    1059
       3    1582    1428    1336
       3    1060     427     428
       3    1435    1061     223
       3    1435    1376    1061
       3    1454    1064    1337
       3    1062     425     426
       3    1434    1063     225
       3    1434    1374    1063
       3    1579    1429    1067
       3    1064     423     424
       3    1433    1065     227
       3    1433    1372    1065
       3    1919    1430    1070
       3    1066     421     422
       3    1067     422     423
       3    1579    1064    1454
       3    2677    1068     229
       3    2677    1369    1068
       3    2467    1138    1069
       3    1069     419     420
       3    1070     420     421
       3    1919    1070    1066
       3    1467    1303    1071
       3    1071     367     368
       3    1301     370     371
       3    1444    1302    1072
       3    1471    1455    1340
       3    1455    1126    1340
       3    1449    1339    1074
       3    1456    1073    1339
       3    1152     409     410
       3    1448    1338    1075
       3    1076     843     946
       3    1076       8     257
       3    2477    1304     855
       3    1077     365     366
       3    1261    1078     936
       3    1078     310     311
       3    1079     313     314
       3    1291     314     315
       3    1080     315     316
       3    1290     316     317
       3    1081     318     319
       3    1081     319     320
       3    1328     939    1081
       3    1082     321     322
       3    1709    1610     939
       3    1083     323     324
       3    1390    1267     916
       3    1084     298     299
       3    2026    1266     920
       3    1085     300     301
       3    1407    1268     912
       3    1086     296     297
       3    1768    1087    1321
       3    1322    1087     919
       3    1320    1089     911
       3    1785    1088    1320
       3    1785    1320     911
       3    1089     336     337
       3    1272    1090     287
       3    1383    1090    1272
       3    1271    1091     289
       3    1398    1091    1271
       3    2657     892    2587
       3    1274    1092     888
       3    1457    1315    1093
       3    1093     345     346
       3    1736    1094    1313
       3    1314    1094     891
       3    1279    1095     274
       3    1494    1095    1279
       3    1279    1096     872
       3    1096     275     276
       3    1409    1097    1280
       3    1281    1097     864
       3    1308     871    1122
       3    1098     358     359
       3    1458    1099     863
       3    1458    1307    1099
       3    1402    1287     844
       3    1100     260     261
       3    1386    1286     848
       3    1101     262     263
       3    1394    1102    1281
       3    1282    1102     860
       3    2027    1103    1282
       3    1283    1103     856
       3    1483    1278     876
       3    1104     277     278
       3    1396    1277     880
       3    1105     279     280
       3    1381    1276     884
       3    1106     281     282
       3    1270    1107     291
       3    1482    1107    1270
       3    1269    1109     908
       3    1495    1108    1269
       3    1495    1269     908
       3    1109     294     295
       3    1263    1110     304
       3    2017    1110    1263
       3    1262    1111     306
       3    1389    1111    1262
       3    1401    1112    1261
       3    1262    1112     932
       3    1324    1113     327
       3    1414    1113     927
       3    1323    1114     329
       3    2569    1114     923
       3    1322    1115     331
       3    1746    1115    1322
       3    1317     340     341
       3    1415    1116     903
       3    1117     341     342
       3    1447    1117     899
       3    1118     343     344
       3    1416    1118     895
       3    1119     349     350
       3    1751    1119    1312
       3    1310     353     354
       3    1417    1311    1120
       3    1309     355     356
       3    1446    1310    1121
       3    1308     357     358
       3    1445    1122     871
       3    1123     362     363
       3    1412    1123     859
       3    1288    1124     836
       3    1124     258     259
       3    1300     372     373
       3    1443    1301    1125
       3    1459    1153    1341
       3    1340     403     404
       3    1299     374     375
       3    1442    1300    1127
       3    1298     376     377
       3    1441    1128     835
       3    1296    1130     713
       3    1297    1129     723
       3    1295    1131     680
       3    1757    1296     713
       3    1294     383      11
       3    1741    1295     680
       3    1986    1378    1133
       3    1132     391     392
       3    1133     945      12
       3    1133      12     391
       3    1151     411     412
       3    1427    1152    1134
       3    1150     413     414
       3    1426    1151    1135
       3    1149     415     416
       3    1425    1150    1136
       3    1148     417     418
       3    1424    1149    1137
       3    1423    1148    1138
       3    1138     418     419
       3    1347     474     475
       3    2016    1348    1139
       3    1479    1363    1140
       3    1140       0      31
       3    1399    1141    1345
       3    1346    1141     511
       3    1421    1364    1142
       3    1142     482     483
       3    1345    1143     507
       3    1143     479     480
       3    2028    1285     852
       3    1144     264     265
       3    1460    1146    1332
       3    1145     435     436
       3    1461    1147    1333
       3    1146     433     434
       3    1577    1422    1334
       3    1147     431     432
       3    1148    1137     417
       3    1148     418    1138
       3    1149    1136     415
       3    1149     416    1137
       3    1150    1135     413
       3    1150     414    1136
       3    1151    1134     411
       3    1151     412    1135
       3    1152    1075     409
       3    1152     410    1134
       3    1462    1154    1342
       3    1153     400     401
       3    1463    1155    1343
       3    1154     398     399
       3    1464    1156    1344
       3    1155     396     397
       3    1465    1157    1329
       3    1156      13     395
       3    1578    1418    1330
       3    1157     393     394
       3    1431    1159    1158
       3    1158      30      29
       3    1159    1140      31
       3    1159      30    1158
       3    1160    1056     138
       3    1160     138     139
       3    1161     137    1056
       3    1761    1161     824
       3    1162     135    1054
       3    1742    1162     820
       3    1163     133    1052
       3    2570    1164     816
       3    1164    1050     131
       3    1164     132    1163
       3    1165    1048     129
       3    1165     129     130
       3    1166    1046     127
       3    1166     127     128
       3    1167    1044     125
       3    1167     125     126
       3    1168    1042     123
       3    1168     123     124
       3    1169    1040     121
       3    1169     121     122
       3    1170    1038     119
       3    1170     119     120
       3    1171     118    1038
       3    1755    1171     788
       3    1172     116    1036
       3    1738    1172     784
       3    1173     114    1034
       3    1737    1174     780
       3    1174    1032     112
       3    1174     112     113
       3    1175    1030     110
       3    1175     110     111
       3    1176    1028     108
       3    1176     108     109
       3    1177    1026     106
       3    1177     106     107
       3    1178    1024     104
       3    1178     104     105
       3    1179    1022     102
       3    1179     102     103
       3    1180     101    1022
       3    1771    1180     756
       3    1181      99    1020
       3    1748    1181     752
       3    1182      97    1018
       3    2572    1183     748
       3    1183    1016      95
       3    1183      96    1182
       3    1184    1014      93
       3    1184      93      94
       3    1185    1012      91
       3    1185      91      92
       3    1186    1010      89
       3    1186      89      90
       3    1187    1008      87
       3    1187      87      88
       3    1188    1006      85
       3    1188      85      86
       3    1189    1004      83
       3    1189      83      84
       3    1190      82    1004
       3    1760    1190     714
       3    1191      80    1002
       3    1745    1191     681
       3    1192      78    1001
       3    2568    1193     648
       3    1193    1000      76
       3    1193      77    1192
       3    1194     999      74
       3    1194      74      75
       3    1195     998      72
       3    1195      72      73
       3    1196     997      70
       3    1196      70      71
       3    1197     996      68
       3    1197      68      69
       3    1198     995      66
       3    1198      66      67
       3    1199     994      64
       3    1199      64      65
       3    1200      63     994
       3    1753    1200     560
       3    1201      61     992
       3    1740    1201     556
       3    1202      59     991
       3    1739    1203     552
       3    1203     989      57
       3    1203      57      58
       3    1204     987      55
       3    1204      55      56
       3    1205     985      53
       3    1205      53      54
       3    1206     983      51
       3    1206      51      52
       3    1207     981      49
       3    1207      49      50
       3    1208     979      47
       3    1208      47      48
       3    1209      46     979
       3    1772    1209     528
       3    1210      44     977
       3    1749    1210     524
       3    1211      42     975
       3    2571    1212     520
       3    1212     973      40
       3    1212      41    1211
       3    1213     971      38
       3    1213      38      39
       3    1214     969      36
       3    1214      36      37
       3    1215     966      34
       3    1215      34      35
       3    1216     965      32
       3    1216      33     966
       3    1432    1217     831
       3    1218     830    1055
       3    1218    1055     146
       3    1218     147    1217
       3    1219     145    1055
       3    1466    1219    1055
       3    1220     143    1057
       3    1221     828    1058
       3    1221    1058     141
       3    1221     142    1220
       3    1222       5     947
       3    1487    1222     731
       3    1223     202    1003
       3    1403    1223     735
       3    1224     200    1005
       3    1387    1224     739
       3    1225     198    1007
       3    2014    1225     743
       3    1226     196    1009
       3    2553    1227     747
       3    1227    1011     194
       3    1227     195    1226
       3    1228     192     193
       3    1228    1011     751
       3    1229     190     191
       3    1229    1013     755
       3    1230     188     189
       3    1230    1015     759
       3    1231     186     187
       3    1231    1017     763
       3    1232     185    1019
       3    1484    1232     767
       3    1233     183    1021
       3    1397    1233     771
       3    1234     181    1023
       3    1382    1234     775
       3    1235     179    1025
       3    2646    1235     779
       3    1236     177    1027
       3    2011    1237     783
       3    1237    1029     175
       3    1237     175     176
       3    1238     173     174
       3    1238    1029     787
       3    1239     171     172
       3    1239    1031     791
       3    1240     169     170
       3    1240    1033     795
       3    1241     167     168
       3    1496    1241     799
       3    1242     166    1037
       3    1408    1242     803
       3    1243     164    1039
       3    1391    1243     807
       3    1244     162    1041
       3    2025    1244     811
       3    1245     160    1043
       3    2559    1246     815
       3    1246    1045     158
       3    1246     159    1245
       3    1247     156     157
       3    1247    1045     819
       3    1248     154     155
       3    1248    1047     823
       3    1249     152     153
       3    1249    1049     827
       3    1250     150     151
       3    1250     831    1053
       3    1251     706     249
       3    2661    1251       7
       3    1252     705     247
       3    1252     248     706
       3    1500    1253     705
       3    1253     704     245
       3    1497    1254     704
       3    1254     703     243
       3    1489    1255     703
       3    1756    1255     702
       3    1385    1256     702
       3    2663    1256     701
       3    1377    1257     701
       3    2664    1257    1377
       3    1375    1258     700
       3    2662    1258    1375
       3    1371    1259     699
       3    2655    1259    1371
       3    1370    1260     698
       3    2652    1260    1370
       3    1261     309    1078
       3    1401    1261     936
       3    1262     307    1112
       3    1389    1262     932
       3    1263     305    1111
       3    2017    1263     928
       3    1264     303    1110
       3    2555    1265     924
       3    1265    1085     301
       3    1265     302    1264
       3    1266    1084     299
       3    1266     299     300
       3    1267     297     298
       3    1267    1084     916
       3    1268     295     296
       3    1268    1086     912
       3    1269    1108     293
       3    1269     293     294
       3    1270     292    1108
       3    1482    1270     904
       3    1271     290    1107
       3    1398    1271     900
       3    1272     288    1091
       3    1383    1272     896
       3    1273     286    1090
       3    2657    1273     892
       3    1274     284    1092
       3    2012    1275     888
       3    1275    1106     282
       3    1275     282     283
       3    1276    1105     280
       3    1276     280     281
       3    1277    1104     278
       3    1277     278     279
       3    1278    1096     276
       3    1278     276     277
       3    1279     274     275
       3    1494    1279     872
       3    1280     273    1095
       3    1409    1280     868
       3    1281     271    1097
       3    1394    1281     864
       3    1282     269    1102
       3    2027    1282     860
       3    1283     267    1103
       3    2560    1284     856
       3    1284    1144     265
       3    1284     266    1283
       3    1285    1101     263
       3    1285     263     264
       3    1286    1100     261
       3    1286     261     262
       3    1287     259     260
       3    1287    1100     844
       3    1486    1288     836
       3    1288    1076     257
       3    1438    1290    1289
       3    1289     317     318
       3    1290    1080     316
       3    1290     317    1289
       3    1291    1079     314
       3    1291     315    1080
       3    1293     936    1078
       3    1292     313    1079
       3    1293    1078     311
       3    1293     312    1292
       3    1294      11     943
       3    1379     943     647
       3    1295    1130     381
       3    1295     381     382
       3    1296    1129     379
       3    1296     379     380
       3    1440    1297     723
       3    1298     835    1128
       3    1298    1128     376
       3    1298     377    1297
       3    1299    1127     374
       3    1299     375    1128
       3    1300    1125     372
       3    1300     373    1127
       3    1301    1072     370
       3    1301     371    1125
       3    1302    1071     368
       3    1302     369    1072
       3    1303     367    1071
       3    1467    1071     851
       3    1305    1304     859
       3    1304     365    1077
       3    1305     364    1304
       3    1305     859    1123
       3    1306     362    1123
       3    1306     863    1099
       3    1307     360    1099
       3    1307     867    1098
       3    1308     358    1098
       3    1468    1308    1098
       3    1309    1121     355
       3    1309     356    1122
       3    1310    1120     353
       3    1310     354    1121
       3    1312    1311     883
       3    1311     352    1120
       3    1312     351    1311
       3    1751    1312     883
       3    1313     349    1119
       3    1736    1313     887
       3    1314     347    1094
       3    1314     891    1093
       3    1315     345    1093
       3    1315     895    1118
       3    1316     343    1118
       3    1316     899    1117
       3    1317    1116     340
       3    1317     341    1117
       3    1318     339    1116
       3    2484     907    1886
       3    1319    1089     337
       3    1319     337     338
       3    1320    1088     335
       3    1320     335     336
       3    1321     334    1088
       3    1768    1321     915
       3    1322     332    1087
       3    1746    1322     919
       3    1323     330    1115
       3    1323     923    1114
       3    1324     328    1114
       3    1324     927    1113
       3    1325     326    1113
       3    1758    1326     931
       3    1326    1083     324
       3    1326     324     325
       3    1327    1082     322
       3    1327     322     323
       3    1328    1081     320
       3    1328     321    1082
       3    1329      13    1156
       3    1580    1156    1464
       3    1330    1132     392
       3    1330     392     393
       3    1366    1331     437
       3    1419    1331    1366
       3    1332     434     435
       3    1469    1145    1420
       3    1333     432     433
       3    1470    1146    1460
       3    1334     993     430
       3    1334     430     431
       3    1335     428     429
       3    1581     993    1422
       3    1336     426     427
       3    1582    1060    1453
       3    1337     425    1062
       3    1583    1062    1428
       3    1338    1074     407
       3    1338     408    1075
       3    1339    1073     405
       3    1339     406    1074
       3    1340     404    1073
       3    1471    1073    1456
       3    1341     402    1126
       3    1472    1126    1455
       3    1342     400    1153
       3    1473    1153    1459
       3    1343     398    1154
       3    1474    1154    1462
       3    1344     396    1155
       3    1584    1155    1463
       3    1345     478    1143
       3    1399    1345     507
       3    1346     476    1141
       3    1450    1347    1346
       3    1347    1139     474
       3    1347     475    1346
       3    1348     968     472
       3    1348     473    1139
       3    1349     967     470
       3    1349     471     968
       3    1350     468     469
       3    1350     967     523
       3    1351     466     467
       3    1351     970     527
       3    1352     464     465
       3    1352     972     531
       3    1475    1353     535
       3    1475    1354    1353
       3    1354     539     976
       3    1354     462    1353
       3    1355     460     976
       3    1476     976     539
       3    1356     458     978
       3    1477     978     543
       3    1357     456     980
       3    1478     980     547
       3    1358     454     982
       3    2647     982     551
       3    2010    1360    1359
       3    1359     451     452
       3    1360     451    1359
       3    1360     559     986
       3    1361     449     986
       3    1361     563     988
       3    1362     447     988
       3    1362     567     990
       3    1363       0    1140
       3    1479    1140     505
       3    1365     507    1143
       3    1364     482    1142
       3    1365    1143     480
       3    1365     481    1364
       3    1366     437     438
       3    1366     438     964
       3    1437    1367     219
       3    1490    1367     692
       3    1368     217     691
       3    1717     691    1594
       3    2658    1369     697
       3    1675    1547    1369
       3    1870    1370    1674
       3    2652    1370     697
       3    1676    1546    1371
       3    2655    1371     698
       3    1547    1372     696
       3    1677    1552    1372
       3    1720     646    1629
       3    1720    1629    1485
       3    1552    1374     695
       3    1682    1557    1374
       3    1681    1551    1375
       3    2662    1375     699
       3    1557    1376     694
       3    1687    1565    1376
       3    1686    1556    1377
       3    2664    1377     700
       3    1871    1378     612
       3    1378     613     945
       3    1629    1524     647
       3    1379     680    1294
       3    1634    1513    1380
       3    1380     791    1031
       3    1637    1515    1381
       3    1381     880    1105
       3    1635     775    1397
       3    1382     779    1025
       3    1638     896    1398
       3    1383     892    1090
       3    1565    1384     693
       3    1690    1572    1384
       3    1689    1564    1385
       3    1385     701    1256
       3    1655    1523    1386
       3    1386     844    1100
       3    1640    1518     739
       3    1387     743    1007
       3    1642    1521    1388
       3    1388     827    1049
       3    1644     932    1401
       3    1389     928    1111
       3    1652    1530    1390
       3    1390     912    1086
       3    1651    1529     807
       3    1391     811    1041
       3    1647    1527    1392
       3    1392     531     972
       3    1649    1528    1393
       3    1393     759    1015
       3    1654    1531     864
       3    1394     860    1102
       3    1633     791    1513
       3    1395     795    1033
       3    1636     880    1515
       3    1396     876    1104
       3    1668    1539     771
       3    1397     775    1023
       3    1670    1541     900
       3    1398     896    1091
       3    1544     507    1421
       3    1399     511    1141
       3    1643    1575    1400
       3    1400     831    1051
       3    1545     936    1413
       3    1401     932    1112
       3    1656    1402     844
       3    1402     836    1124
       3    1543    1403     735
       3    1403     739    1005
       3    1404     719     253
       3    1404     254     959
       3    1773    1405     581
       3    1945    1405    1773
       3    1650    1406     759
       3    1406     763    1017
       3    1653    1407     912
       3    1407     908    1109
       3    1559    1408     803
       3    1408     807    1039
       3    1562    1409     868
       3    1409     864    1097
       3    1648    1410     531
       3    1410     535     974
       3    1609    1411     829
       3    1411     828    1220
       3    2035    1535     859
       3    1412     863    1306
       3    1545    1413     937
       3    1413     936    1292
       3    2034    1525     927
       3    1414     931    1325
       3    1692    1606     903
       3    1415     907    1318
       3    1645    1542     895
       3    1416     899    1316
       3    1691    1574     879
       3    1417     883    1311
       3    1590    1418    1578
       3    1986    1418     612
       3    1509    1419     589
       3    1509    1420    1419
       3    1469    1420     590
       3    1420    1331    1419
       3    1544    1421     506
       3    1421     507    1364
       3    1577    1532    1422
       3    1581    1422     593
       3    2517     598    2463
       3    2038    1423     599
       3    1890    1424     599
       3    2497    1424     600
       3    1612    1425     600
       3    2656    1425     601
       3    1588    1426     601
       3    2666    1426     602
       3    1554    1427     602
       3    2672    1427     603
       3    1589    1428    1582
       3    1583    1428     595
       3    1783    1429     596
       3    1919    1429     597
       3    2068    1430     597
       3    2467    1430     598
       3    1611    1431     504
       3    1431     505    1159
       3    1575     831    1400
       3    1432     830    1218
       3    1433     227     228
       3    1433     696    1372
       3    1434     225     226
       3    1434     695    1374
       3    1435     223     224
       3    1435     694    1376
       3    1436     221     222
       3    1436     693    1384
       3    1437     219     220
       3    1437     692    1367
       3    1610    1438     939
       3    1438     938    1290
       3    1596    1439     938
       3    1439     937    1291
       3    2013    1591     723
       3    1440     835    1298
       3    1704    1615     835
       3    1441     840    1299
       3    1616     840    1615
       3    1442     839    1300
       3    1707    1592     839
       3    1443     847    1301
       3    1688    1550     847
       3    1444     851    1302
       3    1703    1617     871
       3    1445     875    1309
       3    1706     875    1617
       3    1446     879    1310
       3    1672    1573     899
       3    1447     903    1317
       3    1533    1448     603
       3    2673    1448    1533
       3    1517    1449     604
       3    1517    1456    1449
       3    1641     511    1399
       3    1450     515    1347
       3    1631    1511    1451
       3    1451     563    1361
       3    1630     563    1511
       3    1452     567    1362
       3    1581    1553    1453
       3    1582    1453     594
       3    1613    1454     595
       3    1579    1454     596
       3    1506    1455    1471
       3    1472    1455     606
       3    1471    1456     605
       3    1456    1339    1449
       3    1522    1457     891
       3    1457     895    1315
       3    1664    1563     863
       3    1458     867    1307
       3    1510    1459    1472
       3    1473    1459     607
       3    1505    1460    1469
       3    1470    1460     591
       3    1503    1461    1470
       3    1577    1461     592
       3    1507    1462    1473
       3    1474    1462     608
       3    1504    1463    1474
       3    1584    1463     609
       3    1584    1534    1464
       3    1580    1464     610
       3    1580    1555    1465
       3    1578    1465     611
       3    1595    1466     830
       3    1466     829    1219
       3    1662    1526     851
       3    1467     855    1303
       3    1685    1604     867
       3    1468     871    1308
       3    1469    1332    1145
       3    1505    1469     590
       3    1470    1333    1146
       3    1503    1470     591
       3    1471    1340    1073
       3    1506    1471     605
       3    1472    1341    1126
       3    1510    1472     606
       3    1473    1342    1153
       3    1507    1473     607
       3    1474    1343    1154
       3    1504    1474     608
       3    1620     535    1560
       3    1475     539    1354
       3    1567    1476     539
       3    1476     543    1355
       3    1667    1538     543
       3    1477     547    1356
       3    1632     547    1477
       3    1478     551    1357
       3    1597    1479     505
       3    1479     506    1363
       3    1508    1480    1498
       3    1480     589    1419
       3    1666    1481     795
       3    1481     799    1035
       3    1569    1482     904
       3    1482     900    1107
       3    1669    1483     876
       3    1483     872    1096
       3    1568    1484     767
       3    1484     771    1021
       3    1485     647     963
       3    1485     614    1373
       3    1735    1608    1614
       3    1486     843    1076
       3    1585    1487     731
       3    1487     735    1003
       3    1659     567    1536
       3    1488     571     948
       3    1698    1571    1489
       3    1489     702    1255
       3    1572    1490     692
       3    1699    1594    1490
       3    1684    1586    1491
       3    1491     718     957
       3    1716    1605     719
       3    2205    2054     708
       3    1621     763    1558
       3    1493     767    1019
       3    1602     872    1570
       3    1494     868    1095
       3    1619     908    1561
       3    1495     904    1108
       3    1601     799    1566
       3    1496     803    1037
       3    1497     703    1254
       3    1728    1497     704
       3    1498     964     956
       3    1508    1498     588
       3    1499     705    1252
       3    1734    1499     706
       3    1500     704    1253
       3    1733    1500     705
       3    1729    1576    1625
       3    1501     832     952
       3    1623    1502     727
       3    1502     731     947
       3    1503     592    1461
       3    1627    1503     591
       3    1626    1504     608
       3    1732    1504    1626
       3    1665    1505     590
       3    1860    1627     591
       3    1726    1506     605
       3    2476    1506    1726
       3    1657    1507     607
       3    1859    1626     608
       3    1508     589    1480
       3    1730    1508     588
       3    1628    1509     589
       3    1877    1665     590
       3    1658    1510     606
       3    2445    1657    1510
       3    1805    1511    1631
       3    1630    1536    1452
       3    2575     546    2366
       3    2612     550    2610
       3    1806    1513    1634
       3    1633    1537    1395
       3    2576     774    2367
       3    2613     778    2609
       3    1807    1515    1637
       3    1636    1540    1396
       3    2588     897    2319
       3    2626    2529     892
       3    1639    1517     604
       3    1862    1726    1517
       3    1814    1518     738
       3    1814    1782    1518
       3    1817    1519     933
       3    1817    1780    1519
       3    1816    1520     510
       3    1816    1781    1520
       3    1815    1521    1642
       3    1694    1643     826
       3    2033    1863    1522
       3    1522     895    1457
       3    1823    1523    1655
       3    1656    1523     845
       3    1914    1524    1629
       3    1524     680    1379
       3    2034    1864    1525
       3    1525     931    1414
       3    1880    1526    1662
       3    1526     855    1467
       3    1824    1527    1647
       3    1648    1527     530
       3    1825    1528    1649
       3    1650    1528     758
       3    1826    1529     806
       3    1826    1765    1529
       3    1827    1530    1652
       3    1653    1530     913
       3    1828    1531     865
       3    1828    1764    1531
       3    1867    1663    1532
       3    1532     593    1422
       3    1865    1639    1533
       3    2673    1533     604
       3    1943     609    1732
       3    1866    1660    1534
       3    2035    1868    1535
       3    1535     863    1412
       3    1951    1536    1630
       3    1659    1548    1488
       3    1950    1537    1633
       3    1666    1537     794
       3    1937    1538     542
       3    1937    1632    1538
       3    1936    1539     770
       3    1936    1635    1539
       3    1949    1540    1636
       3    1669    1540     877
       3    1935    1541     901
       3    1935    1638    1541
       3    2315    1542    1645
       3    1542     899    1416
       3    1624    1543     735
       3    1934    1543     734
       3    1917    1544     506
       3    1917    1641    1544
       3    1918    1545     937
       3    1918    1644    1545
       3    1546     698    1371
       3    1940    1674     665
       3    1677    1547     663
       3    1547     696    1369
       3    1960    1548    1659
       3    1671    1548     570
       3    1614    1608    1486
       3    1549     836    1402
       3    1893    1550    1688
       3    1550     851    1444
       3    1551     699    1375
       3    1676    1551     666
       3    1682    1552     662
       3    1552     695    1372
       3    1875    1679    1553
       3    1553     594    1453
       3    1680    1554     602
       3    1874    1661    1554
       3    1660    1555     610
       3    1873    1678    1555
       3    1681    1556     667
       3    1556     700    1377
       3    1557     694    1374
       3    1687    1557     661
       3    1621    1600    1493
       3    1558     763    1406
       3    1622    1496    1601
       3    1932    1559     802
       3    1620    1599    1475
       3    1560     535    1410
       3    1619    1603    1495
       3    1561     908    1407
       3    1618    1494    1602
       3    1931    1562     869
       3    2036    1563    1664
       3    1563     867    1458
       3    1686    1564     668
       3    1564     701    1385
       3    1565     693    1376
       3    1690    1565     660
       3    1601    1566     798
       3    1566     799    1481
       3    1599     539    1475
       3    1928    1567     538
       3    1600     767    1493
       3    1927    1568     766
       3    1603     904    1495
       3    1926    1569     905
       3    1602    1570     873
       3    1570     872    1483
       3    1689    1571     669
       3    1571     702    1489
       3    1572     692    1384
       3    1699    1572     659
       3    2037    1573    1672
       3    1573     903    1447
       3    1878    1574    1691
       3    1574     883    1417
       3    1694    1575    1643
       3    1575     830    1432
       3    1727    1576     833
       3    1576     832    1501
       3    1577    1334    1147
       3    1577     592    1532
       3    1578    1330    1157
       3    1590    1578     611
       3    1579    1067    1064
       3    1579     596    1429
       3    1580    1329    1156
       3    1580     610    1555
       3    1581    1335     993
       3    1581     593    1553
       3    1582    1336    1060
       3    1589    1582     594
       3    1583    1337    1062
       3    1583     595    1454
       3    1584    1344    1155
       3    1584     609    1534
       3    1598    1585     731
       3    1695    1624    1585
       3    1790    1586    1684
       3    1586     718    1491
       3    1587     958     686
       3    1784    1587     686
       3    1697    1588     601
       3    1882    1680    1588
       3    1881    1696    1589
       3    1589     595    1428
       3    1678    1590     611
       3    1872    1693    1590
       3    2210    1591    2013
       3    1591     835    1440
       3    1948    1592    1707
       3    1592     847    1443
       3    1698    1593     670
       3    1593     703    1497
       3    1923    1594     658
       3    1923    1717    1594
       3    1694    1595     830
       3    1884    1700    1595
       3    1701    1596     938
       3    2039    1918     937
       3    1702    1597     505
       3    2040    1917     506
       3    1598     730    1585
       3    1598     731    1502
       3    1620    1475     535
       3    1599     538    1567
       3    1621    1493     763
       3    1600     766    1568
       3    1714    1601     798
       3    1601    1496     799
       3    1715    1602     873
       3    1602    1494     872
       3    1619    1495     908
       3    1603     905    1569
       3    2318    1604    1685
       3    1604     871    1468
       3    1969    1605     720
       3    1933    1492    1605
       3    2100    1606    1692
       3    1606     907    1415
       3    1791    1607    1706
       3    1607     879    1446
       3    1625    1608     842
       3    1608     843    1486
       3    1700    1609     829
       3    1887    1708    1609
       3    1709     939    1082
       3    1930    1701    1610
       3    1710     504     966
       3    1929    1702    1611
       3    1712    1612     600
       3    1889    1697    1612
       3    1888    1711    1613
       3    1613     596    1454
       3    1614    1549     837
       3    1735    1614     837
       3    2256    1982     841
       3    1615     840    1441
       3    2249     841    1975
       3    1616     839    1442
       3    1792    1617    1703
       3    1617     875    1445
       3    1618     869    1562
       3    1618    1562     868
       3    1619    1561     909
       3    2414    1619     909
       3    1620    1560     534
       3    2412    1620     534
       3    1621    1558     762
       3    2413    1621     762
       3    1622     802    1559
       3    1622    1559     803
       3    1713    1623     727
       3    1673    1623     726
       3    1624     734    1543
       3    1624     735    1487
       3    1729    1625     842
       3    1625    1576    1501
       3    1859     608    1507
       3    2483    1732    1626
       3    1860     591    1505
       3    2471    2385     625
       3    1968    1877    1509
       3    1628     589    1508
       3    1914    1629     646
       3    1629     647    1485
       3    1630    1511     562
       3    1951    1630     562
       3    1836    1631     559
       3    1805    1631     558
       3    1632     546    1512
       3    1632    1512     547
       3    1633    1513     790
       3    1950    1633     790
       3    1837    1634     787
       3    1806    1634     786
       3    1635     774    1514
       3    1635    1514     775
       3    1636    1515     881
       3    1949    1636     881
       3    1838    1637     884
       3    1807    1637     885
       3    1638     897    1516
       3    1638    1516     896
       3    1639     604    1533
       3    2402    1862     637
       3    1640     738    1518
       3    1640     739    1403
       3    1641     510    1520
       3    1641    1520     511
       3    1841    1642     823
       3    1815    1642     822
       3    1643     827    1521
       3    1643    1521     826
       3    1644     933    1519
       3    1644    1519     932
       3    1645     895    1522
       3    2315    1869    1542
       3    1646     931    1525
       3    2078    1646     930
       3    1849    1647     527
       3    1824    1647     526
       3    1648     531    1527
       3    1956    1648     530
       3    1850    1649     755
       3    1825    1649     754
       3    1650     759    1528
       3    1955    1650     758
       3    1651     806    1529
       3    1651     807    1408
       3    1852    1652     916
       3    1827    1652     917
       3    1653     912    1530
       3    1954    1653     913
       3    1654     865    1531
       3    1654     864    1409
       3    1843    1655     848
       3    1823    1655     849
       3    1656     844    1523
       3    1952    1656     845
       3    1657     607    1510
       3    2457    1657     640
       3    2445    1658     639
       3    1658     606    1506
       3    1659    1536     566
       3    1960    1659     566
       3    1873    1660     643
       3    1660     610    1534
       3    1661     603    1554
       3    2236    1865     636
       3    1880    1662     850
       3    1662     851    1550
       3    1875    1663     626
       3    1663     593    1532
       3    1664     863    1535
       3    2036    1876    1563
       3    1877     590    1509
       3    2473     623    2458
       3    1666     795    1537
       3    1959    1666     794
       3    1667     542    1538
       3    1667     543    1476
       3    1668     770    1539
       3    1668     771    1484
       3    1669     876    1540
       3    1958    1669     877
       3    1670     901    1541
       3    1670     900    1482
       3    1947    1671     570
       3    1984    1724     961
       3    1672     899    1542
       3    2037    1879    1573
       3    2209    1920     726
       3    1673     730    1598
       3    1870    1674     664
       3    1674    1370    1546
       3    2658     697    1870
       3    1939    1675     664
       3    1925    1676     666
       3    1676     665    1546
       3    2379    1677     663
       3    1677     662    1552
       3    1872    1678     644
       3    1678     611    1555
       3    1881    1679     627
       3    1679     594    1553
       3    1680     602    1588
       3    2218    1874     635
       3    1915    1681     667
       3    1681     666    1551
       3    2453     662    2254
       3    1682     661    1557
       3    1683     718    1586
       3    1985    1722    1683
       3    1794    1684     685
       3    1794    1790    1684
       3    1685     867    1563
       3    2318    2045    1604
       3    1907    1686     668
       3    1686     667    1556
       3    2635    1687     661
       3    1687     660    1565
       3    1893    1688     846
       3    1688     847    1592
       3    1903    1689     669
       3    1689     668    1564
       3    2596     660    2561
       3    1690     659    1572
       3    1878    1691     878
       3    1691     879    1607
       3    1692     903    1573
       3    2100    1692     902
       3    2062     646    1953
       3    1693     612    1590
       3    1694     830    1575
       3    1884    1694     826
       3    2058     730    1920
       3    1695     734    1624
       3    1888    1696     628
       3    1696     595    1589
       3    1697     601    1612
       3    2217    1882     634
       3    1861    1698     670
       3    1698     669    1571
       3    2386    1699     659
       3    1699     658    1594
       3    1700     829    1595
       3    1887    1700     825
       3    1883    1701     934
       3    1701     938    1610
       3    1885    1702     509
       3    1702     505    1611
       3    1703     871    1604
       3    1792    1703     870
       3    1704     835    1591
       3    2256     834    1982
       3    1705     907    1606
       3    2482    2041     906
       3    1791    1706     874
       3    1706    1607     875
       3    1948    1707     838
       3    1707     839    1616
       3    1708     824    1056
       3    1708    1056    1160
       3    1709    1327     935
       3    1930    1709     935
       3    1710    1215     508
       3    1929    1710     508
       3    1938    1711     629
       3    1711     596    1613
       3    1890    1712     600
       3    2216    1889     633
       3    1808    1713     727
       3    2070    1713    1808
       3    2059    1912     798
       3    1714     802    1622
       3    2060    1971     874
       3    1715     869    1618
       3    1716     720    1605
       3    1716     719    1404
       3    1923    1895    1717
       3    1717     690    1368
       3    2237    1718     671
       3    1718     670    1593
       3    1719     706    1251
       3    1909    1719     707
       3    1720    1373     613
       3    1953     613    1871
       3    2466     575    2202
       3    2262     941    1721
       3    1722     727     962
       3    1722     950    1683
       3    1723     959     952
       3    1834    1723     832
       3    1724     575    1721
       3    1724     951     961
       3    1725     708     960
       3    1725     960     949
       3    1726     605    1517
       3    2476     638    2384
       3    2250    1727     833
       3    2250    1966    1727
       3    1728     704    1500
       3    1728     671    1718
       3    1924    1916     842
       3    1729     833    1576
       3    1945    1921     588
       3    2118    1730     621
       3    1944     625    1867
       3    1731     592    1503
       3    1943     642    1866
       3    1732     609    1504
       3    1733     705    1499
       3    1905    1733     672
       3    1734     706    1719
       3    1904    1734     673
       3    2067    1894     837
       3    1735     842    1608
       3    1796    1736     887
       3    1736     891    1094
       3    1798    1737     780
       3    1737     776    1032
       3    1799    1738     784
       3    1738     780    1034
       3    1797    1739     552
       3    1739     548     989
       3    1795    1740     556
       3    1740     552     991
       3    2257     680    1979
       3    1741     713    1130
       3    1993    1801     820
       3    1742     816    1052
       3    2333    1802     516
       3    1743     512     971
       3    2334    1803     744
       3    1744     740    1014
       3    1992    1800     681
       3    1745     648    1001
       3    1997    1809     919
       3    1746     923    1115
       3    2356    1813     615
       3    1747     582     999
       3    2000    1812     752
       3    1748     748    1018
       3    1999    1811     524
       3    1749     520     975
       3    2336    1810     812
       3    1750     808    1048
       3    2003    1819     883
       3    1751     887    1119
       3    1989    1820     548
       3    1752     544     987
       3    2002    1818     560
       3    1753     556     992
       3    1990    1821     776
       3    1754     772    1030
       3    2006    1822     788
       3    1755     784    1036
       3    1756     240     241
       3    1756     241    1255
       3    1996    1835     713
       3    1757     723    1129
       3    1831     931    1646
       3    1758     935    1083
       3    1995    1833     740
       3    1759     736    1012
       3    2008    1829     714
       3    1760     681    1002
       3    1887    1830     824
       3    1761     820    1054
       3    1994    1832     512
       3    1762     508     969
       3    1922    1763     580
       3    1957    1763    1922
       3    1853    1764     861
       3    1764     860    1394
       3    1851    1765     810
       3    1765     811    1391
       3    1910    1766     687
       3    2057    1902    1766
       3    1767     707     953
       3    1906    1767     708
       3    2018    1844     915
       3    1768     919    1087
       3    1998    1845     808
       3    1769     804    1046
       3    2001    1848     582
       3    1770     576     998
       3    2021    1847     756
       3    1771     752    1020
       3    2020    1846     528
       3    1772     524     977
       3    1945    1773     587
       3    1773     581    1763
       3    2004    1857     544
       3    1774     540     985
       3    2005    1856     772
       3    1775     768    1028
       3    2029    1855     564
       3    1776     560     994
       3    2032    1858     792
       3    1777     788    1038
       3    2009    1892     736
       3    1778     732    1010
       3    2042    1891     724
       3    1779     714    1004
       3    1842    1780     929
       3    1780     928    1389
       3    1840    1781     514
       3    1781     515    1450
       3    1839    1782     742
       3    1782     743    1387
       3    1783     597    1429
       3    1783     596    1711
       3    1902    1784     686
       3    1908    1784    1902
       3    2048    2041     910
       3    1785     915    1088
       3    2019    1898     804
       3    1786     800    1044
       3    2050    1899     760
       3    1787     756    1022
       3    2022    1901     576
       3    1788     572     997
       3    2051    1900     532
       3    1789     528     979
       3    2065    1790     684
       3    1790     717    1586
       3    1971    1791     874
       3    1791     878    1691
       3    2060    1965    1911
       3    1792     874    1706
       3    1947    1793    1671
       3    1793     575    1724
       3    1908    1794     685
       3    2425    2331     684
       3    2145    1795    1987
       3    1795     552    1740
       3    2146    1796    1988
       3    1796     891    1736
       3    2327    2326     553
       3    1797     548    1739
       3    2329    2328     781
       3    1798     776    1737
       3    2149    1799    1991
       3    1799     780    1738
       3    2150    1800    1992
       3    1800     648    1745
       3    2151    1801    1993
       3    1801     816    1742
       3    2333    2152    1802
       3    1802     512    1743
       3    2334    2153    1803
       3    1803     740    1744
       3    2257    2154    1804
       3    1804     713    1741
       3    2364    2212     562
       3    1805     562    1511
       3    2365    2232     790
       3    1806     790    1513
       3    2368    2233     881
       3    1807     881    1515
       3    1808     727    1722
       3    2070     716    1946
       3    2155    1809    1997
       3    1809     923    1746
       3    2336    2156    1810
       3    1810     808    1750
       3    2157    1811    1999
       3    1811     520    1749
       3    2158    1812    2000
       3    1812     748    1748
       3    2356    2159    1813
       3    1813     582    1747
       3    2224    2111     738
       3    1814     742    1782
       3    2238    2109     822
       3    1815     826    1521
       3    1972     510    1885
       3    1816     514    1781
       3    1973     933    1883
       3    1817     929    1780
       3    2160    1818    2002
       3    1818     556    1753
       3    2161    1819    2003
       3    1819     887    1751
       3    2513    1820    1989
       3    1820     544    1752
       3    2514    1821    1990
       3    1821     772    1754
       3    2164    1822    2006
       3    1822     784    1755
       3    2139    1964    2103
       3    1823     845    1523
       3    2241    2116     526
       3    1824     530    1527
       3    2242    2115     754
       3    1825     758    1528
       3    2228    2114     806
       3    1826     810    1765
       3    2244    2113     917
       3    1827     913    1530
       3    2133    2093    2128
       3    1828     861    1764
       3    2165    1829    2008
       3    1829     681    1760
       3    2675    2317    1830
       3    1830     820    1761
       3    2651    1930     935
       3    1831     935    1758
       3    2518    2451    2135
       3    1832     508    1762
       3    2339    1833    1995
       3    1833     736    1759
       3    1834     720    1716
       3    1834     832    1727
       3    2625    1835    1996
       3    1835     723    1757
       3    2010    1836     559
       3    2611    2167    2548
       3    2011    1837     787
       3    2645    1837    2168
       3    2012    1838     884
       3    2615    2169    2536
       3    2340    2170    1839
       3    2170    2014    1839
       3    2171    2016    1840
       3    1840     515    1781
       3    2015    1841     823
       3    2474    1841    2172
       3    2343    2322     925
       3    2173    2017    1842
       3    2475    1843    2201
       3    1843     849    1655
       3    2174    1844    2018
       3    1844     919    1768
       3    2345    1845    1998
       3    1845     804    1769
       3    2176    1846    2020
       3    1846     524    1772
       3    2177    1847    2021
       3    1847     752    1771
       3    2362    1848    2001
       3    1848     576    1770
       3    2023    1849     527
       3    2178     526    1849
       3    2024    1850     755
       3    2179     754    1850
       3    2344    2180    1851
       3    2180    2025    1851
       3    2181     917    1852
       3    1852     917    1652
       3    2352    2321     857
       3    2182    2027    1853
       3    2207    1854       6
       3    1854     687     944
       3    2183    1855    2029
       3    1855     560    1776
       3    2354    1856    2005
       3    1856     768    1775
       3    2353    1857    2004
       3    1857     540    1774
       3    2189    1858    2032
       3    1858     788    1777
       3    1859    1507    1657
       3    1859     641    1626
       3    1860    1505    1665
       3    1860     624    1627
       3    2236    2083    1861
       3    1861     669    1698
       3    1862     638    1726
       3    1862    1517    1639
       3    1978    1863     890
       3    1863     894    1645
       3    1977    1864     926
       3    1864     930    1646
       3    1865     637    1639
       3    1865    1533    1661
       3    1943    1866    1534
       3    2501    1866     642
       3    1944    1867    1532
       3    2433    1867     625
       3    1974    1868     858
       3    1868     862    1664
       3    2315    1967    1869
       3    1869     898    1672
       3    2658    1870     664
       3    1870     697    1370
       3    2062    1871    1693
       3    1871     613    1378
       3    1872    1590    1678
       3    2424    1872     644
       3    1873    1555    1660
       3    2504    1873     643
       3    1874     636    1661
       3    1874    1554    1680
       3    1875    1553    1663
       3    2503    1875     626
       3    2036    1963    1876
       3    1876     866    1685
       3    1968    1509    1628
       3    1877     623    1665
       3    1962    1878     878
       3    2499    2003    1574
       3    2037    1961    1879
       3    1879     902    1692
       3    1976    1880     850
       3    2047    1880     854
       3    1881    1589    1679
       3    2505    1881     627
       3    1882     635    1680
       3    1882    1588    1697
       3    1973    1883     934
       3    2039     933    1918
       3    2126     826    2109
       3    1884     825    1700
       3    1972    1885     509
       3    2040     510    1917
       3    2484     911    1089
       3    1886     907    1705
       3    2675    1887     825
       3    1887     824    1708
       3    1888    1613    1696
       3    2380    1888     628
       3    1889     634    1697
       3    1889    1612    1712
       3    1890     600    1424
       3    2197    1890     599
       3    2192    1891    2042
       3    1891     714    1779
       3    2411    1892    2009
       3    1892     732    1778
       3    1964    1893     846
       3    2076    1662    1550
       3    1975    1924    1894
       3    1924     841    1916
       3    2106    1895     657
       3    2266    2053    2106
       3    1982    1896    1916
       3    2079    1896     834
       3    2255    1897    2048
       3    1897     915    1785
       3    2399    1898    2019
       3    1898     800    1786
       3    2397     761    2281
       3    1899     756    1787
       3    2398     533    2280
       3    1900     528    1789
       3    2396    1901    2022
       3    1901     572    1788
       3    1902     686    1766
       3    2479    1902     653
       3    2218    2082    1903
       3    1903     668    1689
       3    2071    1904     673
       3    1904     672    1733
       3    2077    1905     672
       3    1905     671    1728
       3    2205     708    1725
       3    2590    1906     675
       3    2217    2081    1907
       3    1907     667    1686
       3    2526    1908     652
       3    1908     685    1784
       3    2066    1941    1719
       3    1909     707    1767
       3    2207    2056     687
       3    2622    2057     654
       3    1965     874    1792
       3    2104    1715    1911
       3    2123    1912     797
       3    2105    1714    1912
       3    2121    1913    2058
       3    2107    1695    1913
       3    1980    1914     646
       3    1979    1914     679
       3    2216    2080    1915
       3    1915     666    1681
       3    1916    1729     842
       3    1982    1916     841
       3    2040     506    1597
       3    1917     510    1641
       3    2039     937    1596
       3    1918     933    1644
       3    1919    1066    1429
       3    1919     597    1430
       3    2209    2127    1920
       3    1920     730    1673
       3    2492    1921     587
       3    1921     621    1730
       3    2262     580     941
       3    1957    1922     586
       3    2061    1923     658
       3    1923     657    1895
       3    1924     842    1735
       3    1975    1894     838
       3    2496    2130     632
       3    1925     665    1676
       3    2225    2088    1926
       3    1926     901    1670
       3    2222    2085    1927
       3    1927     770    1668
       3    2221    2086    1928
       3    1928     542    1667
       3    1929     508    1832
       3    1929     509    1702
       3    2651     935    1831
       3    1930     934    1701
       3    2125     869    2104
       3    1931     865    1654
       3    2124     802    2105
       3    1932     806    1651
       3    1970    1933    1969
       3    1933     709    1492
       3    2122     734    2107
       3    1934     738    1640
       3    2235    2132    2088
       3    1935     897    1638
       3    2223    2096     770
       3    1936     774    1635
       3    2220    2095     542
       3    1937     546    1632
       3    2055    1938     629
       3    1942    1938     630
       3    2117    1939     664
       3    2211    2063    1939
       3    2245    1940    2064
       3    1940     664    1674
       3    2066    1981    1941
       3    1941     673    1734
       3    2102    2068    1942
       3    1942     597    1783
       3    1943    1534     609
       3    1943    1732     642
       3    1944    1532     592
       3    1944    1731     625
       3    1945     587    1921
       3    1945     588    1405
       3    2208    2069    1946
       3    1946     726    1713
       3    2215    2073     570
       3    1983    1947     574
       3    2142     845    2137
       3    1948     846    1688
       3    2098     882    1962
       3    1949     877    1540
       3    2232    2097     790
       3    1950     794    1537
       3    2212    2074     562
       3    1951     566    1536
       3    2142    2067    1952
       3    1952     837    1549
       3    1953     646    1720
       3    1953    1720     613
       3    2229    2092     913
       3    1954     909    1561
       3    2227    2090     758
       3    1955     762    1558
       3    2226    2089     530
       3    1956     534    1560
       3    2046    1957     586
       3    1957    1773    1763
       3    2131    1971    2087
       3    1958     873    1570
       3    2084    2059     798
       3    1959     798    1566
       3    2213    2075     566
       3    1960     570    1548
       3    2134    1961     898
       3    1961     902    1879
       3    2499    1962     882
       3    2131     878    1971
       3    2136    1963     862
       3    1963     866    1876
       3    2103     845    1823
       3    2139    2076    1964
       3    2316    1792     870
       3    2316    2104    1911
       3    2383    1966     721
       3    1966     720    1834
       3    1967     898    1869
       3    2141    1967     894
       3    1968    1628     622
       3    2253    1968     622
       3    2415     720    2383
       3    1970    1969     710
       3    2434    2378    1970
       3    2378    2143    1970
       3    2087    2060     873
       3    1971     878    1791
       3    2135    1972     509
       3    2372    1972    2135
       3    2214     934    2078
       3    2214    2138    2108
       3    2438    1974     858
       3    1974     862    1868
       3    2249     838    1707
       3    1975     841    1924
       3    2388    1976    2139
       3    1976     854    1880
       3    1977     930    1864
       3    2442    2322    1977
       3    2427    1978     890
       3    1978     894    1863
       3    2257     679    2154
       3    1979     680    1524
       3    2320    2140     645
       3    1980     679    1914
       3    1981     673    1941
       3    2426    2324    1981
       3    2256     841    1615
       3    1982     834    1896
       3    2376    2202    1983
       3    1983     575    1793
       3    1984     961     948
       3    1984     571    1793
       3    1985    1683     717
       3    1985     717    1808
       3    1986    1132    1418
       3    1986     612    1378
       3    2145    1987     557
       3    1987     556    1818
       3    2146    1988     886
       3    1988     887    1819
       3    1989     548    1797
       3    2513    2162    1820
       3    1990     776    1798
       3    2514    2163    1821
       3    2149    1991     785
       3    1991     784    1822
       3    2150    1992     682
       3    1992     681    1829
       3    2151    1993     821
       3    1993     820    1830
       3    1994     512    1802
       3    2451     513    2135
       3    1995     740    1803
       3    2339    2166    1833
       3    1996     713    1804
       3    2625    2203    1835
       3    2155    1997     918
       3    1997     919    1844
       3    1998     808    1810
       3    2345    2175    1845
       3    2157    1999     525
       3    1999     524    1846
       3    2158    2000     753
       3    2000     752    1847
       3    2001     582    1813
       3    2362    2185    1848
       3    2160    2002     561
       3    2002     560    1855
       3    2161    2003     882
       3    2003     883    1574
       3    2004     544    1820
       3    2353    2186    1857
       3    2005     772    1821
       3    2354    2191    1856
       3    2164    2006     789
       3    2006     788    1858
       3    2129    2007    2119
       3    2251    2007     585
       3    2165    2008     715
       3    2008     714    1891
       3    2009     736    1833
       3    2411    2196    1892
       3    2010     559    1360
       3    2641     555    2624
       3    2011     787    1029
       3    2642     783    2623
       3    2012     884    1106
       3    2581    2169     888
       3    2013     723    1835
       3    2210    2013     722
       3    2014     747    1009
       3    2014     743    1839
       3    2015     823    1047
       3    2671    2172     819
       3    2016     519    1348
       3    2016     515    1840
       3    2017     924    1110
       3    2017     928    1842
       3    2174    2018     914
       3    2018     915    1897
       3    2019     804    1845
       3    2399    2019     805
       3    2176    2020     529
       3    2020     528    1900
       3    2177    2021     757
       3    2021     756    1899
       3    2022     576    1848
       3    2396    2022     577
       3    2023     527     970
       3    2639    2178     523
       3    2024     755    1013
       3    2640    2179     751
       3    2025     815    1043
       3    2025     811    1851
       3    2026     916    1084
       3    2638    2181     920
       3    2027     856    1103
       3    2027     860    1853
       3    2028     848    1101
       3    2637    2201     852
       3    2184    2029     564
       3    2346     565    2029
       3    2348     541    2283
       3    2348    2187    2030
       3    2349     769    2284
       3    2349    2190    2031
       3    2188    2032     792
       3    2351     793    2032
       3    2252     891    1796
       3    2033     890    1863
       3    2493    2034     927
       3    2034     926    1864
       3    2443    2247    2404
       3    2035     858    1868
       3    2036    1664     862
       3    2036     862    1963
       3    2037    1672     898
       3    2037     898    1961
       3    2038     599    1424
       3    2038    1137    1148
       3    2039    1596    1883
       3    2039    1883     933
       3    2040    1597    1885
       3    2040    1885     510
       3    2041    1705     906
       3    2255    2048     910
       3    2193    2042     724
       3    2314    2127     725
       3    2130    1925    2080
       3    2043     633    1712
       3    2355     733    2121
       3    2355    2195    2044
       3    2133    2128     866
       3    2045     870    1703
       3    2391    2046     586
       3    2492    2046    2462
       3    2247    2047     854
       3    2047     855    1526
       3    2048    1897     911
       3    2048     911    1886
       3    2357     801    2123
       3    2357    2200    2049
       3    2199    2050     760
       3    2361     761    2050
       3    2198    2051     532
       3    2359     533    2051
       3    2363     573    2288
       3    2363    2204    2052
       3    2194     689     214
       3    2053     690    1895
       3    2205    2143    2054
       3    2054     675    1906
       3    2379    2063    2055
       3    2055     630    1938
       3    2401    2056    2207
       3    2056     654    1910
       3    2057     653    1902
       3    2057    1766    1910
       3    2121    2058     729
       3    2058    1913     730
       3    2084     798    1959
       3    2667    2059    2452
       3    2060    1911     873
       3    2087     873    1958
       3    2385    2377    2061
       3    2061     657    1923
       3    2062    1693     645
       3    2140    2062     645
       3    2063     630    2055
       3    2063     663    1939
       3    2496     665    1925
       3    2245     631    2117
       3    2332    2206     683
       3    2065     717    1790
       3    2066    1909     674
       3    2066     674    1981
       3    2067     838    1894
       3    2067     837    1952
       3    2120    2068    2102
       3    2068     598    1430
       3    2267    2192     725
       3    2069     726    1946
       3    2070    1808     717
       3    2472    2065    2332
       3    2071     672    1904
       3    2144    2071     673
       3    2142    2137    2072
       3    2072     846    1948
       3    2288    2073     569
       3    2264    1947    2073
       3    2500    2271     561
       3    2074     566    1951
       3    2668    2346     569
       3    2075     570    1960
       3    2076     850    1662
       3    2076    1893    1964
       3    2077     671    1905
       3    2265    2077     672
       3    2214    2078     930
       3    2651    2078     934
       3    2486     834    2210
       3    2416    2250    2079
       3    2080     666    1915
       3    2130     633    2043
       3    2081     667    1907
       3    2216     634    1889
       3    2082     668    1903
       3    2217     635    1882
       3    2083     669    1861
       3    2218     636    1874
       3    2219    2084     794
       3    2452    2084    2219
       3    2284    2085    2222
       3    2085     770    1927
       3    2283    2086    2221
       3    2086     542    1928
       3    2087    1958     877
       3    2131    2087     877
       3    2573    2100    2235
       3    2088     901    1926
       3    2280    2089     529
       3    2260    1956    2089
       3    2281    2090     757
       3    2259    1955    2090
       3    2654    2124     801
       3    2091     806    1932
       3    2400    2282     914
       3    2258    1954    2092
       3    2128    2125     870
       3    2093     865    1931
       3    2390    2122     733
       3    2094     738    1934
       3    2353    2270    2186
       3    2095     546    1937
       3    2354    2269    2191
       3    2096     774    1936
       3    2498    2268     789
       3    2097     794    1950
       3    2098    1949     881
       3    2233    2098     881
       3    2099     897    1935
       3    2234    1935     901
       3    2235     902    2132
       3    2100     906    1606
       3    2237     670    1718
       3    2236     637    1865
       3    2382     630    2211
       3    2382    2120    2102
       3    2103    1823     849
       3    2139    2103     849
       3    2316    2125    2104
       3    2104     869    1715
       3    2124    2105    2123
       3    2105     802    1714
       3    2246    2106     657
       3    2266    2106     656
       3    2122    2107    2121
       3    2107     734    1695
       3    2108     929    1817
       3    2108    1817     933
       3    2674    2126    2109
       3    2109     826    1815
       3    2110     514    1816
       3    2110    1816     510
       3    2278    2224     737
       3    2111     742    1814
       3    2112     861    1828
       3    2112    1828     865
       3    2650    2276     918
       3    2113     913    1827
       3    2275    2228     805
       3    2114     810    1826
       3    2648    2273     753
       3    2115     758    1825
       3    2649    2274     525
       3    2116     530    1824
       3    2211    2117     631
       3    2117     664    1940
       3    2248    2118     621
       3    2118     622    1628
       3    2119    1922     580
       3    2129    2119     579
       3    2502    2463     631
       3    2120     598    2068
       3    2355    2121     729
       3    2122    2121     733
       3    2390     733    2196
       3    2122    2094    1934
       3    2357    2123     797
       3    2124    2123     801
       3    2654    2432    2124
       3    2124    2091    1932
       3    2128     870    2045
       3    2125    2093    1931
       3    2126     825    1884
       3    2126    1884     826
       3    2314     725    2042
       3    2127     729    2058
       3    2318    2128    2045
       3    2128    2093    2125
       3    2439    2406     578
       3    2129     585    2007
       3    2130    2043     632
       3    2496     632    2064
       3    2261    2131     877
       3    2131    1962     878
       3    2234    1961    2099
       3    2132     901    2088
       3    2133    1963    2112
       3    2133     865    2093
       3    2319    2134    1967
       3    2134     897    2099
       3    2518    2135     509
       3    2372    2240    2110
       3    2136     862    1974
       3    2136     861    2112
       3    2137     845    2103
       3    2137     846    2072
       3    2138     929    2108
       3    2138     930    1977
       3    2388    2139     849
       3    2139    1976     850
       3    2320    2313    2140
       3    2140    1980     646
       3    2319    2141     893
       3    2141     894    1978
       3    2142    2072    2067
       3    2142    1952     845
       3    2459    2143     676
       3    2143     709    1970
       3    2403    2144     640
       3    2144     673    1981
       3    2312    2145     557
       3    2326    2145     553
       3    2311    2146     886
       3    2252     890    2033
       3    2310    2147     553
       3    2147     549    1989
       3    2309    2148     781
       3    2148     777    1990
       3    2308    2149     785
       3    2328    2149     781
       3    2307    2150     682
       3    2325    2150     649
       3    2306     821    2238
       3    2330    2151     817
       3    2305    2240     513
       3    2152     513    1994
       3    2304    2239     741
       3    2153     741    1995
       3    2506     679    2454
       3    2154     712    1996
       3    2303     918    2244
       3    2335    2155     922
       3    2302    2243     809
       3    2156     809    1998
       3    2301     525    2241
       3    2337    2157     521
       3    2300     753    2242
       3    2338    2158     749
       3    2299    2159     616
       3    2159     583    2001
       3    2296     561    2212
       3    2395    2160    2296
       3    2295     882    2233
       3    2394    2161    2295
       3    2294    2230     545
       3    2162     545    2004
       3    2293    2231     773
       3    2163     773    2005
       3    2292     789    2232
       3    2393    2164    2292
       3    2279    2165     715
       3    2653    2165    2279
       3    2278     741    2239
       3    2166     737    2009
       3    2548    2167     554
       3    2167    1836    2010
       3    2645    2547     786
       3    2168    1837    2011
       3    2536    2169     889
       3    2169    1838    2012
       3    2340    1839     742
       3    2489    2170     746
       3    2342    1840     514
       3    2488    2171     518
       3    2474     818    2370
       3    2172    1841    2015
       3    2343    1842     929
       3    2487    2173     925
       3    2276     914    2229
       3    2650    2174    2276
       3    2275     809    2243
       3    2175     805    2019
       3    2274     529    2226
       3    2649    2176    2274
       3    2273     757    2227
       3    2648    2177    2273
       3    2373    2178     522
       3    2178    1849    2023
       3    2374    2179     750
       3    2179    1850    2024
       3    2344    1851     810
       3    2491    2180     814
       3    2375    2181     921
       3    2181    1852    2026
       3    2352    1853     861
       3    2490    2182     857
       3    2271    2183     565
       3    2500    2183    2271
       3    2347     564     995
       3    2428    2346    2184
       3    2362    2272    2185
       3    2185     577    2022
       3    2270     545    2095
       3    2186     541    2030
       3    2579     536     983
       3    2187     540    2030
       3    2350     792    1040
       3    2431    2351    2188
       3    2268    2189     793
       3    2498    2189    2268
       3    2578     764    1026
       3    2190     768    2031
       3    2269     773    2096
       3    2191     769    2031
       3    2267     725    2209
       3    2670    2192    2267
       3    2341     724    1006
       3    2423    2314    2193
       3    2194     214     215
       3    2194     215     690
       3    2574     728    1008
       3    2195     732    2044
       3    2411    2390    2196
       3    2196     733    2044
       3    2517    2463    2389
       3    2197     632    2043
       3    2358     532     981
       3    2429    2359    2198
       3    2360     760    1024
       3    2430    2361    2199
       3    2660     796    1042
       3    2200     800    2049
       3    2475     853    2388
       3    2201    1843    2028
       3    2406    2202    2376
       3    2466     579    2262
       3    2625    2277    2203
       3    2203     722    2013
       3    2659     568     996
       3    2204     572    2052
       3    2205    1725     709
       3    2205     709    2143
       3    2425     684    1794
       3    2408    2332     683
       3    2207     687    1854
       3    2207       6     211
       3    2297    2279     715
       3    2478    2267    2069
       3    2209     726    2069
       3    2209     725    2127
       3    2486    2210     722
       3    2210     834    1704
       3    2211    1939    2117
       3    2382    2211     631
       3    2364     562    1805
       3    2364    2296    2212
       3    2456    2213     565
       3    2213     566    2074
       3    2214    1973     934
       3    2214     930    2138
       3    2215     569    2073
       3    2215     570    2075
       3    2216     633    2080
       3    2216    1915    2081
       3    2217     634    2081
       3    2217    1907    2082
       3    2218     635    2082
       3    2218    1903    2083
       3    2452    2219     793
       3    2219     794    2097
       3    2220     542    2086
       3    2270    2220     541
       3    2289    2221     538
       3    2289    2283    2221
       3    2290    2222     766
       3    2290    2284    2222
       3    2223     770    2085
       3    2269    2223     769
       3    2224     738    2094
       3    2278     737    2166
       3    2291    2225     905
       3    2573    2235    2088
       3    2226     529    2089
       3    2226     530    2116
       3    2227     757    2090
       3    2227     758    2115
       3    2228     806    2091
       3    2275     805    2175
       3    2229     914    2092
       3    2229     913    2113
       3    2294     545    2162
       3    2366    2230    2294
       3    2293     773    2163
       3    2367    2231    2293
       3    2365     790    1806
       3    2365    2292    2232
       3    2368     881    1807
       3    2368    2295    2233
       3    2234    2099    1935
       3    2234     901    2132
       3    2573    2088    2225
       3    2235    2100     902
       3    2236     636    2083
       3    2236    1861    2101
       3    2409    2237     671
       3    2409    2402    2237
       3    2370    2238     822
       3    2370    2306    2238
       3    2304     741    2153
       3    2369    2239    2304
       3    2305     513    2152
       3    2371    2240    2305
       3    2373    2241     526
       3    2373    2301    2241
       3    2374    2242     754
       3    2374    2300    2242
       3    2302     809    2156
       3    2643    2243    2302
       3    2375    2303    2244
       3    2276    2244     918
       3    2245    2064     632
       3    2502     632    2389
       3    2535    2458     623
       3    2246     656    2106
       3    2404    2247     854
       3    2477    2247    2443
       3    2608    2527    2248
       3    2387    2248     655
       3    2249    1707    1616
       3    2249    1616     841
       3    2250     833    2079
       3    2250     721    1966
       3    2485    2449    2251
       3    2449    2391    2251
       3    2252    2033     891
       3    2252    1796    2146
       3    2253     623    1968
       3    2387    2253     622
       3    2380     629    1888
       3    2379     662    1677
       3    2282    2255     910
       3    2400    2018    2255
       3    2256    1615    1704
       3    2256    1704     834
       3    2257    1804     680
       3    2257    1979     679
       3    2287    2258    2282
       3    2258     909    1954
       3    2285    2259    2281
       3    2259     762    1955
       3    2286    2260    2280
       3    2260     534    1956
       3    2261     877    1949
       3    2261    2098    1962
       3    2466    2262    1721
       3    2262     579    2119
       3    2386     658    1699
       3    2471     625    1731
       3    2298    2264    2288
       3    2264     574    1947
       3    2265     672    2071
       3    2476    2384     639
       3    2435    2392    2266
       3    2266     689    2053
       3    2478    2069    2208
       3    2670    2267    2478
       3    2268     793    2219
       3    2268    2097     789
       3    2269    2096    2223
       3    2269     769    2191
       3    2270    2095    2220
       3    2270     541    2186
       3    2271     565    2213
       3    2271    2074     561
       3    2519    2272    2417
       3    2272     577    2185
       3    2273    2115    2242
       3    2273    2177     757
       3    2274    2116    2241
       3    2274    2176     529
       3    2345    2275    2175
       3    2275    2114    2228
       3    2276    2113    2244
       3    2276    2174     914
       3    2585    2448    2277
       3    2277     722    2203
       3    2339    2278    2166
       3    2278    2111    2224
       3    2408    2297     716
       3    2653    2279     682
       3    2398     529    2020
       3    2286    2280     533
       3    2397     757    2021
       3    2285    2281     761
       3    2287    2282     910
       3    2282    2092     914
       3    2348    2283     537
       3    2283     541    2086
       3    2349    2284     765
       3    2284     769    2085
       3    2481    2285     761
       3    2413    2285    2290
       3    2480    2286     533
       3    2412    2286    2289
       3    2482    2287     910
       3    2414    2287    2291
       3    2363    2288     569
       3    2298    2288     573
       3    2289     537    2283
       3    2412    2289     538
       3    2290     765    2284
       3    2413    2290     766
       3    2573    2291     906
       3    2414    2291     905
       3    2393    2292     785
       3    2292    2164     789
       3    2514    2293    2163
       3    2422    2367    2293
       3    2513    2294    2162
       3    2420    2366    2294
       3    2394    2295     886
       3    2295    2161     882
       3    2395    2296     557
       3    2296    2160     561
       3    2297    2208     716
       3    2408     716    2332
       3    2437     573    2396
       3    2507    2376     574
       3    2586    2299     616
       3    2299     583    2159
       3    2300     749    2158
       3    2300    2158     753
       3    2301     521    2157
       3    2301    2157     525
       3    2302    2156     813
       3    2627    2302     813
       3    2303     922    2155
       3    2303    2155     918
       3    2304    2153     745
       3    2464    2369    2304
       3    2305    2152     517
       3    2465    2371    2305
       3    2306     817    2151
       3    2306    2151     821
       3    2512     683    2450
       3    2307     649    2150
       3    2547    2308    2421
       3    2308     781    2149
       3    2606    2309     781
       3    2309     777    2148
       3    2607    2310     553
       3    2310     549    2147
       3    2536    2533    2311
       3    2311     890    2146
       3    2548    2312    2419
       3    2312     553    2145
       3    2454    2313     678
       3    2313    1980    2140
       3    2314     729    2127
       3    2314    2042    2193
       3    2315    1645     894
       3    2315     894    1967
       3    2316    1965    1792
       3    2316     870    2125
       3    2317     821    1993
       3    2317     825    2126
       3    2318    1685     866
       3    2318     866    2128
       3    2588    2319     893
       3    2319     897    2134
       3    2424    2320     645
       3    2320     678    2313
       3    2352     857    2182
       3    2321     861    2136
       3    2343     925    2173
       3    2322     929    2138
       3    2455    2323     889
       3    2323     893    2141
       3    2457    2324     641
       3    2324     640    2144
       3    2447    2325     649
       3    2325     648    1800
       3    2327     553    2147
       3    2326     552    1795
       3    2327    2147    1797
       3    2327    1797     552
       3    2329     781    2148
       3    2328     780    1799
       3    2329    2148    1798
       3    2329    1798     780
       3    2446    2330     817
       3    2330     816    1801
       3    2510    2331     651
       3    2510    2450    2331
       3    2472     716    2070
       3    2332    2065    2206
       3    2494    2333     516
       3    2333     517    2152
       3    2495    2334     744
       3    2334     745    2153
       3    2598     922    2564
       3    2335     923    1809
       3    2602     812    2570
       3    2336     813    2156
       3    2603     521    2566
       3    2337     520    1811
       3    2604     749    2567
       3    2338     748    1812
       3    2339    1995     741
       3    2339     741    2278
       3    2369     742    2239
       3    2340     746    2170
       3    2341    1006    1188
       3    2341    1188     728
       3    2371     514    2240
       3    2342     518    2171
       3    2343    2173    1842
       3    2343     929    2322
       3    2344     810    2243
       3    2344     814    2180
       3    2345    1998     809
       3    2345     809    2275
       3    2668    2456    2346
       3    2346    2029    2184
       3    2347     995    1198
       3    2347    1198     568
       3    2348    2030     541
       3    2429    2348     537
       3    2349    2031     769
       3    2430    2349     765
       3    2350    1040    1169
       3    2350    1169     796
       3    2667    2452    2351
       3    2351    2032    2188
       3    2352    2182    1853
       3    2352     861    2321
       3    2353    2004     545
       3    2353     545    2270
       3    2354    2005     773
       3    2354     773    2269
       3    2355    2044     733
       3    2423    2355     729
       3    2600     615    2568
       3    2356     616    2159
       3    2357    2049     801
       3    2431    2357     797
       3    2358     981    1207
       3    2358    1207     536
       3    2480    2359     537
       3    2359    2051    2198
       3    2360    1024    1178
       3    2360    1178     764
       3    2481    2361     765
       3    2361    2050    2199
       3    2362    2001     583
       3    2362     583    2272
       3    2363    2052     573
       3    2428    2363     569
       3    2364    1805     558
       3    2419    2364     558
       3    2365    1806     786
       3    2421    2365     786
       3    2575    2366     550
       3    2366     546    2230
       3    2576    2367     778
       3    2367     774    2231
       3    2368    1807     885
       3    2460    2368     885
       3    2464    2304     745
       3    2369     746    2340
       3    2474    2370     822
       3    2628     818    2601
       3    2465    2305     517
       3    2371     518    2342
       3    2372    2135     513
       3    2372     513    2240
       3    2373     526    2178
       3    2469    2373     522
       3    2374     754    2179
       3    2468    2374     750
       3    2375     917    2181
       3    2470    2375     921
       3    2507     574    2298
       3    2507    2406    2376
       3    2377     657    2061
       3    2458    2377     624
       3    2434    1970     710
       3    2580    2378     677
       3    2379     663    2063
       3    2379    2055    2254
       3    2528    2453    2380
       3    2528    2380     628
       3    2589    2519     584
       3    2440    2381     584
       3    2382     631    2120
       3    2382    2102     630
       3    2448    2383     721
       3    2511    2415    2383
       3    2524     638    2409
       3    2384    2077    2265
       3    2385     624    2377
       3    2385    2061    2263
       3    2523    2386     659
       3    2523    2433    2386
       3    2387     622    2248
       3    2530    2441    2387
       3    2475    2388     849
       3    2525     853    2444
       3    2517    2389     599
       3    2389     632    2197
       3    2390     737    2224
       3    2390    2094    2122
       3    2462    2391     619
       3    2391     586    2251
       3    2407    2401     688
       3    2392     689    2266
       3    2393     785    1991
       3    2393    1991    1822
       3    2394     886    1988
       3    2394    1988    1819
       3    2395     557    1987
       3    2395    1987    1818
       3    2437    2396     577
       3    2396     573    2052
       3    2397    2021    1899
       3    2397    1899    2050
       3    2398    2020    1900
       3    2398    1900    2051
       3    2432    2399     805
       3    2399     801    2049
       3    2400     914    2018
       3    2400    2255    2282
       3    2436    2407     688
       3    2407    2405    2401
       3    2402     638    1862
       3    2402     637    2101
       3    2445    2403     640
       3    2403     639    2265
       3    2525     854    1976
       3    2443     858    2035
       3    2527     655    2248
       3    2405     654    2056
       3    2589    2439     578
       3    2406     579    2202
       3    2435    2407    2392
       3    2407     655    2405
       3    2418    2408     683
       3    2408    2279    2297
       3    2524    2409     671
       3    2409     638    2402
       3    2410     577    2272
       3    2507    2437    2410
       3    2411    2009     737
       3    2411     737    2390
       3    2412     538    1599
       3    2412     534    2286
       3    2413     766    1600
       3    2413     762    2285
       3    2414     905    1603
       3    2414     909    2287
       3    2415     710    1969
       3    2415    1969     720
       3    2416     722    2277
       3    2416     721    2250
       3    2417     583    2299
       3    2519    2417     584
       3    2418     682    2279
       3    2512    2418     683
       3    2419     557    2296
       3    2548    2419     558
       3    2420     550    2366
       3    2420     549    2310
       3    2421     785    2292
       3    2547    2421     786
       3    2422     778    2367
       3    2422     777    2309
       3    2423     729    2314
       3    2423     728    2195
       3    2424     645    1872
       3    2515    2461    2424
       3    2526    2425    1794
       3    2425     651    2331
       3    2590    2534     674
       3    2426     641    2324
       3    2533     890    2311
       3    2427     889    2323
       3    2428     568    2363
       3    2428     569    2346
       3    2429     537    2359
       3    2429     536    2187
       3    2430     765    2361
       3    2430     764    2190
       3    2431     796    2357
       3    2431     797    2351
       3    2432     805    2228
       3    2432    2091    2124
       3    2433     626    1867
       3    2433     625    2263
       3    2511     710    2415
       3    2434     677    2378
       3    2530     656    2441
       3    2530    2407    2435
       3    2436     688     212
       3    2436     212     213
       3    2437    2298     573
       3    2437     577    2410
       3    2531    2404    2444
       3    2438     857    2321
       3    2439    2381    2129
       3    2439     579    2406
       3    2562     584    2520
       3    2614    2440    2562
       3    2535     656    2246
       3    2441    2253    2387
       3    2593     921    2540
       3    2442     925    2322
       3    2443    2035     859
       3    2477    2443     859
       3    2595     853    2542
       3    2531     857    2438
       3    2445     639    2403
       3    2445     640    1657
       3    2565    2446     817
       3    2602    2570    2446
       3    2563    2447     649
       3    2600    2568    2447
       3    2511    2448     711
       3    2448     721    2416
       3    2577    2449     618
       3    2449     619    2391
       3    2512    2450     650
       3    2450     683    2206
       3    2451    1832    1994
       3    2451    1994     513
       3    2452     793    2351
       3    2452    2059    2084
       3    2453     661    1682
       3    2453    1682     662
       3    2545    2454     678
       3    2545    2506    2454
       3    2587    2581     888
       3    2455     893    2323
       3    2456    2075    2213
       3    2456     565    2346
       3    2457     640    2324
       3    2457     641    1859
       3    2473     624    1860
       3    2535     623    2441
       3    2537    2459     676
       3    2459     675    2054
       3    2460     886    2295
       3    2536    2460     885
       3    2532     677    2509
       3    2461     678    2320
       3    2508    2462     619
       3    2492    2462     620
       3    2463     598    2120
       3    2463    2120     631
       3    2550    2468     750
       3    2464     746    2369
       3    2551    2469     522
       3    2465     518    2371
       3    2466    1721     575
       3    2466    2202     579
       3    2467    1069    1430
       3    2467     598    1423
       3    2591     750    2538
       3    2468     749    2300
       3    2592     522    2539
       3    2469     521    2301
       3    2593    2549     921
       3    2470     922    2303
       3    2471    1731    1627
       3    2471     624    2385
       3    2472    2070     717
       3    2472     717    2065
       3    2473    1860    1665
       3    2473    1665     623
       3    2474     822    1841
       3    2474    2172     818
       3    2475     849    1843
       3    2475    2201     853
       3    2476     639    1658
       3    2476    1726     638
       3    2477     859    1304
       3    2477     855    2247
       3    2478    2208    2297
       3    2670    2478     715
       3    2618    2546    2508
       3    2479     652    1908
       3    2480     533    2359
       3    2480     537    2289
       3    2481     761    2361
       3    2481     765    2290
       3    2482     910    2041
       3    2482     906    2291
       3    2620    2543    2483
       3    2483     642    1732
       3    2484    1089    1319
       3    2484    1319     907
       3    2485     585    2440
       3    2485     618    2449
       3    2486     722    2416
       3    2486    2079     834
       3    2540    2487     925
       3    2555    2487    2540
       3    2539    2488     518
       3    2554    2488    2539
       3    2538    2489     746
       3    2553    2489    2538
       3    2542    2490     857
       3    2637    2490    2542
       3    2541    2491     814
       3    2559    2491    2541
       3    2516    2492     620
       3    2492     587    2046
       3    2569    2493     927
       3    2598    2564    2493
       3    2571    2494     516
       3    2566    2551    2557
       3    2572    2495     744
       3    2567    2550    2558
       3    2496    2064     665
       3    2496    1925    2130
       3    2497     600    1425
       3    2497    1136    1149
       3    2498     789    2006
       3    2498    2006    1858
       3    2499    1878    1962
       3    2499     882    2003
       3    2500     561    2002
       3    2500    2002    1855
       3    2552    2501     642
       3    2556    2501    2537
       3    2502     631    2245
       3    2502    2245     632
       3    2596    2561    2503
       3    2503     627    1875
       3    2556    2504     643
       3    2616    2580     677
       3    2635    2528    2505
       3    2505     628    1881
       3    2506     712    2154
       3    2506    2154     679
       3    2507     578    2406
       3    2507    2298    2437
       3    2618    2508     619
       3    2597    2508    2546
       3    2676    2545    2532
       3    2509     677    2434
       3    2621     651    2619
       3    2510     650    2450
       3    2511    2383    2448
       3    2676    2511     711
       3    2629     650    2599
       3    2512    2307    2418
       3    2513    1989     549
       3    2513     549    2294
       3    2514    1990     777
       3    2514     777    2293
       3    2616     644    2504
       3    2515     677    2461
       3    2584    2516     620
       3    2516     621    1921
       3    2517     599    1423
       3    2517    1423     598
       3    2518    1832    2451
       3    2518     509    1929
       3    2589     584    2381
       3    2519     578    2410
       3    2562    2520     617
       3    2520     584    2417
       3    2610    2521     554
       3    2521     550    2420
       3    2609    2522     782
       3    2522     778    2422
       3    2596    2523     659
       3    2523     626    2433
       3    2524     671    2077
       3    2524    2077    2384
       3    2525    1976    2388
       3    2525    2388     853
       3    2526    1794    1908
       3    2617    2526     652
       3    2608    2248     621
       3    2527     654    2405
       3    2528     628    2505
       3    2528     661    2453
       3    2626    2588    2529
       3    2529     893    2455
       3    2530     655    2407
       3    2530    2435     656
       3    2531    2438     858
       3    2531     858    2404
       3    2532     678    2461
       3    2532    2461     677
       3    2536    2311    2460
       3    2533     889    2427
       3    2605    2552    2543
       3    2620    2426    2534
       3    2535    2441     656
       3    2535    2246    2458
       3    2615    2536     885
       3    2536     889    2533
       3    2537     675    2459
       3    2556    2537     676
       3    2591    2464    2558
       3    2640    2538     750
       3    2592    2465    2557
       3    2639    2539     522
       3    2544     925    2442
       3    2638    2540     921
       3    2644    2594    2627
       3    2671    2541     818
       3    2595     857    2531
       3    2637    2542     853
       3    2543     642    2483
       3    2620    2483     641
       3    2544    2442     926
       3    2564    2544     926
       3    2545     678    2532
       3    2585    2545     711
       3    2546    2479     653
       3    2597    2584     620
       3    2645     786    1837
       3    2631     782    2606
       3    2611    2548     558
       3    2632     554    2607
       3    2549     922    2470
       3    2549    2470     921
       3    2591    2558    2550
       3    2567    2558     745
       3    2592    2557    2551
       3    2566    2557     517
       3    2552     642    2543
       3    2552     675    2537
       3    2553     751    1227
       3    2553     747    2489
       3    2554     523    1349
       3    2554     519    2488
       3    2555     920    1265
       3    2555     924    2487
       3    2580    2556     676
       3    2556     643    2501
       3    2557    2465     517
       3    2566     517    2494
       3    2558    2464     745
       3    2567     745    2495
       3    2559     819    1246
       3    2559     815    2491
       3    2560     852    1284
       3    2560     856    2490
       3    2635    2561     660
       3    2561     627    2503
       3    2633    2614     617
       3    2562    2440     584
       3    2629    2599     649
       3    2600     616    2356
       3    2564     922    2549
       3    2564     926    2493
       3    2644    2601    2594
       3    2602     813    2336
       3    2603    2566    2494
       3    2566     521    2551
       3    2604    2567    2495
       3    2567     749    2550
       3    2568     615    1193
       3    2568     648    2447
       3    2569     927    1114
       3    2598     923    2335
       3    2570     812    1164
       3    2570     816    2446
       3    2571     516    1212
       3    2603     520    2337
       3    2572     744    1183
       3    2604     748    2338
       3    2573    2225    2291
       3    2573     906    2100
       3    2574    1008    1187
       3    2574    1187     732
       3    2624    2612    2610
       3    2575    1512     546
       3    2623    2613    2609
       3    2576    1514     774
       3    2619    2577     618
       3    2618    2577    2617
       3    2578    1026    1177
       3    2578    1177     768
       3    2579     983    1206
       3    2579    1206     540
       3    2580     676    2378
       3    2616     677    2515
       3    2581     889    2169
       3    2657    2587     888
       3    2582     779    1382
       3    2582    1514    2576
       3    2583     551    1478
       3    2583    1512    2575
       3    2597     620    2508
       3    2634    2622     654
       3    2585     711    2448
       3    2585     712    2506
       3    2630    2563    2599
       3    2586     617    2520
       3    2587     892    2529
       3    2587    2529    2455
       3    2588     893    2529
       3    2588    1516     897
       3    2589    2381    2439
       3    2589     578    2519
       3    2605    2590     675
       3    2590     674    1909
       3    2591    2550     750
       3    2591    2538     746
       3    2592    2551     522
       3    2592    2539     518
       3    2593    2540     925
       3    2593    2544    2549
       3    2594    2541     814
       3    2627    2594     814
       3    2595    2531    2444
       3    2595    2444     853
       3    2596    2503    2523
       3    2596     659    1690
       3    2597    2546     653
       3    2622    2597     653
       3    2598    2335     922
       3    2598    2493    2569
       3    2636    2599     650
       3    2630     617    2586
       3    2600    2447    2563
       3    2600    2356     615
       3    2628    2601     817
       3    2601     818    2594
       3    2602    2446    2565
       3    2602    2336     812
       3    2603    2337     521
       3    2603    2494    2571
       3    2604    2338     749
       3    2604    2495    2572
       3    2605    2534    2590
       3    2605     675    2552
       3    2631     781    2308
       3    2606     782    2522
       3    2632     553    2312
       3    2607     554    2521
       3    2634     621    2584
       3    2608     654    2527
       3    2623     779    2613
       3    2609     778    2522
       3    2624     551    2612
       3    2610     550    2521
       3    2611     558    1836
       3    2611    1836    2167
       3    2612    2583    2575
       3    2612    2575     550
       3    2613    2582    2576
       3    2613    2576     778
       3    2614     618    2485
       3    2614    2485    2440
       3    2615     885    1838
       3    2615    1838    2169
       3    2616    2515     644
       3    2616    2504    2580
       3    2617     651    2425
       3    2618    2617     652
       3    2618     652    2546
       3    2618     619    2577
       3    2633     618    2614
       3    2619     651    2617
       3    2620     641    2426
       3    2620    2534    2543
       3    2636    2621    2633
       3    2621     650    2510
       3    2622     653    2057
       3    2634     654    2608
       3    2642    2609     782
       3    2646    2623     783
       3    2641    2610     554
       3    2647    2624     555
       3    2625    1996     712
       3    2625     712    2277
       3    2626     892    1383
       3    2626    1516    2588
       3    2644    2627     813
       3    2643     814    2344
       3    2628     817    2306
       3    2628    2370     818
       3    2629     649    2307
       3    2629    2512     650
       3    2630    2586     616
       3    2630     616    2563
       3    2631    2308    2547
       3    2631    2547     782
       3    2632    2312    2548
       3    2632    2548     554
       3    2633    2619     618
       3    2636    2633     617
       3    2634    2608     621
       3    2634    2584    2622
       3    2635     660    1687
       3    2635     661    2528
       3    2636     617    2630
       3    2636     650    2621
       3    2637     853    2201
       3    2637     852    2560
       3    2638     921    2181
       3    2638     920    2555
       3    2639     522    2178
       3    2639     523    2554
       3    2640     750    2179
       3    2640     751    2553
       3    2641     554    2167
       3    2641    2167     555
       3    2642     782    2168
       3    2642    2168     783
       3    2643    2344    2243
       3    2643    2302    2627
       3    2644     813    2565
       3    2644    2565    2601
       3    2645    2168     782
       3    2645     782    2547
       3    2646     783    1236
       3    2646    1027    1235
       3    2647     555     984
       3    2647    1358     982
       3    2648     753    2000
       3    2648    2000    1847
       3    2649     525    1999
       3    2649    1999    1846
       3    2650     918    1997
       3    2650    1997    1844
       3    2651    1831    2078
       3    2651     934    1930
       3    2652     697     230
       3    2652     231    1260
       3    2653     682    1992
       3    2653    1992    1829
       3    2654     801    2399
       3    2654    2399    2432
       3    2655     698     232
       3    2655     233    1259
       3    2656     601    1426
       3    2656    1135    1150
       3    2657     888    1092
       3    2657    1092    1273
       3    2658     664    1675
       3    2658    1675    1369
       3    2659     996    1197
       3    2659    1197     572
       3    2660    1042    1168
       3    2660    1168     800
       3    2661       7     250
       3    2661     250     953
       3    2662     699    1259
       3    2662     235    1258
       3    2663     238     239
       3    2663     239    1256
       3    2664     700     236
       3    2664     237    1257
       3    2665     206     207
       3    2665     718    1683
       3    2666     602    1427
       3    2666    1134    1151
       3    2667    2351     797
       3    2667     797    2059
       3    2668     569    2215
       3    2668    2215    2456
       3    2669     940     388
       3    2669     955     613
       3    2670     715    2008
       3    2670    2008    1891
       3    2671     818    2172
       3    2671     819    2559
       3    2672     603    1448
       3    2672    1075    1152
       3    2673     604    1449
       3    2673    1338    1448
       3    2674    2238     821
       3    2674     821    2317
       3    2675     825    2317
       3    2675    1830    1887
       3    2676    2532    2509
       3    2676    2509    2511
       3    2677     229     230
       3    2677     697    1369
       3    2680      20      19
       3    2688    2680    2684
       3    2691    2686    2690
       3    2684    2680      19
       3    2679     487    2678
       3    2691    2689    2686
       3      17       0     483
       3    2686     481    2682
       3    2688    2678    2683
       3    2690    2682    2681
       3     480      16     484
       3    2682     485    2681
       3    2681     486    2679
       3    2683     488     489
       3    2680     490      20
       3     490       1      20
       3    2685    2684      18
       3    2678     487     488
       3    2691    2690    2687
       3    2679     486     487
       3    2680     489     490
       3    2684      19      18
       3    2682     481     480
       3    2681     485     486
       3    2682     480     484
       3    2682     484     485
       3    2683    2678     488
       3    2683     489    2680
       3    2685      18      17
       3    2688    2687    2678
       3    2685      17     483
       3    2689     483     482
       3    2686     482     481
       3    2690    2679    2687
       3    2687    2679    2678
       3    2691    2684    2685
       3    2688    2683    2680
       3    2691    2688    2684
       3    2689    2685     483
       3    2689     482    2686
       3    2690    2686    2682
       3    2690    2681    2679
       3    2691    2687    2688
       3    2691    2685    2689

CELL_TYPES 4904
       5
       5
       5
       5
       5
       5
       5
       5
       5
       5
       5
       5
       5
       5
       5
       5
       5
       5
       5
       5
       5
       5
       5
       5
       5
       5
       5
       5
       5
       5
       5
       5
       5
       5
       5
       5
       5
       5
       5
       5
       5
       5
       5
       5
       5
       5
       5
       5
       5
       5
       5
       5
       5
       5
       5
       5
       5
       5
       5
       5
       5
       5
       5
       5
       5
       5
       5
       5
       5
       5
       5
       5
       5
       5
       5
       5
       5
       5
       5
       5
       5
       5
       5
       5
       5
       5
       5
       5
       5
       5
       5
       5
       5
       5
       5
       5
       5
       5
       5
       5
       5
       5
       5
       5
       5
       5
       5
       5
       5
       5
       5
       5
       5
       5
       5
       5
       5
       5
       5
       5
       5
       5
       5
       5
       5
       5
       5
       5
       5
       5
       5
       5
       5
       5
       5
       5
       5
       5
       5
       5
       5
       5
       5
       5
       5
       5
       5
       5
       5
       5
       5
       5
       5
       5
       5
       5
       5
       5
       5
       5
       5
       5
       5
       5
       5
       5
       5
       5
       5
       5
       5
       5
       5
       5
       5
       5
       5
       5
       5
       5
       5
       5
       5
       5
       5
       5
       5
       5
       5
       5
       5
       5
       5
       5
       5
       5
       5
       5
       5
       5
       5
       5
       5
       5
       5
       5
       5
       5
       5
       5
       5
       5
       5
       5
       5
       5
       5
       5
       5
       5
       5
       5
       5
       5
       5
       5
       5
       5
       5
       5
       5
       5
       5
       5
       5
       5
       5
       5
       5
       5
       5
       5
       5
       5
       5
       5
       5
       5
       5
       5
       5
       5
       5
       5
       5
       5
       5
       5
       5
       5
       5
       5
       5
       5
       5
       5
       5
       5
       5
       5
       5
       5
       5
       5
       5
       5
       5
       5
       5
       5
       5
       5
       5
       5
       5
       5
       5
       5
       5
       5
       5
       5
       5
       5
       5
       5
       5
       5
       5
       5
       5
       5
       5
       5
       5
       5
       5
       5
       5
       5
       5
       5
       5
       5
       5
       5
       5
       5
       5
       5
       5
       5
       5
       5
       5
       5
       5
       5
       5
       5
       5
       5
       5
       5
       5
       5
       5
       5
       5
       5
       5
       5
       5
       5
       5
       5
       5
       5
       5
       5
       5
       5
       5
       5
       5
       5
       5
       5
       5
       5
       5
       5
       5
       5
       5
       5
       5
       5
       5
       5
       5
       5
       5
       5
       5
       5
       5
       5
       5
       5
       5
       5
       5
       5
       5
       5
       5
       5
       5
       5
       5
       5
       5
       5
       5
       5
       5
       5
       5
       5
       5
       5
       5
       5
       5
       5
       5
       5
       5
       5
       5
       5
       5
       5
       5
       5
       5
       5
       5
       5
       5
       5
       5
       5
       5
       5
       5
       5
       5
       5
       5
       5
       5
       5
       5
       5
       5
       5
       5
       5
       5
       5
       5
       5
       5
       5
       5
       5
       5
       5
       5
       5
       5
       5
       5
       5
       5
       5
       5
       5
       5
       5
       5
       5
       5
       5
       5
       5
       5
       5
       5
       5
       5
       5
       5
       5
       5
       5
       5
       5
       5
       5
       5
       5
       5
       5
       5
       5
       5
       5
       5
       5
       5
       5
       5
       5
       5
       5
       5
       5
       5
       5
       5
       5
       5
       5
       5
       5
       5
       5
       5
       5
       5
       5
       5
       5
       5
       5
       5
       5
       5
       5
       5
       5
       5
       5
       5
       5
       5
       5
       5
       5
       5
       5
       5
       5
       5
       5
       5
       5
       5
       5
       5
       5
       5
       5
       5
       5
       5
       5
       5
       5
       5
       5
       5
       5
       5
       5
       5
       5
       5
       5
       5
       5
       5
       5
       5
       5
       5
       5
       5
       5
       5
       5
       5
       5
       5
       5
       5
       5
       5
       5
       5
       5
       5
       5
       5
       5
       5
       5
       5
       5
       5
       5
       5
       5
       5
       5
       5
       5
       5
       5
       5
       5
       5
       5
       5
       5
       5
       5
       5
       5
       5
       5
       5
       5
       5
       5
       5
       5
       5
       5
       5
       5
       5
       5
       5
       5
       5
       5
       5
       5
       5
       5
       5
       5
       5
       5
       5
       5
       5
       5
       5
       5
       5
       5
       5
       5
       5
       5
       5
       5
       5
       5
       5
       5
       5
       5
       5
       5
       5
       5
       5
       5
       5
       5
       5
       5
       5
       5
       5
       5
       5
       5
       5
       5
       5
       5
       5
       5
       5
       5
       5
       5
       5
       5
       5
       5
       5
       5
       5
       5
       5
       5
       5
       5
       5
       5
       5
       5
       5
       5
       5
       5
       5
       5
       5
       5
       5
       5
       5
       5
       5
       5
       5
       5
       5
       5
       5
       5
       5
       5
       5
       5
       5
       5
       5
       5
       5
       5
       5
       5
       5
       5
       5
       5
       5
       5
       5
       5
       5
       5
       5
       5
       5
       5
       5
       5
       5
       5
       5
       5
       5
       5
       5
       5
       5
       5
       5
       5
       5
       5
       5
       5
       5
       5
       5
       5
       5
       5
       5
       5
       5
       5
       5
       5
       5
       5
       5
       5
       5
       5
       5
       5
       5
       5
       5
       5
       5
       5
       5
       5
       5
       5
       5
       5
       5
       5
       5
       5
       5
       5
       5
       5
       5
       5
       5
       5
       5
       5
       5
       5
       5
       5
       5
       5
       5
       5
       5
       5
       5
       5
       5
       5
       5
       5
       5
       5
       5
       5
       5
       5
       5
       5
       5
       5
       5
       5
       5
       5
       5
       5
       5
       5
       5
       5
       5
       5
       5
       5
       5
       5
       5
       5
       5
       5
       5
       5
       5
       5
       5
       5
       5
       5
       5
       5
       5
       5
       5
       5
       5
       5
       5
       5
       5
       5
       5
       5
       5
       5
       5
       5
       5
       5
       5
       5
       5
       5
       5
       5
       5
       5
       5
       5
       5
       5
       5
       5
       5
       5
       5
       5
       5
       5
       5
       5
       5
       5
       5
       5
       5
       5
       5
       5
       5
       5
       5
       5
       5
       5
       5
       5
       5
       5
       5
       5
       5
       5
       5
       5
       5
       5
       5
       5
       5
       5
       5
       5
       5
       5
       5
       5
       5
       5
       5
       5
       5
       5
       5
       5
       5
       5
       5
       5
       5
       5
       5
       5
       5
       5
       5
       5
       5
       5
       5
       5
       5
       5
       5
       5
       5
       5
       5
       5
       5
       5
       5
       5
       5
       5
       5
       5
       5
       5
       5
       5
       5
       5
       5
       5
       5
       5
       5
       5
       5
       5
       5
       5
       5
       5
       5
       5
       5
       5
       5
       5
       5
       5
       5
       5
       5
       5
       5
       5
       5
       5
       5
       5
       5
       5
       5
       5
       5
       5
       5
       5
       5
       5
       5
       5
       5
       5
       5
       5
       5
       5
       5
       5
       5
       5
       5
       5
       5
       5
       5
       5
       5
       5
       5
       5
       5
       5
       5
       5
       5
       5
       5
       5
       5
       5
       5
       5
       5
       5
       5
       5
       5
       5
       5
       5
       5
       5
       5
       5
       5
       5
       5
       5
       5
       5
       5
       5
       5
       5
       5
       5
       5
       5
       5
       5
       5
       5
       5
       5
       5
       5
       5
       5
       5
       5
       5
       5
       5
       5
       5
       5
       5
       5
       5
       5
       5
       5
       5
       5
       5
       5
       5
       5
       5
       5
       5
       5
       5
       5
       5
       5
       5
       5
       5
       5
       5
       5
       5
       5
       5
       5
       5
       5
       5
       5
       5
       5
       5
       5
       5
       5
       5
       5
       5
       5
       5
       5
       5
       5
       5
       5
       5
       5
       5
       5
       5
       5
       5
       5
       5
       5
       5
       5
       5
       5
       5
       5
       5
       5
       5
       5
       5
       5
       5
       5
       5
       5
       5
       5
       5
       5
       5
       5
       5
       5
       5
       5
       5
       5
       5
       5
       5
       5
       5
       5
       5
       5
       5
       5
       5
       5
       5
       5
       5
       5
       5
       5
       5
       5
       5
       5
       5
       5
       5
       5
       5
       5
       5
       5
       5
       5
       5
       5
       5
       5
       5
       5
       5
       5
       5
       5
       5
       5
       5
       5
       5
       5
       5
       5
       5
       5
       5
       5
       5
       5
       5
       5
       5
       5
       5
       5
       5
       5
       5
       5
       5
       5
       5
       5
       5
       5
       5
       5
       5
       5
       5
       5
       5
       5
       5
       5
       5
       5
       5
       5
       5
       5
       5
       5
       5
       5
       5
       5
       5
       5
       5
       5
       5
       5
       5
       5
       5
       5
       5
       5
       5
       5
       5
       5
       5
       5
       5
       5
       5
       5
       5
       5
       5
       5
       5
       5
       5
       5
       5
       5
       5
       5
       5
       5
       5
       5
       5
       5
       5
       5
       5
       5
       5
       5
       5
       5
       5
       5
       5
       5
       5
       5
       5
       5
       5
       5
       5
       5
       5
       5
       5
       5
       5
       5
       5
       5
       5
       5
       5
       5
       5
       5
       5
       5
       5
       5
       5
       5
       5
       5
       5
       5
       5
       5
       5
       5
       5
       5
       5
       5
       5
       5
       5
       5
       5
       5
       5
       5
       5
       5
       5
       5
       5
       5
       5
       5
       5
       5
       5
       5
       5
       5
       5
       5
       5
       5
       5
       5
       5
       5
       5
       5
       5
       5
       5
       5
       5
       5
       5
       5
       5
       5
       5
       5
       5
       5
       5
       5
       5
       5
       5
       5
       5
       5
       5
       5
       5
       5
       5
       5
       5
       5
       5
       5
       5
       5
       5
       5
       5
       5
       5
       5
       5
       5
       5
       5
       5
       5
       5
       5
       5
       5
       5
       5
       5
       5
       5
       5
       5
       5
       5
       5
       5
       5
       5
       5
       5
       5
       5
       5
       5
       5
       5
       5
       5
       5
       5
       5
       5
       5
       5
       5
       5
       5
       5
       5
       5
       5
       5
       5
       5
       5
       5
       5
       5
       5
       5
       5
       5
       5
       5
       5
       5
       5
       5
       5
       5
       5
       5
       5
       5
       5
       5
       5
       5
       5
       5
       5
       5
       5
       5
       5
       5
       5
       5
       5
       5
       5
       5
       5
       5
       5
       5
       5
       5
       5
       5
       5
       5
       5
       5
       5
       5
       5
       5
       5
       5
       5
       5
       5
       5
       5
       5
       5
       5
       5
       5
       5
       5
       5
       5
       5
       5
       5
       5
       5
       5
       5
       5
       5
       5
       5
       5
       5
       5
       5
       5
       5
       5
       5
       5
       5
       5
       5
       5
       5
       5
       5
       5
       5
       5
       5
       5
       5
       5
       5
       5
       5
       5
       5
       5
       5
       5
       5
       5
       5
       5
       5
       5
       5
       5
       5
       5
       5
       5
       5
       5
       5
       5
       5
       5
       5
       5
       5
       5
       5
       5
       5
       5
       5
       5
       5
       5
       5
       5
       5
       5
       5
       5
       5
       5
       5
       5
       5
       5
       5
       5
       5
       5
       5
       5
       5
       5
       5
       5
       5
       5
       5
       5
       5
       5
       5
       5
       5
       5
       5
       5
       5
       5
       5
       5
       5
       5
       5
       5
       5
       5
       5
       5
       5
       5
       5
       5
       5
       5
       5
       5
       5
       5
       5
       5
       5
       5
       5
       5
       5
       5
       5
       5
       5
       5
       5
       5
       5
       5
       5
       5
       5
       5
       5
       5
       5
       5
       5
       5
       5
       5
       5
       5
       5
       5
       5
       5
       5
       5
       5
       5
       5
       5
       5
       5
       5
       5
       5
       5
       5
       5
       5
       5
       5
       5
       5
       5
       5
       5
       5
       5
       5
       5
       5
       5
       5
       5
       5
       5
       5
       5
       5
       5
       5
       5
       5
       5
       5
       5
       5
       5
       5
       5
       5
       5
       5
       5
       5
       5
       5
       5
       5
       5
       5
       5
       5
       5
       5
       5
       5
       5
       5
       5
       5
       5
       5
       5
       5
       5
       5
       5
       5
       5
       5
       5
       5
       5
       5
       5
       5
       5
       5
       5
       5
       5
       5
       5
       5
       5
       5
       5
       5
       5
       5
       5
       5
       5
       5
       5
       5
       5
       5
       5
       5
       5
       5
       5
       5
       5
       5
       5
       5
       5
       5
       5
       5
       5
       5
       5
       5
       5
       5
       5
       5
       5
       5
       5
       5
       5
       5
       5
       5
       5
       5
       5
       5
       5
       5
       5
       5
       5
       5
       5
       5
       5
       5
       5
       5
       5
       5
       5
       5
       5
       5
       5
       5
       5
       5
       5
       5
       5
       5
       5
       5
       5
       5
       5
       5
       5
       5
       5
       5
       5
       5
       5
       5
       5
       5
       5
       5
       5
       5
       5
       5
       5
       5
       5
       5
       5
       5
       5
       5
       5
       5
       5
       5
       5
       5
       5
       5
       5
       5
       5
       5
       5
       5
       5
       5
       5
       5
       5
       5
       5
       5
       5
       5
       5
       5
       5
       5
       5
       5
       5
       5
       5
       5
       5
       5
       5
       5
       5
       5
       5
       5
       5
       5
       5
       5
       5
       5
       5
       5
       5
       5
       5
       5
       5
       5
       5
       5
       5
       5
       5
       5
       5
       5
       5
       5
       5
       5
       5
       5
       5
       5
       5
       5
       5
       5
       5
       5
       5
       5
       5
       5
       5
       5
       5
       5
       5
       5
       5
       5
       5
       5
       5
       5
       5
       5
       5
       5
       5
       5
       5
       5
       5
       5
       5
       5
       5
       5
       5
       5
       5
       5
       5
       5
       5
       5
       5
       5
       5
       5
       5
       5
       5
       5
       5
       5
       5
       5
       5
       5
       5
       5
       5
       5
       5
       5
       5
       5
       5
       5
       5
       5
       5
       5
       5
       5
       5
       5
       5
       5
       5
       5
       5
       5
       5
       5
       5
       5
       5
       5
       5
       5
       5
       5
       5
       5
       5
       5
       5
       5
       5
       5
       5
       5
       5
       5
       5
       5
       5
       5
       5
       5
       5
       5
       5
       5
       5
       5
       5
       5
       5
       5
       5
       5
       5
       5
       5
       5
       5
       5
       5
       5
       5
       5
       5
       5
       5
       5
       5
       5
       5
       5
       5
       5
       5
       5
       5
       5
       5
       5
       5
       5
       5
       5
       5
       5
       5
       5
       5
       5
       5
       5
       5
       5
       5
       5
       5
       5
       5
       5
       5
       5
       5
       5
       5
       5
       5
       5
       5
       5
       5
       5
       5
       5
       5
       5
       5
       5
       5
       5
       5
       5
       5
       5
       5
       5
       5
       5
       5
       5
       5
       5
       5
       5
       5
       5
       5
       5
       5
       5
       5
       5
       5
       5
       5
       5
       5
       5
       5
       5
       5
       5
       5
       5
       5
       5
       5
       5
       5
       5
       5
       5
       5
       5
       5
       5
       5
       5
       5
       5
       5
       5
       5
       5
       5
       5
       5
       5
       5
       5
       5
       5
       5
       5
       5
       5
       5
       5
       5
       5
       5
       5
       5
       5
       5
       5
       5
       5
       5
       5
       5
       5
       5
       5
       5
       5
       5
       5
       5
       5
       5
       5
       5
       5
       5
       5
       5
       5
       5
       5
       5
       5
       5
       5
       5
       5
       5
       5
       5
       5
       5
       5
       5
       5
       5
       5
       5
       5
       5
       5
       5
       5
       5
       5
       5
       5
       5
       5
       5
       5
       5
       5
       5
       5
       5
       5
       5
       5
       5
       5
       5
       5
       5
       5
       5
       5
       5
       5
       5
       5
       5
       5
       5
       5
       5
       5
       5
       5
       5
       5
       5
       5
       5
       5
       5
       5
       5
       5
       5
       5
       5
       5
       5
       5
       5
       5
       5
       5
       5
       5
       5
       5
       5
       5
       5
       5
       5
       5
       5
       5
       5
       5
       5
       5
       5
       5
       5
       5
       5
       5
       5
       5
       5
       5
       5
       5
       5
       5
       5
       5
       5
       5
       5
       5
       5
       5
       5
       5
       5
       5
       5
       5
       5
       5
       5
       5
       5
       5
       5
       5
       5
       5
       5
       5
       5
       5
       5
       5
       5
       5
       5
       5
       5
       5
       5
       5
       5
       5
       5
       5
       5
       5
       5
       5
       5
       5
       5
       5
       5
       5
       5
       5
       5
       5
       5
       5
       5
       5
       5
       5
       5
       5
       5
       5
       5
       5
       5
       5
       5
       5
       5
       5
       5
       5
       5
       5
       5
       5
       5
       5
       5
       5
       5
       5
       5
       5
       5
       5
       5
       5
       5
       5
       5
       5
       5
       5
       5
       5
       5
       5
       5
       5
       5
       5
       5
       5
       5
       5
       5
       5
       5
       5
       5
       5
       5
       5
       5
       5
       5
       5
       5
       5
       5
       5
       5
       5
       5
       5
       5
       5
       5
       5
       5
       5
       5
       5
       5
       5
       5
       5
       5
       5
       5
       5
       5
       5
       5
       5
       5
       5
       5
       5
       5
       5
       5
       5
       5
       5
       5
       5
       5
       5
       5
       5
       5
       5
       5
       5
       5
       5
       5
       5
       5
       5
       5
       5
       5
       5
       5
       5
       5
       5
       5
       5
       5
       5
       5
       5
       5
       5
       5
       5
       5
       5
       5
       5
       5
       5
       5
       5
       5
       5
       5
       5
       5
       5
       5
       5
       5
       5
       5
       5
       5
       5
       5
       5
       5
       5
       5
       5
       5
       5
       5
       5
       5
       5
       5
       5
       5
       5
       5
       5
       5
       5
       5
       5
       5
       5
       5
       5
       5
       5
       5
       5
       5
       5
       5
       5
       5
       5
       5
       5
       5
       5
       5
       5
       5
       5
       5
       5
       5
       5
       5
       5
       5
       5
       5
       5
       5
       5
       5
       5
       5
       5
       5
       5
       5
       5
       5
       5
       5
       5
       5
       5
       5
       5
       5
       5
       5
       5
       5
       5
       5
       5
       5
       5
       5
       5
       5
       5
       5
       5
       5
       5
       5
       5
       5
       5
       5
       5
       5
       5
       5
       5
       5
       5
       5
       5
       5
       5
       5
       5
       5
       5
       5
       5
       5
       5
       5
       5
       5
       5
       5
       5
       5
       5
       5
       5
       5
       5
       5
       5
       5
       5
       5
       5
       5
       5
       5
       5
       5
       5
       5
       5
       5
       5
       5
       5
       5
       5
       5
       5
       5
       5
       5
       5
       5
       5
       5
       5
       5
       5
       5
       5
       5
       5
       5
       5
       5
       5
       5
       5
       5
       5
       5
       5
       5
       5
       5
       5
       5
       5
       5
       5
       5
       5
       5
       5
       5
       5
       5
       5
       5
       5
       5
       5
       5
       5
       5
       5
       5
       5
       5
       5
       5
       5
       5
       5
       5
       5
       5
       5
       5
       5
       5
       5
       5
       5
       5
       5
       5
       5
       5
       5
       5
       5
       5
       5
       5
       5
       5
       5
       5
       5
       5
       5
       5
       5
       5
       5
       5
       5
       5
       5
       5
       5
       5
       5
       5
       5
       5
       5
       5
       5
       5
       5
       5
       5
       5
       5
       5
       5
       5
       5
       5
       5
       5
       5
       5
       5
       5
       5
       5
       5
       5
       5
       5
       5
       5
       5
       5
       5
       5
       5
       5
       5
       5
       5
       5
       5
       5
       5
       5
       5
       5
       5
       5
       5
       5
       5
       5
       5
       5
       5
       5
       5
       5
       5
       5
       5
       5
       5
       5
       5
       5
       5
       5
       5
       5
       5
       5
       5
       5
       5
       5
       5
       5
       5
       5
       5
       5
       5
       5
       5
       5
       5
       5
       5
       5
       5
       5
       5
       5
       5
       5
       5
       5
       5
       5
       5
       5
       5
       5
       5
       5
       5
       5
       5
       5
       5
       5
       5
       5
       5
       5
       5
       5
       5
       5
       5
       5
       5
       5
       5
       5
       5
       5
       5
       5
       5
       5
       5
       5
       5
       5
       5
       5
       5
       5
       5
       5
       5
       5
       5
       5
       5
       5
       5
       5
       5
       5
       5
       5
       5
       5
       5
       5
       5
       5
       5
       5
       5
       5
       5
       5
       5
       5
       5
       5
       5
       5
       5
       5
       5
       5
       5
       5
       5
       5
       5
       5
       5
       5
       5
       5
       5
       5
       5
       5
       5
       5
       5
       5
       5
       5
       5
       5
       5
       5
       5
       5
       5
       5
       5
       5
       5
       5
       5
       5
       5
       5
       5
       5
       5
       5
       5
       5
       5
       5
       5
       5
       5
       5
       5
       5
       5
       5
       5
       5
       5
       5
       5
       5
       5
       5
       5
       5
       5
       5
       5
       5
       5
       5
       5
       5
       5
       5
       5
       5
       5
       5
       5
       5
       5
       5
       5
       5
       5
       5
       5
       5
       5
       5
       5
       5
       5
       5
       5
       5
       5
       5
       5
       5
       5
       5
       5
       5
       5
       5
       5
       5
       5
       5
       5
       5
       5
       5
       5
       5
       5
       5
       5
       5
       5
       5
       5
       5
       5
       5
       5
       5
       5
       5
       5
       5
       5
       5
       5
       5
       5
       5
       5
       5
       5
       5
       5
       5
       5
       5
       5
       5
       5
       5
       5
       5
       5
       5
       5
       5
       5
       5
       5
       5
       5
       5
       5
       5
       5
       5
       5
       5
       5
       5
       5
       5
       5
       5
       5
       5
       5
       5
       5
       5
       5
       5
       5
       5
       5
       5
       5
       5
       5
       5
       5
       5
       5
       5
       5
       5
       5
       5
       5
       5
       5
       5
       5
       5
       5
       5
       5
       5
       5
       5
       5
       5
       5
       5
       5
       5
       5
       5
       5
       5
       5
       5
       5
       5
       5
       5
       5
       5
       5
       5
       5
       5
       5
       5
       5
       5
       5
       5
       5
       5
       5
       5
       5
       5
       5
       5
       5
       5
       5
       5
       5
       5
       5
       5
       5
       5
       5
       5
       5
       5
       5
       5
       5
       5
       5
       5
       5
       5
       5
       5
       5
       5
       5
       5
       5
       5
       5
       5
       5
       5
       5
       5
       5
       5
       5
       5
       5
       5
       5
       5
       5
       5
       5
       5
       5
       5
       5
       5
       5
       5
       5
       5
       5
       5
       5
       5
       5
       5
       5
       5
       5
       5
       5
       5
       5
       5
       5
       5
       5
       5
       5
       5
       5
       5
       5
       5
       5
       5
       5
       5
       5
       5
       5
       5
       5
       5
       5
       5
       5
       5
       5
       5
       5
       5
       5
       5
       5
       5
       5
       5
       5
       5
       5
       5
       5
       5
       5
       5
       5
       5
       5
       5
       5
       5
       5
       5
       5
       5
       5
       5
       5
       5
       5
       5
       5
       5
       5
       5
       5
       5
       5
       5
       5
       5
       5
       5
       5
       5
       5
       5
       5
       5
       5
       5
       5
       5
       5
       5
       5
       5
       5
       5
       5
       5
       5
       5
       5
       5
       5
       5
       5
       5
       5
       5
       5
       5
       5
       5
       5
       5
       5
       5
       5
       5
       5
       5
       5
       5
       5
       5
       5
       5
       5
       5
       5
       5
       5
       5
       5
       5
       5
       5
       5
       5
       5
       5
       5
       5
       5
       5
       5
       5
       5
       5
       5
       5
       5
       5
       5
       5
       5
       5
       5
       5
       5
       5
       5
       5
       5
       5
       5
       5
       5
       5
       5
       5
       5
       5
       5
       5
       5
       5
       5
       5
       5
       5
       5
       5
       5
       5
       5
       5
       5
       5
       5
       5
       5
       5
       5
       5
       5
       5
       5
       5
       5
       5
       5
       5
       5
       5
       5
       5
       5
       5
       5
       5
       5
       5
       5
       5
       5
       5
       5
       5
       5
       5
       5
       5
       5
       5
       5
       5
       5
       5
       5
       5
       5
       5
       5
       5
       5
       5
       5
       5
       5
       5
       5
       5
       5
       5
       5
       5
       5
       5
       5
       5
       5
       5
       5
       5
       5
       5
       5
       5
       5
       5
       5
       5
       5
       5
       5
       5
       5
       5
       5
       5
       5
       5
       5
       5
       5
       5
       5
       5
       5
       5
       5
       5
       5
       5
       5
       5
       5
       5
       5
       5
       5
       5
       5
       5
       5
       5
       5
       5
       5
       5
       5
       5
       5
       5
       5
       5
       5
       5
       5
       5
       5
       5
       5
       5
       5
       5
       5
       5
       5
       5
       5
       5
       5
       5
       5
       5
       5
       5
       5
       5
       5
       5
       5
       5
       5
       5
       5
       5
       5
       5
       5
       5
       5
       5
       5
       5
       5
       5
       5
       5
       5
       5
       5
       5
       5
       5
       5
       5
       5
       5
       5
       5
       5
       5
       5
       5
       5
       5
       5
       5
       5
       5
       5
       5
       5
       5
       5
       5
       5
       5
       5
       5
       5
       5
       5
       5
       5
       5
       5
       5
       5
       5
       5
       5
       5
       5
       5
       5
       5
       5
       5
       5
       5
       5
       5
       5
       5
       5
       5
       5
       5
       5
       5
       5
       5
       5
       5
       5
       5
       5
       5
       5
       5
       5
       5
       5
       5
       5
       5
       5
       5
       5
       5
       5
       5
       5
       5
       5
       5
       5
       5
       5
       5
       5
       5
       5
       5
       5
       5
       5
       5
       5
       5
       5
       5
       5
       5
       5
       5
       5
       5
       5
       5
       5
       5
       5
       5
       5
       5
       5
       5
       5
       5
       5
       5
       5
       5
       5
       5
       5
       5
       5
       5
       5
       5
       5
       5
       5
       5
       5
       5
       5
       5
       5
       5
       5
       5
       5
       5
       5
       5
       5
       5
       5
       5
       5
       5
       5
       5
       5
       5
       5
       5
       5
       5
       5
       5
       5
       5
       5
       5
       5
       5
       5
       5
       5
       5
       5
       5
       5
       5
       5
       5
       5
       5
       5
       5
       5
       5
       5
       5
       5
       5
       5
       5
       5
       5
       5
       5
       5
       5
       5
       5
       5
       5
       5
       5
       5
       5
       5
       5
       5
       5
       5
       5
       5
       5
       5
       5
       5
       5
       5
       5
       5
       5
       5
       5
       5
       5
       5
       5
       5
       5
       5
       5
       5
       5
       5
       5
       5
       5
       5
       5
       5
       5
       5
       5
       5
       5
       5
       5
       5
       5
       5
       5
       5
       5
       5
       5
       5
       5
       5
       5
       5
       5
       5
       5
       5
       5
       5
       5
       5
       5
       5
       5
       5
       5
       5
       5
       5
       5
       5
       5
       5
       5
       5
       5
       5
       5
       5
       5
       5
       5
       5
       5
       5
       5
       5
       5
       5
       5
       5
       5
       5
       5
       5
       5
       5
       5
       5
       5
       5
       5
       5
       5
       5
       5
       5
       5
       5
       5
       5
       5
       5
       5
       5
       5
       5
       5
       5
       5
       5
       5
       5
       5
       5
       5
       5
       5
       5
       5
       5
       5
       5
       5
       5
       5
       5
       5
       5
       5
       5
       5
       5
       5
       5
       5
       5
       5
       5
       5
       5
       5
       5
       5
       5
       5
       5
       5
       5
       5
       5
       5
       5
       5
       5
       5
       5
       5
       5
       5
       5
       5
       5
       5
       5
       5
       5
       5
       5
       5
       5
       5
       5
       5
       5
       5
       5
       5
       5
       5
       5
       5
       5
       5
       5
       5
       5
       5
       5
       5
       5
       5
       5
       5
       5
       5
       5
       5
       5
       5
       5
       5
       5
       5
       5
       5
       5
       5
       5
       5
       5
       5
       5
       5
       5
       5
       5
       5
       5
       5
       5
       5
       5
       5
       5
       5
       5
       5
       5
       5
       5
       5
       5
       5
       5
       5
       5
       5
       5
       5
       5
       5
       5
       5
       5
       5
       5
       5
       5
       5
       5
       5
       5
       5
       5
       5
       5
       5
       5
       5
       5
       5
       5
       5
       5
       5
       5
       5
       5
       5
       5
       5
       5
       5
       5
       5
       5
       5
       5
       5
       5
       5
       5
       5
       5
       5
       5
       5
       5
       5
       5
       5
       5
       5
       5
       5
       5
       5
       5
       5
       5
       5
       5
       5
       5
       5
       5
       5
       5
       5
       5
       5
       5
       5
       5
       5
       5
       5
       5
       5
       5
       5
       5
       5
       5
       5
       5
       5
       5
       5
       5
       5
       5
       5
       5
       5
       5
       5
       5
       5
       5
       5
       5
       5
       5
       5
       5
       5
       5
       5
       5
       5
       5
       5
       5
       5
       5
       5
       5
       5
       5
       5
       5
       5
       5
       5
       5
       5
       5
       5
       5
       5
       5
       5
       5
       5
       5
       5
       5
       5
       5
       5
       5
       5
       5
       5
       5
       5
       5
       5
       5
       5
       5
       5
       5
       5
       5
       5
       5
       5
       5
       5
       5
       5
       5
       5
       5
       5
       5
       5
       5
       5
       5
       5
       5
       5
       5
       5
       5
       5
       5
       5
       5
       5
       5
       5
       5
       5
       5
       5
       5
       5
       5
       5
       5
       5
       5
       5
       5
       5
       5
       5
       5
       5
       5
       5
       5
       5
       5
       5
       5
       5
       5
       5
       5
       5
       5
       5
       5
       5
       5
       5
       5
       5
       5
       5
       5
       5
       5
       5
       5
       5
       5
       5
       5
       5
       5
       5
       5
       5
       5
       5
       5
       5
       5
       5
       5
       5
       5
       5
       5
       5
       5
       5
       5
       5
       5
       5
       5
       5
       5
       5
       5
       5
       5
       5
       5
       5
       5
       5
       5
       5
       5
       5
       5
       5
       5
       5
       5
       5
       5
       5
       5
       5
       5
       5
       5
       5
       5
       5
       5
       5
       5
       5
       5
       5
       5
       5
       5
       5
       5
       5
       5
       5
       5
       5
       5
       5
       5
       5
       5
       5
       5
       5
       5
       5
       5
       5
       5
       5
       5
       5
       5
       5
       5
       5
       5
       5
       5
       5
       5
       5
       5
       5
       5
       5
       5
       5
       5
       5
       5
       5
       5
       5
       5
       5
       5
       5
       5
       5
       5
       5
       5
       5
       5
       5
       5
       5
       5
       5
       5
       5
       5
       5
       5
       5
       5
       5
       5
       5
       5
       5
       5
       5
       5
       5
       5
       5
       5
       5
       5
       5
       5
       5
       5
       5
       5
       5
       5
       5
       5
       5
       5
       5
       5
       5
       5
       5
       5
       5
       5
       5
       5
       5
       5
       5
       5
       5
       5
       5
       5
       5
       5
       5
       5
       5
       5
       5
       5
       5
       5
       5
       5
       5
       5
       5
       5
       5
       5
       5
       5
       5
       5
       5
       5
       5
       5
       5
       5
       5
       5
       5
       5
       5
       5
       5
       5
       5
       5
       5
       5
       5
       5
       5
       5
       5
       5
       5
       5
       5
       5
       5
       5
       5
       5
       5
       5
       5
       5
       5
       5
       5
       5
       5
       5
       5
       5
       5
       5
       5
       5
       5
       5
       5
       5
       5
       5
       5
       5
       5
       5
       5
       5
       5
       5
       5
       5
       5
       5
       5
       5
       5
       5
       5
       5
       5
       5
       5
       5
       5
       5
       5
       5
       5
       5
       5
       5
       5
       5
       5
       5
       5
       5
       5
       5
       5
       5
       5
       5
       5
       5
       5
       5
       5
       5
       5
       5
       5
       5
       5
       5
       5
       5
       5
       5
       5
       5
       5
       5
       5
       5
       5
       5
       5
       5
       5
       5
       5
       5
       5
       5
       5
       5
       5
       5
       5
       5
       5
       5
       5
       5
       5
       5
       5
       5
       5
       5
       5
       5
       5
       5
       5
       5
       5
       5
       5
       5
       5
       5
       5
       5
       5
       5
       5
       5
       5
       5
       5
       5
       5
       5
       5
       5
       5
       5
       5
       5
       5
       5
       5
       5
       5
       5
       5
       5
       5
       5
       5
       5
       5
       5
       5
       5
       5
       5
       5
       5
       5
       5
       5
       5
       5
       5
       5
       5
       5
       5
       5
       5
       5
       5
       5
       5
       5
       5
       5
       5
       5
       5
       5
       5
       5
       5
       5
       5
       5
       5
       5
       5
       5
       5
       5
       5
       5
       5
       5
       5
       5
       5
       5
       5
       5
       5
       5
       5
       5
       5
       5
       5
       5
       5
       5
       5
       5
       5
       5
       5
       5
       5
       5
       5
       5
       5
       5
       5
       5
       5
       5
       5
       5
       5
       5
       5
       5
       5
       5
       5
       5
       5
       5
       5
       5
       5
       5
       5
       5
       5
       5
       5
       5
       5
       5
       5
       5
       5
       5
       5
       5
       5
       5
       5
       5
       5
       5
       5
       5
       5
       5
       5
       5
       5
       5
       5
       5
       5
       5
       5
       5
       5
       5
       5
       5
       5
       5
       5
       5

POINT_DATA 2692
VECTORS displacement float
   -3.709108e-01   -4.910313e-03    0.000000e+00
   -4.090890e-01   -4.910171e-03    0.000000e+00
   -3.706075e-01   -4.337478e-02    0.000000e+00
    0.000000e+00    0.000000e+00    0.000000e+00
    0.000000e+00    0.000000e+00    0.000000e+00
   -8.340131e-02    9.177069e-03    0.000000e+00
   -9.997486e-02    2.011548e-02    0.000000e+00
   -1.083108e-01    2.133909e-03    0.000000e+00
   -1.015506e-01   -2.019419e-03    0.000000e+00
    0.000000e+00    0.000000e+00    0.000000e+00
    0.000000e+00    0.000000e+00    0.000000e+00
   -1.069549e-01    4.980815e-03    0.000000e+00
   -1.080491e-01    2.991941e-03    0.000000e+00
   -1.067822e-01    1.609771e-03    0.000000e+00
   -1.162413e-01    2.041662e-02    0.000000e+00
   -1.386815e-01    1.544930e-02    0.000000e+00
   -3.706072e-01    3.355596e-02    0.000000e+00
   -3.784293e-01   -4.910232e-03    0.000000e+00
   -3.860686e-01   -4.910080e-03    0.000000e+00
   -3.937410e-01   -4.910015e-03    0.000000e+00
   -4.014172e-01   -4.910132e-03    0.000000e+00
   -4.083536e-01   -1.238967e-02    0.000000e+00
   -4.061750e-01   -1.958597e-02    0.000000e+00
   -4.026355e-01   -2.622385e-02    0.000000e+00
   -3.978664e-01   -3.205084e-02    0.000000e+00
   -3.920467e-01   -3.684374e-02    0.000000e+00
   -3.853928e-01   -4.041604e-02    0.000000e+00
   -3.781560e-01   -4.262350e-02    0.000000e+00
   -3.706128e-01   -3.564118e-02    0.000000e+00
   -3.706258e-01   -2.793191e-02    0.000000e+00
   -3.706630e-01   -2.024460e-02    0.000000e+00
   -3.707501e-01   -1.256723e-02    0.000000e+00
   -3.628443e-01   -4.337073e-02    0.000000e+00
   -3.550587e-01   -4.334579e-02    0.000000e+00
   -3.472727e-01   -4.328593e-02    0.000000e+00
   -3.394950e-01   -4.319166e-02    0.000000e+00
   -3.317354e-01   -4.306375e-02    0.000000e+00
   -3.240036e-01   -4.290292e-02    0.000000e+00
   -3.163090e-01   -4.271230e-02    0.000000e+00
   -3.086566e-01   -4.248989e-02    0.000000e+00
   -3.010464e-01   -4.223709e-02    0.000000e+00
   -2.934968e-01   -4.196243e-02    0.000000e+00
   -2.860000e-01   -4.165088e-02    0.000000e+00
   -2.785723e-01   -4.131265e-02    0.000000e+00
   -2.712122e-01   -4.094408e-02    0.000000e+00
   -2.639315e-01   -4.054755e-02    0.000000e+00
   -2.567296e-01   -4.012069e-02    0.000000e+00
   -2.496194e-01   -3.966530e-02    0.000000e+00
   -2.425990e-01   -3.917800e-02    0.000000e+00
   -2.356838e-01   -3.866174e-02    0.000000e+00
   -2.288702e-01   -3.811433e-02    0.000000e+00
   -2.221744e-01   -3.753825e-02    0.000000e+00
   -2.155916e-01   -3.693269e-02    0.000000e+00
   -2.091382e-01   -3.629941e-02    0.000000e+00
   -2.028087e-01   -3.563672e-02    0.000000e+00
   -1.966206e-01   -3.494560e-02    0.000000e+00
   -1.905677e-01   -3.422297e-02    0.000000e+00
   -1.846693e-01   -3.347151e-02    0.000000e+00
   -1.789219e-01   -3.268766e-02    0.000000e+00
   -1.733325e-01   -3.186724e-02    0.000000e+00
   -1.679134e-01   -3.102304e-02    0.000000e+00
   -1.626657e-01   -3.014736e-02    0.000000e+00
   -1.576092e-01   -2.924201e-02    0.000000e+00
   -1.527382e-01   -2.830754e-02    0.000000e+00
   -1.480782e-01   -2.734791e-02    0.000000e+00
   -1.436209e-01   -2.636695e-02    0.000000e+00
   -1.393916e-01   -2.537545e-02    0.000000e+00
   -1.353720e-01   -2.438903e-02    0.000000e+00
   -1.315866e-01   -2.341171e-02    0.000000e+00
   -1.280100e-01   -2.245420e-02    0.000000e+00
   -1.246535e-01   -2.153787e-02    0.000000e+00
   -1.214836e-01   -2.067872e-02    0.000000e+00
   -1.184963e-01   -1.988372e-02    0.000000e+00
   -1.156579e-01   -1.916550e-02    0.000000e+00
   -1.129541e-01   -1.852551e-02    0.000000e+00
   -1.103488e-01   -1.797240e-02    0.000000e+00
   -1.078348e-01   -1.749744e-02    0.000000e+00
   -1.053621e-01   -1.710686e-02    0.000000e+00
   -1.029429e-01   -1.678113e-02    0.000000e+00
   -1.005297e-01   -1.651737e-02    0.000000e+00
   -9.812318e-02   -1.630885e-02    0.000000e+00
   -9.571076e-02   -1.613835e-02    0.000000e+00
   -9.328593e-02   -1.599657e-02    0.000000e+00
   -9.084813e-02   -1.587092e-02    0.000000e+00
   -8.839876e-02   -1.575374e-02    0.000000e+00
   -8.594181e-02   -1.563738e-02    0.000000e+00
   -8.348190e-02   -1.551713e-02    0.000000e+00
   -8.102523e-02   -1.539019e-02    0.000000e+00
   -7.857603e-02   -1.525499e-02    0.000000e+00
   -7.613971e-02   -1.511160e-02    0.000000e+00
   -7.371850e-02   -1.495996e-02    0.000000e+00
   -7.131651e-02   -1.480095e-02    0.000000e+00
   -6.893414e-02   -1.463464e-02    0.000000e+00
   -6.657498e-02   -1.446198e-02    0.000000e+00
   -6.423920e-02   -1.428283e-02    0.000000e+00
   -6.192695e-02   -1.409731e-02    0.000000e+00
   -5.964225e-02   -1.390985e-02    0.000000e+00
   -5.738347e-02   -1.371348e-02    0.000000e+00
   -5.515321e-02   -1.351281e-02    0.000000e+00
   -5.295099e-02   -1.330688e-02    0.000000e+00
   -5.077984e-02   -1.309609e-02    0.000000e+00
   -4.863825e-02   -1.287996e-02    0.000000e+00
   -4.652993e-02   -1.265876e-02    0.000000e+00
   -4.445308e-02   -1.243171e-02    0.000000e+00
   -4.241199e-02   -1.219949e-02    0.000000e+00
   -4.040454e-02   -1.196172e-02    0.000000e+00
   -3.843509e-02   -1.171894e-02    0.000000e+00
   -3.650116e-02   -1.147114e-02    0.000000e+00
   -3.460716e-02   -1.121856e-02    0.000000e+00
   -3.275070e-02   -1.096097e-02    0.000000e+00
   -3.093621e-02   -1.069843e-02    0.000000e+00
   -2.916123e-02   -1.043039e-02    0.000000e+00
   -2.743044e-02   -1.015746e-02    0.000000e+00
   -2.574207e-02   -9.878940e-03    0.000000e+00
   -2.409757e-02   -9.593612e-03    0.000000e+00
   -2.249888e-02   -9.304990e-03    0.000000e+00
   -2.094554e-02   -9.011151e-03    0.000000e+00
   -1.944155e-02   -8.712172e-03    0.000000e+00
   -1.798409e-02   -8.407832e-03    0.000000e+00
   -1.657849e-02   -8.098181e-03    0.000000e+00
   -1.522144e-02   -7.782828e-03    0.000000e+00
   -1.391851e-02   -7.462584e-03    0.000000e+00
   -1.266500e-02   -7.138433e-03    0.000000e+00
   -1.146895e-02   -6.808526e-03    0.000000e+00
   -1.032488e-02   -6.471594e-03    0.000000e+00
   -9.239836e-03   -6.130360e-03    0.000000e+00
   -8.208429e-03   -5.784255e-03    0.000000e+00
   -7.237368e-03   -5.433356e-03    0.000000e+00
   -6.322838e-03   -5.077040e-03    0.000000e+00
   -5.470883e-03   -4.715690e-03    0.000000e+00
   -4.678945e-03   -4.348483e-03    0.000000e+00
   -3.947457e-03   -3.974646e-03    0.000000e+00
   -3.280776e-03   -3.604429e-03    0.000000e+00
   -2.677607e-03   -3.220881e-03    0.000000e+00
   -2.139317e-03   -2.834971e-03    0.000000e+00
   -1.664894e-03   -2.445173e-03    0.000000e+00
   -1.258419e-03   -2.051840e-03    0.000000e+00
   -9.124281e-04   -1.654213e-03    0.000000e+00
   -6.290507e-04   -1.253670e-03    0.000000e+00
   -4.025418e-04   -8.477916e-04    0.000000e+00
   -2.109424e-04   -4.251811e-04    0.000000e+00
    0.000000e+00    0.000000e+00    0.000000e+00
    0.000000e+00    0.000000e+00    0.000000e+00
    0.000000e+00    0.000000e+00    0.000000e+00
    0.000000e+00    0.000000e+00    0.000000e+00
    0.000000e+00    0.000000e+00    0.000000e+00
    0.000000e+00    0.000000e+00    0.000000e+00
    0.000000e+00    0.000000e+00    0.000000e+00
    0.000000e+00    0.000000e+00    0.000000e+00
    0.000000e+00    0.000000e+00    0.000000e+00
   -1.290446e-04    2.911083e-04    0.000000e+00
   -2.822903e-04    5.965656e-04    0.000000e+00
   -4.811013e-04    8.886621e-04    0.000000e+00
   -7.484406e-04    1.176930e-03    0.000000e+00
   -1.084157e-03    1.461946e-03    0.000000e+00
   -1.488337e-03    1.742014e-03    0.000000e+00
   -1.959251e-03    2.016565e-03    0.000000e+00
   -2.498669e-03    2.286208e-03    0.000000e+00
   -3.103725e-03    2.554581e-03    0.000000e+00
   -3.770513e-03    2.807964e-03    0.000000e+00
   -4.500208e-03    3.065764e-03    0.000000e+00
   -5.290580e-03    3.314903e-03    0.000000e+00
   -6.144988e-03    3.557962e-03    0.000000e+00
   -7.058925e-03    3.795706e-03    0.000000e+00
   -8.030998e-03    4.028370e-03    0.000000e+00
   -9.060859e-03    4.256275e-03    0.000000e+00
   -1.014798e-02    4.478835e-03    0.000000e+00
   -1.129086e-02    4.696258e-03    0.000000e+00
   -1.248890e-02    4.908434e-03    0.000000e+00
   -1.374065e-02    5.115357e-03    0.000000e+00
   -1.504506e-02    5.316962e-03    0.000000e+00
   -1.640083e-02    5.513721e-03    0.000000e+00
   -1.780759e-02    5.705344e-03    0.000000e+00
   -1.926387e-02    5.892016e-03    0.000000e+00
   -2.076888e-02    6.072988e-03    0.000000e+00
   -2.232106e-02    6.247955e-03    0.000000e+00
   -2.392000e-02    6.416875e-03    0.000000e+00
   -2.556601e-02    6.581753e-03    0.000000e+00
   -2.725464e-02    6.746308e-03    0.000000e+00
   -2.898486e-02    6.901356e-03    0.000000e+00
   -3.075822e-02    7.050898e-03    0.000000e+00
   -3.257326e-02    7.196107e-03    0.000000e+00
   -3.442894e-02    7.335881e-03    0.000000e+00
   -3.632409e-02    7.470154e-03    0.000000e+00
   -3.825748e-02    7.599262e-03    0.000000e+00
   -4.022806e-02    7.722993e-03    0.000000e+00
   -4.223462e-02    7.841634e-03    0.000000e+00
   -4.427632e-02    7.955031e-03    0.000000e+00
   -4.635201e-02    8.063411e-03    0.000000e+00
   -4.846083e-02    8.166684e-03    0.000000e+00
   -5.060164e-02    8.264846e-03    0.000000e+00
   -5.277349e-02    8.357673e-03    0.000000e+00
   -5.497419e-02    8.444771e-03    0.000000e+00
   -5.720428e-02    8.526915e-03    0.000000e+00
   -5.946292e-02    8.605515e-03    0.000000e+00
   -6.174654e-02    8.675367e-03    0.000000e+00
   -6.405618e-02    8.744596e-03    0.000000e+00
   -6.638920e-02    8.807718e-03    0.000000e+00
   -6.874689e-02    8.866257e-03    0.000000e+00
   -7.112748e-02    8.921187e-03    0.000000e+00
   -7.353063e-02    8.973310e-03    0.000000e+00
   -7.595679e-02    9.023720e-03    0.000000e+00
   -7.840763e-02    9.073515e-03    0.000000e+00
   -8.088646e-02    9.124187e-03    0.000000e+00
   -8.591001e-02    9.472155e-03    0.000000e+00
   -8.840403e-02    1.024417e-02    0.000000e+00
   -9.082048e-02    1.145505e-02    0.000000e+00
   -9.314307e-02    1.301521e-02    0.000000e+00
   -9.524824e-02    1.482534e-02    0.000000e+00
   -9.714066e-02    1.672257e-02    0.000000e+00
   -9.870165e-02    1.852648e-02    0.000000e+00
   -1.009276e-01    2.152700e-02    0.000000e+00
   -1.018080e-01    2.274728e-02    0.000000e+00
   -1.026400e-01    2.377435e-02    0.000000e+00
   -1.034219e-01    2.463286e-02    0.000000e+00
   -1.042020e-01    2.532813e-02    0.000000e+00
   -1.049091e-01    2.586960e-02    0.000000e+00
   -1.056055e-01    2.625415e-02    0.000000e+00
   -1.062363e-01    2.650739e-02    0.000000e+00
   -1.068466e-01    2.661747e-02    0.000000e+00
   -1.074325e-01    2.660630e-02    0.000000e+00
   -1.079683e-01    2.648024e-02    0.000000e+00
   -1.084624e-01    2.624019e-02    0.000000e+00
   -1.089347e-01    2.589390e-02    0.000000e+00
   -1.093639e-01    2.545137e-02    0.000000e+00
   -1.097647e-01    2.491298e-02    0.000000e+00
   -1.101285e-01    2.429410e-02    0.000000e+00
   -1.104544e-01    2.359858e-02    0.000000e+00
   -1.107466e-01    2.283084e-02    0.000000e+00
   -1.110017e-01    2.200409e-02    0.000000e+00
   -1.112180e-01    2.111990e-02    0.000000e+00
   -1.114106e-01    2.018687e-02    0.000000e+00
   -1.115625e-01    1.921077e-02    0.000000e+00
   -1.116822e-01    1.819503e-02    0.000000e+00
   -1.117654e-01    1.715744e-02    0.000000e+00
   -1.118115e-01    1.609811e-02    0.000000e+00
   -1.118211e-01    1.502238e-02    0.000000e+00
   -1.118013e-01    1.393896e-02    0.000000e+00
   -1.117455e-01    1.286183e-02    0.000000e+00
   -1.116528e-01    1.178286e-02    0.000000e+00
   -1.115267e-01    1.072420e-02    0.000000e+00
   -1.113628e-01    9.681384e-03    0.000000e+00
   -1.111671e-01    8.666134e-03    0.000000e+00
   -1.109429e-01    7.691512e-03    0.000000e+00
   -1.106777e-01    6.746530e-03    0.000000e+00
   -1.103876e-01    5.855001e-03    0.000000e+00
   -1.100544e-01    5.003272e-03    0.000000e+00
   -1.096963e-01    4.213399e-03    0.000000e+00
   -1.092875e-01    3.464563e-03    0.000000e+00
   -1.088433e-01    2.774948e-03    0.000000e+00
   -1.076754e-01    1.539954e-03    0.000000e+00
   -1.070484e-01    1.019763e-03    0.000000e+00
   -1.063610e-01    5.864245e-04    0.000000e+00
   -1.056373e-01    1.591537e-04    0.000000e+00
   -1.047815e-01   -2.707298e-04    0.000000e+00
   -1.038385e-01   -7.822357e-04    0.000000e+00
   -1.027711e-01   -1.338309e-03    0.000000e+00
   -1.002230e-01   -2.714050e-03    0.000000e+00
   -9.882630e-02   -3.323573e-03    0.000000e+00
   -9.735359e-02   -3.886873e-03    0.000000e+00
   -9.580021e-02   -4.418741e-03    0.000000e+00
   -9.416505e-02   -4.925113e-03    0.000000e+00
   -9.244890e-02   -5.407304e-03    0.000000e+00
   -9.065457e-02   -5.865749e-03    0.000000e+00
   -8.878260e-02   -6.302224e-03    0.000000e+00
   -8.683587e-02   -6.720441e-03    0.000000e+00
   -8.482634e-02   -7.107729e-03    0.000000e+00
   -8.274674e-02   -7.480039e-03    0.000000e+00
   -8.061306e-02   -7.824701e-03    0.000000e+00
   -7.842218e-02   -8.145043e-03    0.000000e+00
   -7.618120e-02   -8.442135e-03    0.000000e+00
   -7.389494e-02   -8.715607e-03    0.000000e+00
   -7.156802e-02   -8.965456e-03    0.000000e+00
   -6.920514e-02   -9.191232e-03    0.000000e+00
   -6.681131e-02   -9.393014e-03    0.000000e+00
   -6.439134e-02   -9.570768e-03    0.000000e+00
   -6.195003e-02   -9.724539e-03    0.000000e+00
   -5.949226e-02   -9.854317e-03    0.000000e+00
   -5.702280e-02   -9.960212e-03    0.000000e+00
   -5.454638e-02   -1.004218e-02    0.000000e+00
   -5.206756e-02   -1.010012e-02    0.000000e+00
   -4.959156e-02   -1.013393e-02    0.000000e+00
   -4.712378e-02   -1.014377e-02    0.000000e+00
   -4.466910e-02   -1.013009e-02    0.000000e+00
   -4.222799e-02   -1.009156e-02    0.000000e+00
   -3.981106e-02   -1.003026e-02    0.000000e+00
   -3.741870e-02   -9.944317e-03    0.000000e+00
   -3.505907e-02   -9.835084e-03    0.000000e+00
   -3.273487e-02   -9.701089e-03    0.000000e+00
   -3.045205e-02   -9.543236e-03    0.000000e+00
   -2.821547e-02   -9.361817e-03    0.000000e+00
   -2.602915e-02   -9.156417e-03    0.000000e+00
   -2.389809e-02   -8.927217e-03    0.000000e+00
   -2.182697e-02   -8.673782e-03    0.000000e+00
   -1.982126e-02   -8.396600e-03    0.000000e+00
   -1.788524e-02   -8.095131e-03    0.000000e+00
   -1.602424e-02   -7.769639e-03    0.000000e+00
   -1.424277e-02   -7.419931e-03    0.000000e+00
   -1.254539e-02   -7.046674e-03    0.000000e+00
   -1.093432e-02   -6.650443e-03    0.000000e+00
   -9.422201e-03   -6.228755e-03    0.000000e+00
   -8.003883e-03   -5.778168e-03    0.000000e+00
   -6.692016e-03   -5.319105e-03    0.000000e+00
   -5.481060e-03   -4.819206e-03    0.000000e+00
   -4.386507e-03   -4.302904e-03    0.000000e+00
   -3.411826e-03   -3.763971e-03    0.000000e+00
   -2.557189e-03   -3.200149e-03    0.000000e+00
   -1.828546e-03   -2.612413e-03    0.000000e+00
   -1.225821e-03   -2.001098e-03    0.000000e+00
   -7.450391e-04   -1.364576e-03    0.000000e+00
   -3.626934e-04   -6.840132e-04    0.000000e+00
    0.000000e+00    0.000000e+00    0.000000e+00
    0.000000e+00    0.000000e+00    0.000000e+00
    0.000000e+00    0.000000e+00    0.000000e+00
    0.000000e+00    0.000000e+00    0.000000e+00
    0.000000e+00    0.000000e+00    0.000000e+00
    0.000000e+00    0.000000e+00    0.000000e+00
    0.000000e+00    0.000000e+00    0.000000e+00
    0.000000e+00    0.000000e+00    0.000000e+00
    0.000000e+00    0.000000e+00    0.000000e+00
   -4.298568e-04    8.168465e-04    0.000000e+00
   -8.734085e-04    1.627570e-03    0.000000e+00
   -1.373237e-03    2.372697e-03    0.000000e+00
   -1.991670e-03    3.088684e-03    0.000000e+00
   -2.735027e-03    3.786142e-03    0.000000e+00
   -3.589657e-03    4.464184e-03    0.000000e+00
   -4.569439e-03    5.120519e-03    0.000000e+00
   -5.661262e-03    5.753365e-03    0.000000e+00
   -6.868161e-03    6.367402e-03    0.000000e+00
   -8.178653e-03    6.943545e-03    0.000000e+00
   -9.599557e-03    7.510723e-03    0.000000e+00
   -1.111388e-02    8.051266e-03    0.000000e+00
   -1.272104e-02    8.566038e-03    0.000000e+00
   -1.442108e-02    9.057490e-03    0.000000e+00
   -1.620144e-02    9.523868e-03    0.000000e+00
   -1.806444e-02    9.967632e-03    0.000000e+00
   -1.999829e-02    1.038804e-02    0.000000e+00
   -2.200540e-02    1.078531e-02    0.000000e+00
   -2.407442e-02    1.115761e-02    0.000000e+00
   -2.620676e-02    1.150600e-02    0.000000e+00
   -2.839253e-02    1.182864e-02    0.000000e+00
   -3.063090e-02    1.212836e-02    0.000000e+00
   -3.291273e-02    1.240350e-02    0.000000e+00
   -3.523710e-02    1.265573e-02    0.000000e+00
   -3.759617e-02    1.288317e-02    0.000000e+00
   -3.998751e-02    1.308743e-02    0.000000e+00
   -4.240451e-02    1.326675e-02    0.000000e+00
   -4.484542e-02    1.342353e-02    0.000000e+00
   -4.730110e-02    1.355615e-02    0.000000e+00
   -4.976906e-02    1.366381e-02    0.000000e+00
   -5.224521e-02    1.374847e-02    0.000000e+00
   -5.472371e-02    1.380824e-02    0.000000e+00
   -5.720010e-02    1.384507e-02    0.000000e+00
   -5.966977e-02    1.385703e-02    0.000000e+00
   -6.212711e-02    1.384587e-02    0.000000e+00
   -6.456883e-02    1.380997e-02    0.000000e+00
   -6.698850e-02    1.375074e-02    0.000000e+00
   -6.938324e-02    1.366682e-02    0.000000e+00
   -7.174559e-02    1.355972e-02    0.000000e+00
   -7.407352e-02    1.342791e-02    0.000000e+00
   -7.635913e-02    1.327317e-02    0.000000e+00
   -7.860176e-02    1.309347e-02    0.000000e+00
   -8.079226e-02    1.289033e-02    0.000000e+00
   -8.292776e-02    1.266131e-02    0.000000e+00
   -8.500838e-02    1.240639e-02    0.000000e+00
   -8.701747e-02    1.213627e-02    0.000000e+00
   -8.896172e-02    1.183225e-02    0.000000e+00
   -9.082743e-02    1.150583e-02    0.000000e+00
   -9.261493e-02    1.115402e-02    0.000000e+00
   -9.431243e-02    1.077866e-02    0.000000e+00
   -9.592015e-02    1.037777e-02    0.000000e+00
   -9.742370e-02    9.954402e-03    0.000000e+00
   -9.882542e-02    9.509377e-03    0.000000e+00
   -1.001090e-01    9.047561e-03    0.000000e+00
   -1.012761e-01    8.570181e-03    0.000000e+00
   -1.023161e-01    8.088171e-03    0.000000e+00
   -1.032350e-01    7.612015e-03    0.000000e+00
   -1.040262e-01    7.147125e-03    0.000000e+00
   -1.047039e-01    6.704865e-03    0.000000e+00
   -1.052675e-01    6.294237e-03    0.000000e+00
   -1.057364e-01    5.926072e-03    0.000000e+00
   -1.061203e-01    5.604969e-03    0.000000e+00
   -1.064401e-01    5.339387e-03    0.000000e+00
   -1.067084e-01    5.129679e-03    0.000000e+00
   -1.071935e-01    4.858132e-03    0.000000e+00
   -1.074251e-01    4.712414e-03    0.000000e+00
   -1.076425e-01    4.522265e-03    0.000000e+00
   -1.078366e-01    4.285129e-03    0.000000e+00
   -1.079892e-01    4.010519e-03    0.000000e+00
   -1.080824e-01    3.698556e-03    0.000000e+00
   -1.081113e-01    3.352171e-03    0.000000e+00
   -1.079053e-01    2.620067e-03    0.000000e+00
   -1.076996e-01    2.275236e-03    0.000000e+00
   -1.074400e-01    1.981718e-03    0.000000e+00
   -1.071322e-01    1.754734e-03    0.000000e+00
   -1.064004e-01    1.560108e-03    0.000000e+00
   -1.059968e-01    1.614455e-03    0.000000e+00
   -1.055830e-01    1.778736e-03    0.000000e+00
   -1.051687e-01    2.053396e-03    0.000000e+00
   -1.047646e-01    2.437044e-03    0.000000e+00
   -1.043784e-01    2.925642e-03    0.000000e+00
   -1.040185e-01    3.510199e-03    0.000000e+00
   -1.036886e-01    4.183174e-03    0.000000e+00
   -1.033926e-01    4.934392e-03    0.000000e+00
   -1.031308e-01    5.754989e-03    0.000000e+00
   -1.029052e-01    6.635639e-03    0.000000e+00
   -1.027153e-01    7.568215e-03    0.000000e+00
   -1.025619e-01    8.543762e-03    0.000000e+00
   -1.024436e-01    9.555055e-03    0.000000e+00
   -1.023603e-01    1.059700e-02    0.000000e+00
   -1.023141e-01    1.165869e-02    0.000000e+00
   -1.023022e-01    1.273462e-02    0.000000e+00
   -1.023267e-01    1.381691e-02    0.000000e+00
   -1.023849e-01    1.489902e-02    0.000000e+00
   -1.024795e-01    1.597428e-02    0.000000e+00
   -1.026078e-01    1.703489e-02    0.000000e+00
   -1.027724e-01    1.807519e-02    0.000000e+00
   -1.029706e-01    1.908644e-02    0.000000e+00
   -1.032053e-01    2.006325e-02    0.000000e+00
   -1.034732e-01    2.099634e-02    0.000000e+00
   -1.037775e-01    2.188201e-02    0.000000e+00
   -1.041156e-01    2.270929e-02    0.000000e+00
   -1.044899e-01    2.347597e-02    0.000000e+00
   -1.048980e-01    2.417015e-02    0.000000e+00
   -1.053419e-01    2.479018e-02    0.000000e+00
   -1.058203e-01    2.532358e-02    0.000000e+00
   -1.063353e-01    2.576959e-02    0.000000e+00
   -1.068835e-01    2.611392e-02    0.000000e+00
   -1.074648e-01    2.635342e-02    0.000000e+00
   -1.080819e-01    2.648107e-02    0.000000e+00
   -1.087324e-01    2.649084e-02    0.000000e+00
   -1.094176e-01    2.637516e-02    0.000000e+00
   -1.101354e-01    2.612606e-02    0.000000e+00
   -1.108867e-01    2.573997e-02    0.000000e+00
   -1.116696e-01    2.521118e-02    0.000000e+00
   -1.124846e-01    2.453664e-02    0.000000e+00
   -1.133314e-01    2.371540e-02    0.000000e+00
   -1.142176e-01    2.274903e-02    0.000000e+00
   -1.151656e-01    2.164694e-02    0.000000e+00
   -1.175680e-01    1.912224e-02    0.000000e+00
   -1.192701e-01    1.773678e-02    0.000000e+00
   -1.214620e-01    1.640825e-02    0.000000e+00
   -1.240642e-01    1.531563e-02    0.000000e+00
   -1.270778e-01    1.451360e-02    0.000000e+00
   -1.305776e-01    1.425908e-02    0.000000e+00
   -1.344787e-01    1.458807e-02    0.000000e+00
   -1.431745e-01    1.660024e-02    0.000000e+00
   -1.477998e-01    1.762647e-02    0.000000e+00
   -1.525789e-01    1.858799e-02    0.000000e+00
   -1.575187e-01    1.950777e-02    0.000000e+00
   -1.626241e-01    2.039450e-02    0.000000e+00
   -1.678918e-01    2.124842e-02    0.000000e+00
   -1.733249e-01    2.207210e-02    0.000000e+00
   -1.789275e-01    2.287261e-02    0.000000e+00
   -1.846800e-01    2.366386e-02    0.000000e+00
   -1.905769e-01    2.441123e-02    0.000000e+00
   -1.966232e-01    2.512989e-02    0.000000e+00
   -2.028124e-01    2.582271e-02    0.000000e+00
   -2.091382e-01    2.648539e-02    0.000000e+00
   -2.155948e-01    2.711830e-02    0.000000e+00
   -2.221752e-01    2.772153e-02    0.000000e+00
   -2.288740e-01    2.829554e-02    0.000000e+00
   -2.356844e-01    2.883987e-02    0.000000e+00
   -2.426011e-01    2.935514e-02    0.000000e+00
   -2.496180e-01    2.984139e-02    0.000000e+00
   -2.567296e-01    3.029839e-02    0.000000e+00
   -2.639300e-01    3.072620e-02    0.000000e+00
   -2.712134e-01    3.112425e-02    0.000000e+00
   -2.785708e-01    3.149123e-02    0.000000e+00
   -2.859992e-01    3.182909e-02    0.000000e+00
   -2.934983e-01    3.214157e-02    0.000000e+00
   -3.010491e-01    3.241636e-02    0.000000e+00
   -3.086579e-01    3.267063e-02    0.000000e+00
   -3.163083e-01    3.289248e-02    0.000000e+00
   -3.240032e-01    3.308323e-02    0.000000e+00
   -3.317334e-01    3.324315e-02    0.000000e+00
   -3.394925e-01    3.337144e-02    0.000000e+00
   -3.472717e-01    3.346619e-02    0.000000e+00
   -3.550588e-01    3.352641e-02    0.000000e+00
   -3.628410e-01    3.355364e-02    0.000000e+00
   -3.706131e-01    2.581967e-02    0.000000e+00
   -3.706266e-01    1.811110e-02    0.000000e+00
   -3.706647e-01    1.042381e-02    0.000000e+00
   -3.707508e-01    2.746568e-03    0.000000e+00
   -3.781568e-01    3.280311e-02    0.000000e+00
   -3.853934e-01    3.059533e-02    0.000000e+00
   -3.920470e-01    2.702240e-02    0.000000e+00
   -3.978667e-01    2.222997e-02    0.000000e+00
   -4.026356e-01    1.640277e-02    0.000000e+00
   -4.061747e-01    9.765237e-03    0.000000e+00
   -4.083533e-01    2.569304e-03    0.000000e+00
   -3.949929e-01   -2.591556e-02    0.000000e+00
   -3.870632e-01   -3.340682e-02    0.000000e+00
   -3.795490e-01   -3.284599e-02    0.000000e+00
   -3.985893e-01   -1.342701e-02    0.000000e+00
   -3.892722e-01   -1.209987e-02    0.000000e+00
   -3.781168e-01   -2.380599e-02    0.000000e+00
   -3.989054e-01   -2.090688e-02    0.000000e+00
   -3.917510e-01   -3.088921e-02    0.000000e+00
   -3.809255e-01   -1.167716e-02    0.000000e+00
   -3.868167e-01   -2.636847e-02    0.000000e+00
   -3.921104e-01   -1.950947e-02    0.000000e+00
   -3.769085e-01   -1.732004e-02    0.000000e+00
   -3.840270e-01   -1.845631e-02    0.000000e+00
   -3.558067e-01   -2.859930e-02    0.000000e+00
   -3.555042e-01   -1.289625e-02    0.000000e+00
   -3.541133e-01    3.196251e-03    0.000000e+00
   -3.562679e-01    1.869604e-02    0.000000e+00
   -3.378850e-01   -2.927202e-02    0.000000e+00
   -3.376185e-01   -1.213065e-02    0.000000e+00
   -3.375379e-01    3.426183e-03    0.000000e+00
   -3.386108e-01    1.954023e-02    0.000000e+00
   -3.231768e-01   -2.855279e-02    0.000000e+00
   -3.226580e-01   -1.160717e-02    0.000000e+00
   -3.216477e-01    5.092449e-03    0.000000e+00
   -3.227434e-01    1.942220e-02    0.000000e+00
   -3.064617e-01   -2.812839e-02    0.000000e+00
   -3.061922e-01   -1.209401e-02    0.000000e+00
   -3.066072e-01    5.178687e-03    0.000000e+00
   -3.056917e-01    1.957663e-02    0.000000e+00
   -2.878064e-01   -2.766203e-02    0.000000e+00
   -2.876384e-01   -1.186797e-02    0.000000e+00
   -2.901658e-01    2.814309e-03    0.000000e+00
   -2.886269e-01    1.873502e-02    0.000000e+00
   -2.716445e-01   -2.703011e-02    0.000000e+00
   -2.727017e-01   -1.124412e-02    0.000000e+00
   -2.729462e-01    5.590378e-03    0.000000e+00
   -2.718314e-01    1.854048e-02    0.000000e+00
   -2.566490e-01   -2.644189e-02    0.000000e+00
   -2.560715e-01   -9.413960e-03    0.000000e+00
   -2.585216e-01    4.297278e-03    0.000000e+00
   -2.573062e-01    1.783552e-02    0.000000e+00
   -2.423815e-01   -2.646182e-02    0.000000e+00
   -2.416080e-01   -1.115197e-02    0.000000e+00
   -2.431002e-01    4.326181e-03    0.000000e+00
   -2.427118e-01    1.702086e-02    0.000000e+00
   -2.286168e-01   -2.600945e-02    0.000000e+00
   -2.292106e-01   -1.118463e-02    0.000000e+00
   -2.279337e-01    3.928059e-03    0.000000e+00
   -2.284477e-01    1.629676e-02    0.000000e+00
   -2.152445e-01   -2.475022e-02    0.000000e+00
   -2.158263e-01   -9.528458e-03    0.000000e+00
   -2.131432e-01    2.897365e-03    0.000000e+00
   -2.146303e-01    1.563692e-02    0.000000e+00
   -2.020594e-01   -2.343632e-02    0.000000e+00
   -2.018799e-01   -8.981258e-03    0.000000e+00
   -1.999399e-01    3.509995e-03    0.000000e+00
   -2.014557e-01    1.513790e-02    0.000000e+00
   -1.892651e-01   -2.279596e-02    0.000000e+00
   -1.879529e-01   -1.006506e-02    0.000000e+00
   -1.876657e-01    1.839421e-03    0.000000e+00
   -1.881703e-01    1.382652e-02    0.000000e+00
   -1.757311e-01   -2.195301e-02    0.000000e+00
   -1.755513e-01   -9.821404e-03    0.000000e+00
   -1.760799e-01    8.621925e-04    0.000000e+00
   -1.754908e-01    1.192671e-02    0.000000e+00
   -1.630919e-01   -2.042281e-02    0.000000e+00
   -1.637925e-01   -9.300276e-03    0.000000e+00
   -1.631524e-01    2.087377e-03    0.000000e+00
   -1.630153e-01    1.127493e-02    0.000000e+00
   -1.526425e-01   -1.906859e-02    0.000000e+00
   -1.523064e-01   -8.100800e-03    0.000000e+00
   -1.534632e-01    1.405215e-03    0.000000e+00
   -1.528815e-01    1.032556e-02    0.000000e+00
   -1.432962e-01   -1.808379e-02    0.000000e+00
   -1.430986e-01   -8.791635e-03    0.000000e+00
   -1.438295e-01    6.694247e-04    0.000000e+00
   -1.431903e-01    8.914124e-03    0.000000e+00
   -1.343287e-01   -1.616968e-02    0.000000e+00
   -1.344053e-01   -7.575536e-03    0.000000e+00
   -1.353726e-01    1.795772e-04    0.000000e+00
   -1.342103e-01    7.011100e-03    0.000000e+00
   -1.272814e-01   -1.590757e-02    0.000000e+00
   -1.267240e-01   -7.865784e-03    0.000000e+00
   -1.264048e-01   -2.101889e-04    0.000000e+00
   -1.260021e-01    6.700777e-03    0.000000e+00
   -1.209667e-01   -1.453122e-02    0.000000e+00
   -1.205281e-01   -7.261711e-03    0.000000e+00
   -1.193617e-01    5.621184e-05    0.000000e+00
   -1.203495e-01    6.254401e-03    0.000000e+00
   -1.195045e-01    1.214770e-02    0.000000e+00
   -1.183553e-01    1.636807e-02    0.000000e+00
   -1.150957e-01   -1.353629e-02    0.000000e+00
   -1.145189e-01   -6.846322e-03    0.000000e+00
   -1.143488e-01    2.966733e-04    0.000000e+00
   -1.141176e-01    6.335872e-03    0.000000e+00
   -1.137629e-01    1.161280e-02    0.000000e+00
   -1.131537e-01    1.613717e-02    0.000000e+00
   -1.133459e-01    1.976876e-02    0.000000e+00
   -1.118311e-01    2.253198e-02    0.000000e+00
   -1.105922e-01    2.460533e-02    0.000000e+00
   -1.097375e-01    2.595678e-02    0.000000e+00
   -1.089146e-01    2.669952e-02    0.000000e+00
   -1.081721e-01    2.685292e-02    0.000000e+00
   -1.074733e-01    2.651035e-02    0.000000e+00
   -1.067433e-01    2.560143e-02    0.000000e+00
   -1.062397e-01    2.444039e-02    0.000000e+00
   -1.058020e-01    2.298564e-02    0.000000e+00
   -1.055555e-01    2.119171e-02    0.000000e+00
   -1.052525e-01    1.917707e-02    0.000000e+00
   -1.048613e-01    1.701025e-02    0.000000e+00
   -1.046740e-01    1.485291e-02    0.000000e+00
   -1.045796e-01    1.263060e-02    0.000000e+00
   -1.045186e-01    1.045383e-02    0.000000e+00
   -1.047370e-01    8.090825e-03    0.000000e+00
   -1.049308e-01    6.106845e-03    0.000000e+00
   -1.051627e-01    4.389630e-03    0.000000e+00
   -1.054348e-01    2.990847e-03    0.000000e+00
   -1.058397e-01    1.998306e-03    0.000000e+00
   -1.062483e-01    1.418710e-03    0.000000e+00
   -1.066493e-01    1.365296e-03    0.000000e+00
   -1.070149e-01    1.729859e-03    0.000000e+00
   -1.073405e-01    2.452754e-03    0.000000e+00
   -1.075675e-01    3.284965e-03    0.000000e+00
   -1.075978e-01    4.163498e-03    0.000000e+00
   -1.094460e-01   -1.272267e-02    0.000000e+00
   -1.094238e-01   -6.414715e-03    0.000000e+00
   -1.093971e-01   -2.106789e-04    0.000000e+00
   -1.089600e-01    5.869799e-03    0.000000e+00
   -1.089932e-01    1.118877e-02    0.000000e+00
   -1.089749e-01    1.571091e-02    0.000000e+00
   -1.089733e-01    1.967704e-02    0.000000e+00
   -1.089150e-01    2.274549e-02    0.000000e+00
   -1.087010e-01    2.475288e-02    0.000000e+00
   -1.084682e-01    2.613799e-02    0.000000e+00
   -1.082033e-01    2.684334e-02    0.000000e+00
   -1.078947e-01    2.700761e-02    0.000000e+00
   -1.076445e-01    2.665123e-02    0.000000e+00
   -1.074243e-01    2.580832e-02    0.000000e+00
   -1.072475e-01    2.457334e-02    0.000000e+00
   -1.070499e-01    2.293905e-02    0.000000e+00
   -1.069621e-01    2.120321e-02    0.000000e+00
   -1.068821e-01    1.918135e-02    0.000000e+00
   -1.067088e-01    1.697268e-02    0.000000e+00
   -1.066093e-01    1.481243e-02    0.000000e+00
   -1.065146e-01    1.254995e-02    0.000000e+00
   -1.064167e-01    1.029731e-02    0.000000e+00
   -1.063663e-01    8.152651e-03    0.000000e+00
   -1.064707e-01    6.114849e-03    0.000000e+00
   -1.063516e-01    4.318312e-03    0.000000e+00
   -1.063869e-01    2.897390e-03    0.000000e+00
   -1.064078e-01    1.900853e-03    0.000000e+00
   -1.065597e-01    1.247007e-03    0.000000e+00
   -1.067424e-01    1.200685e-03    0.000000e+00
   -1.069095e-01    1.606226e-03    0.000000e+00
   -1.070597e-01    2.365899e-03    0.000000e+00
   -1.071508e-01    3.248312e-03    0.000000e+00
   -1.071736e-01    4.291558e-03    0.000000e+00
   -1.034408e-01   -1.203509e-02    0.000000e+00
   -1.033139e-01   -6.094237e-03    0.000000e+00
   -1.034652e-01   -3.503185e-04    0.000000e+00
   -1.038175e-01    4.867080e-03    0.000000e+00
   -1.044093e-01    1.118316e-02    0.000000e+00
   -1.050126e-01    1.539264e-02    0.000000e+00
   -1.053445e-01    1.956895e-02    0.000000e+00
   -1.062490e-01    2.241888e-02    0.000000e+00
   -1.065119e-01    2.481637e-02    0.000000e+00
   -1.068275e-01    2.614872e-02    0.000000e+00
   -1.071841e-01    2.683755e-02    0.000000e+00
   -1.075059e-01    2.700761e-02    0.000000e+00
   -1.077891e-01    2.665606e-02    0.000000e+00
   -1.080419e-01    2.582706e-02    0.000000e+00
   -1.082438e-01    2.460114e-02    0.000000e+00
   -1.084128e-01    2.306499e-02    0.000000e+00
   -1.086655e-01    2.123095e-02    0.000000e+00
   -1.084416e-01    1.915082e-02    0.000000e+00
   -1.085669e-01    1.700665e-02    0.000000e+00
   -1.085621e-01    1.480263e-02    0.000000e+00
   -1.084467e-01    1.249993e-02    0.000000e+00
   -1.082776e-01    1.026871e-02    0.000000e+00
   -1.080864e-01    8.183596e-03    0.000000e+00
   -1.077424e-01    6.161238e-03    0.000000e+00
   -1.075858e-01    4.360471e-03    0.000000e+00
   -1.073133e-01    2.911346e-03    0.000000e+00
   -1.069917e-01    1.688048e-03    0.000000e+00
   -1.068453e-01    1.004239e-03    0.000000e+00
   -1.067848e-01    9.795266e-04    0.000000e+00
   -1.067654e-01    1.496028e-03    0.000000e+00
   -1.067827e-01    2.402653e-03    0.000000e+00
   -1.067607e-01    3.398551e-03    0.000000e+00
   -1.066781e-01    4.523466e-03    0.000000e+00
   -9.830014e-02   -1.157502e-02    0.000000e+00
   -9.873473e-02   -5.974076e-03    0.000000e+00
   -9.891639e-02   -3.570561e-04    0.000000e+00
   -9.963968e-02    5.318598e-03    0.000000e+00
   -9.961133e-02    1.102532e-02    0.000000e+00
   -1.004068e-01    1.516430e-02    0.000000e+00
   -1.018643e-01    1.905245e-02    0.000000e+00
   -1.026774e-01    2.226572e-02    0.000000e+00
   -1.041631e-01    2.456283e-02    0.000000e+00
   -1.052193e-01    2.585922e-02    0.000000e+00
   -1.062741e-01    2.660263e-02    0.000000e+00
   -1.072270e-01    2.682729e-02    0.000000e+00
   -1.081081e-01    2.644160e-02    0.000000e+00
   -1.088140e-01    2.562924e-02    0.000000e+00
   -1.092266e-01    2.448588e-02    0.000000e+00
   -1.096326e-01    2.302639e-02    0.000000e+00
   -1.100714e-01    2.120464e-02    0.000000e+00
   -1.104577e-01    1.915494e-02    0.000000e+00
   -1.103383e-01    1.705237e-02    0.000000e+00
   -1.106221e-01    1.487092e-02    0.000000e+00
   -1.103582e-01    1.234200e-02    0.000000e+00
   -1.101028e-01    1.025328e-02    0.000000e+00
   -1.100692e-01    8.190849e-03    0.000000e+00
   -1.096347e-01    6.243589e-03    0.000000e+00
   -1.090851e-01    4.500998e-03    0.000000e+00
   -1.083721e-01    2.939332e-03    0.000000e+00
   -1.075097e-01    1.587210e-03    0.000000e+00
   -1.069269e-01    8.027374e-04    0.000000e+00
   -1.065556e-01    6.605534e-04    0.000000e+00
   -1.064008e-01    1.315756e-03    0.000000e+00
   -1.063040e-01    2.334214e-03    0.000000e+00
   -1.061573e-01    3.546299e-03    0.000000e+00
   -1.059567e-01    4.907468e-03    0.000000e+00
   -9.335867e-02   -1.114270e-02    0.000000e+00
   -9.390726e-02   -5.572137e-03    0.000000e+00
   -9.422835e-02   -7.935572e-05    0.000000e+00
   -9.447673e-02    5.295453e-03    0.000000e+00
   -9.476415e-02    1.053876e-02    0.000000e+00
   -1.058337e-01    2.843233e-04    0.000000e+00
   -1.057208e-01    1.034860e-03    0.000000e+00
   -1.054086e-01    2.155931e-03    0.000000e+00
   -1.050882e-01    3.769007e-03    0.000000e+00
   -1.049180e-01    5.392657e-03    0.000000e+00
   -8.832090e-02   -1.104435e-02    0.000000e+00
   -8.786451e-02   -5.630488e-03    0.000000e+00
   -8.840507e-02   -2.347522e-04    0.000000e+00
   -8.893386e-02    4.676428e-03    0.000000e+00
   -8.340575e-02   -1.097973e-02    0.000000e+00
   -8.320886e-02   -5.348258e-03    0.000000e+00
   -8.341276e-02   -1.113236e-06    0.000000e+00
   -8.344002e-02    4.784474e-03    0.000000e+00
   -7.848538e-02   -1.064767e-02    0.000000e+00
   -7.823946e-02   -5.170939e-03    0.000000e+00
   -7.837369e-02    3.400958e-04    0.000000e+00
   -7.827613e-02    4.749239e-03    0.000000e+00
   -7.349506e-02   -1.028462e-02    0.000000e+00
   -7.312003e-02   -5.263490e-03    0.000000e+00
   -7.297280e-02    3.702303e-05    0.000000e+00
   -7.323199e-02    4.736287e-03    0.000000e+00
   -6.858918e-02   -1.011860e-02    0.000000e+00
   -6.813599e-02   -5.040024e-03    0.000000e+00
   -6.818897e-02    2.465575e-04    0.000000e+00
   -6.836861e-02    4.670383e-03    0.000000e+00
   -6.350949e-02   -9.867072e-03    0.000000e+00
   -6.337857e-02   -4.961949e-03    0.000000e+00
   -6.348614e-02    3.370793e-04    0.000000e+00
   -6.316270e-02    4.755026e-03    0.000000e+00
   -5.787253e-02   -9.514478e-03    0.000000e+00
   -5.777339e-02   -4.721798e-03    0.000000e+00
   -5.849838e-02   -2.775649e-04    0.000000e+00
   -5.800605e-02    4.564148e-03    0.000000e+00
   -5.302937e-02   -9.143825e-03    0.000000e+00
   -5.329684e-02   -4.399845e-03    0.000000e+00
   -5.332880e-02    6.781048e-04    0.000000e+00
   -5.297366e-02    4.584189e-03    0.000000e+00
   -4.856651e-02   -8.805917e-03    0.000000e+00
   -4.834440e-02   -3.703648e-03    0.000000e+00
   -4.903759e-02    3.889878e-04    0.000000e+00
   -4.865061e-02    4.450374e-03    0.000000e+00
   -4.434606e-02   -8.661817e-03    0.000000e+00
   -4.407215e-02   -4.094931e-03    0.000000e+00
   -4.447292e-02    5.115570e-04    0.000000e+00
   -4.433081e-02    4.296367e-03    0.000000e+00
   -4.029078e-02   -8.386374e-03    0.000000e+00
   -4.042123e-02   -3.992493e-03    0.000000e+00
   -4.000546e-02    5.131265e-04    0.000000e+00
   -4.012677e-02    4.180656e-03    0.000000e+00
   -3.636148e-02   -7.880598e-03    0.000000e+00
   -3.648684e-02   -3.378120e-03    0.000000e+00
   -3.566520e-02    3.328561e-04    0.000000e+00
   -3.606819e-02    4.093443e-03    0.000000e+00
   -3.249492e-02   -7.364974e-03    0.000000e+00
   -3.239927e-02   -3.085726e-03    0.000000e+00
   -3.179307e-02    6.360932e-04    0.000000e+00
   -3.220483e-02    4.062278e-03    0.000000e+00
   -2.874749e-02   -7.055561e-03    0.000000e+00
   -2.831928e-02   -3.271373e-03    0.000000e+00
   -2.817571e-02    2.745518e-04    0.000000e+00
   -2.831032e-02    3.820367e-03    0.000000e+00
   -2.477702e-02   -6.684074e-03    0.000000e+00
   -2.466652e-02   -3.093563e-03    0.000000e+00
   -2.453370e-02    1.925857e-04    0.000000e+00
   -2.464209e-02    3.478882e-03    0.000000e+00
   -2.104995e-02   -6.119826e-03    0.000000e+00
   -2.123139e-02   -2.828374e-03    0.000000e+00
   -2.112070e-02    5.097262e-04    0.000000e+00
   -2.097974e-02    3.364520e-03    0.000000e+00
   -1.793771e-02   -5.628198e-03    0.000000e+00
   -1.781263e-02   -2.318725e-03    0.000000e+00
   -1.814690e-02    5.317370e-04    0.000000e+00
   -1.794051e-02    3.234191e-03    0.000000e+00
   -1.510927e-02   -5.256309e-03    0.000000e+00
   -1.503879e-02   -2.437245e-03    0.000000e+00
   -1.526740e-02    4.478032e-04    0.000000e+00
   -1.510803e-02    2.996337e-03    0.000000e+00
   -1.232912e-02   -4.595247e-03    0.000000e+00
   -1.236348e-02   -1.997907e-03    0.000000e+00
   -1.267995e-02    3.754852e-04    0.000000e+00
   -1.246097e-02    2.755029e-03    0.000000e+00
   -1.007644e-02   -4.422448e-03    0.000000e+00
   -9.950908e-03   -2.023071e-03    0.000000e+00
   -1.002028e-02    4.848244e-04    0.000000e+00
   -1.002358e-02    2.519733e-03    0.000000e+00
   -7.998262e-03   -3.872947e-03    0.000000e+00
   -7.791423e-03   -1.706182e-03    0.000000e+00
   -7.670690e-03    3.807926e-04    0.000000e+00
   -7.839634e-03    2.270882e-03    0.000000e+00
   -6.069171e-03   -3.383002e-03    0.000000e+00
   -5.770667e-03   -1.469342e-03    0.000000e+00
   -5.987447e-03    4.867493e-04    0.000000e+00
   -5.943733e-03    1.993749e-03    0.000000e+00
   -4.292462e-03   -2.858648e-03    0.000000e+00
   -4.138879e-03   -1.320639e-03    0.000000e+00
   -4.154927e-03    2.872579e-04    0.000000e+00
   -4.122267e-03    1.715155e-03    0.000000e+00
   -2.641819e-03   -2.224623e-03    0.000000e+00
   -2.514040e-03   -1.011595e-03    0.000000e+00
   -2.589271e-03    1.499017e-04    0.000000e+00
   -2.632166e-03    1.376247e-03    0.000000e+00
   -1.507857e-03   -1.639224e-03    0.000000e+00
   -1.483962e-03   -7.045604e-04    0.000000e+00
   -1.461781e-03    1.958546e-04    0.000000e+00
   -1.442894e-03    1.002334e-03    0.000000e+00
   -7.820285e-04   -1.150548e-03    0.000000e+00
   -6.630230e-04   -5.192499e-04    0.000000e+00
   -6.948360e-04    7.293479e-05    0.000000e+00
   -6.609434e-04    6.618483e-04    0.000000e+00
   -1.848665e-04   -4.681469e-04    0.000000e+00
   -1.143447e-04   -2.275867e-04    0.000000e+00
   -9.634474e-05    2.559078e-05    0.000000e+00
   -1.395350e-04    2.896560e-04    0.000000e+00
   -1.041209e-01    6.234521e-04    0.000000e+00
   -1.039537e-01    2.106899e-03    0.000000e+00
   -1.037320e-01    3.792317e-03    0.000000e+00
   -1.033988e-01    5.951520e-03    0.000000e+00
   -9.898514e-02   -9.223531e-04    0.000000e+00
   -9.903055e-02    1.438719e-03    0.000000e+00
   -9.895714e-02    3.882567e-03    0.000000e+00
   -9.907354e-02    6.966616e-03    0.000000e+00
   -1.014619e-01    6.683630e-03    0.000000e+00
   -1.016271e-01    4.178555e-03    0.000000e+00
   -1.017650e-01    1.869702e-03    0.000000e+00
   -1.018029e-01   -1.029372e-04    0.000000e+00
   -9.583686e-02   -1.732238e-03    0.000000e+00
   -9.577788e-02    1.112677e-03    0.000000e+00
   -9.604187e-02    4.192454e-03    0.000000e+00
   -9.603510e-02    7.437178e-03    0.000000e+00
   -9.237920e-02   -2.403948e-03    0.000000e+00
   -9.240435e-02    8.235635e-04    0.000000e+00
   -9.189569e-02    4.492989e-03    0.000000e+00
   -9.255559e-02    7.893311e-03    0.000000e+00
   -8.808903e-02   -3.265229e-03    0.000000e+00
   -8.829018e-02    7.829992e-04    0.000000e+00
   -8.862006e-02    4.472354e-03    0.000000e+00
   -8.856671e-02    8.353446e-03    0.000000e+00
   -8.381230e-02   -3.854882e-03    0.000000e+00
   -8.382079e-02    4.803542e-04    0.000000e+00
   -8.352600e-02    4.476789e-03    0.000000e+00
   -8.358771e-02    8.716580e-03    0.000000e+00
   -7.887004e-02   -4.238366e-03    0.000000e+00
   -7.911947e-02   -1.778275e-04    0.000000e+00
   -7.921706e-02    4.445137e-03    0.000000e+00
   -7.887700e-02    8.928714e-03    0.000000e+00
   -7.423722e-02   -4.702107e-03    0.000000e+00
   -7.455311e-02   -3.483107e-04    0.000000e+00
   -7.448874e-02    4.421799e-03    0.000000e+00
   -7.420036e-02    9.000619e-03    0.000000e+00
   -6.937543e-02   -5.060478e-03    0.000000e+00
   -6.936349e-02   -9.412430e-04    0.000000e+00
   -6.962422e-02    3.979367e-03    0.000000e+00
   -6.934574e-02    9.132029e-03    0.000000e+00
   -6.437489e-02   -5.339263e-03    0.000000e+00
   -6.422740e-02   -8.217684e-04    0.000000e+00
   -6.421141e-02    4.019096e-03    0.000000e+00
   -6.453671e-02    9.250890e-03    0.000000e+00
   -5.933408e-02   -5.575942e-03    0.000000e+00
   -5.945533e-02   -9.683241e-04    0.000000e+00
   -5.981217e-02    4.078994e-03    0.000000e+00
   -5.968509e-02    9.184144e-03    0.000000e+00
   -5.423760e-02   -5.784045e-03    0.000000e+00
   -5.377096e-02   -1.181819e-03    0.000000e+00
   -5.441142e-02    3.416520e-03    0.000000e+00
   -5.453879e-02    8.997831e-03    0.000000e+00
   -4.921527e-02   -5.827797e-03    0.000000e+00
   -4.904887e-02   -1.523715e-03    0.000000e+00
   -4.878548e-02    3.740704e-03    0.000000e+00
   -4.930973e-02    8.966198e-03    0.000000e+00
   -4.319310e-02   -5.951234e-03    0.000000e+00
   -4.313695e-02   -8.593341e-04    0.000000e+00
   -4.344561e-02    3.696263e-03    0.000000e+00
   -4.354434e-02    8.861741e-03    0.000000e+00
   -3.807986e-02   -5.772439e-03    0.000000e+00
   -3.824785e-02   -1.066659e-03    0.000000e+00
   -3.821899e-02    3.589232e-03    0.000000e+00
   -3.787328e-02    8.445395e-03    0.000000e+00
   -3.302349e-02   -5.799333e-03    0.000000e+00
   -3.341645e-02   -1.527965e-03    0.000000e+00
   -3.312024e-02    3.314639e-03    0.000000e+00
   -3.293793e-02    7.989995e-03    0.000000e+00
   -2.832245e-02   -5.520035e-03    0.000000e+00
   -2.834155e-02   -1.327084e-03    0.000000e+00
   -2.836699e-02    2.879923e-03    0.000000e+00
   -2.815605e-02    7.531714e-03    0.000000e+00
   -2.384346e-02   -5.251067e-03    0.000000e+00
   -2.383441e-02   -1.545240e-03    0.000000e+00
   -2.378381e-02    3.234838e-03    0.000000e+00
   -2.369524e-02    7.282578e-03    0.000000e+00
   -1.960511e-02   -4.945446e-03    0.000000e+00
   -1.939221e-02   -1.468888e-03    0.000000e+00
   -1.986911e-02    2.797813e-03    0.000000e+00
   -1.981289e-02    6.834513e-03    0.000000e+00
   -1.568622e-02   -4.620750e-03    0.000000e+00
   -1.526497e-02   -1.321285e-03    0.000000e+00
   -1.580972e-02    1.883575e-03    0.000000e+00
   -1.602173e-02    6.075903e-03    0.000000e+00
   -1.220711e-02   -4.227168e-03    0.000000e+00
   -1.184455e-02   -1.445005e-03    0.000000e+00
   -1.192942e-02    2.058263e-03    0.000000e+00
   -1.234801e-02    5.450925e-03    0.000000e+00
   -8.695443e-03   -3.601693e-03    0.000000e+00
   -8.332646e-03   -7.517755e-04    0.000000e+00
   -8.779240e-03    1.842767e-03    0.000000e+00
   -8.935335e-03    4.710536e-03    0.000000e+00
   -5.717016e-03   -3.008035e-03    0.000000e+00
   -5.538780e-03   -7.185168e-04    0.000000e+00
   -5.447118e-03    1.457127e-03    0.000000e+00
   -5.672336e-03    3.765578e-03    0.000000e+00
   -3.316312e-03   -2.257874e-03    0.000000e+00
   -3.293876e-03   -6.878655e-04    0.000000e+00
   -3.327004e-03    1.094265e-03    0.000000e+00
   -3.404402e-03    2.876312e-03    0.000000e+00
   -1.641026e-03   -1.542869e-03    0.000000e+00
   -1.565427e-03   -3.757307e-04    0.000000e+00
   -1.693667e-03    7.955456e-04    0.000000e+00
   -1.821456e-03    1.945942e-03    0.000000e+00
   -4.114886e-04   -6.496523e-04    0.000000e+00
   -4.094256e-04   -1.685245e-04    0.000000e+00
   -3.653034e-04    3.557118e-04    0.000000e+00
   -4.921039e-04    8.778117e-04    0.000000e+00
   -1.077584e-01    3.990155e-03    0.000000e+00
   -1.234569e-01    1.265341e-02    0.000000e+00
   -1.206445e-01    1.461134e-02    0.000000e+00
   -1.070595e-01    4.675612e-03    0.000000e+00
   -9.987247e-02    1.739561e-02    0.000000e+00
   -1.077942e-01    3.101548e-03    0.000000e+00
   -1.023941e-01   -7.926283e-04    0.000000e+00
   -8.480632e-02    7.101031e-03    0.000000e+00
   -1.355068e-01    1.116248e-02    0.000000e+00
   -1.062972e-01    4.147345e-04    0.000000e+00
   -9.057721e-02    8.985996e-03    0.000000e+00
   -1.274993e-01    1.206116e-02    0.000000e+00
   -1.037248e-01   -2.853839e-04    0.000000e+00
   -1.072671e-01    1.135947e-03    0.000000e+00
   -1.072519e-01    4.590588e-03    0.000000e+00
   -1.078610e-01    3.428098e-03    0.000000e+00
   -1.152227e-01    2.006565e-02    0.000000e+00
   -9.628545e-02    1.287042e-02    0.000000e+00
   -9.802611e-02    1.504385e-02    0.000000e+00
   -1.046699e-01   -1.318231e-04    0.000000e+00
   -1.067830e-01    6.994220e-04    0.000000e+00
   -1.312664e-01    1.172400e-02    0.000000e+00
   -8.791605e-02    7.387554e-03    0.000000e+00
   -1.074079e-01    4.384911e-03    0.000000e+00
   -1.144905e-01    2.131403e-02    0.000000e+00
   -3.635286e-01   -3.278946e-02    0.000000e+00
   -3.508823e-01   -3.613110e-02    0.000000e+00
   -2.896495e-01    2.650491e-02    0.000000e+00
   -3.048441e-01    2.707028e-02    0.000000e+00
   -3.350948e-01   -3.642891e-02    0.000000e+00
   -2.752900e-01    2.491447e-02    0.000000e+00
   -3.196842e-01   -3.611076e-02    0.000000e+00
   -2.606162e-01    2.427955e-02    0.000000e+00
   -3.050410e-01   -3.655319e-02    0.000000e+00
   -2.461965e-01    2.345441e-02    0.000000e+00
   -2.826678e-01   -3.510416e-02    0.000000e+00
   -2.252170e-01    2.210554e-02    0.000000e+00
   -2.676888e-01   -3.425647e-02    0.000000e+00
   -2.118168e-01    2.115767e-02    0.000000e+00
   -2.531006e-01   -3.360169e-02    0.000000e+00
   -1.989477e-01    2.020691e-02    0.000000e+00
   -2.390106e-01   -3.304788e-02    0.000000e+00
   -1.865486e-01    1.944504e-02    0.000000e+00
   -2.253557e-01   -3.219020e-02    0.000000e+00
   -1.770312e-01    1.814407e-02    0.000000e+00
   -2.121201e-01   -3.093790e-02    0.000000e+00
   -1.602437e-01    1.552981e-02    0.000000e+00
   -1.992885e-01   -2.969750e-02    0.000000e+00
   -1.502560e-01    1.404671e-02    0.000000e+00
   -1.868785e-01   -2.861810e-02    0.000000e+00
   -1.406566e-01    1.222801e-02    0.000000e+00
   -1.711358e-01   -2.697155e-02    0.000000e+00
   -1.602153e-01   -2.522468e-02    0.000000e+00
   -1.083450e-01    2.664949e-02    0.000000e+00
   -1.502827e-01   -2.366065e-02    0.000000e+00
   -1.412635e-01   -2.208642e-02    0.000000e+00
   -1.330289e-01   -2.039320e-02    0.000000e+00
   -1.260040e-01   -1.899980e-02    0.000000e+00
   -1.197166e-01   -1.751714e-02    0.000000e+00
   -1.140092e-01   -1.634021e-02    0.000000e+00
   -1.090682e-01   -1.574107e-02    0.000000e+00
   -1.018346e-01   -1.453079e-02    0.000000e+00
   -9.697703e-02   -1.403677e-02    0.000000e+00
   -7.959549e-02    6.939414e-03    0.000000e+00
   -9.207894e-02   -1.371201e-02    0.000000e+00
   -7.460397e-02    6.882215e-03    0.000000e+00
   -8.714745e-02   -1.353748e-02    0.000000e+00
   -6.974741e-02    6.800929e-03    0.000000e+00
   -8.222924e-02   -1.333972e-02    0.000000e+00
   -6.495451e-02    6.783260e-03    0.000000e+00
   -7.730903e-02   -1.302535e-02    0.000000e+00
   -5.830697e-02    6.911871e-03    0.000000e+00
   -7.240640e-02   -1.271772e-02    0.000000e+00
   -5.399860e-02    6.483287e-03    0.000000e+00
   -6.757661e-02   -1.246354e-02    0.000000e+00
   -4.962387e-02    6.357173e-03    0.000000e+00
   -6.311452e-02   -1.242375e-02    0.000000e+00
   -4.534914e-02    6.186697e-03    0.000000e+00
   -5.635671e-02   -1.170086e-02    0.000000e+00
   -4.119106e-02    6.003099e-03    0.000000e+00
   -5.187525e-02   -1.126526e-02    0.000000e+00
   -3.717541e-02    5.835005e-03    0.000000e+00
   -4.753910e-02   -1.090073e-02    0.000000e+00
   -3.332381e-02    5.665606e-03    0.000000e+00
   -4.337337e-02   -1.057904e-02    0.000000e+00
   -2.959760e-02    5.474878e-03    0.000000e+00
   -3.935210e-02   -1.017904e-02    0.000000e+00
   -2.641025e-02    5.673206e-03    0.000000e+00
   -3.546453e-02   -9.674088e-03    0.000000e+00
   -2.167608e-02    4.777800e-03    0.000000e+00
   -3.170216e-02   -9.183448e-03    0.000000e+00
   -1.859784e-02    4.545319e-03    0.000000e+00
   -2.806485e-02   -8.750835e-03    0.000000e+00
   -1.574919e-02    4.241574e-03    0.000000e+00
   -2.343922e-02   -8.131308e-03    0.000000e+00
   -1.309443e-02    3.918005e-03    0.000000e+00
   -2.020869e-02   -7.530547e-03    0.000000e+00
   -1.065260e-02    3.586309e-03    0.000000e+00
   -1.723822e-02   -6.995305e-03    0.000000e+00
   -8.441842e-03    3.238995e-03    0.000000e+00
   -1.449234e-02   -6.460899e-03    0.000000e+00
   -6.484430e-03    2.867908e-03    0.000000e+00
   -1.192162e-02   -5.876934e-03    0.000000e+00
   -4.751720e-03    2.498650e-03    0.000000e+00
   -9.667174e-03   -5.351775e-03    0.000000e+00
   -2.749110e-03    1.987617e-03    0.000000e+00
   -7.610008e-03   -4.737252e-03    0.000000e+00
   -1.694154e-03    1.487576e-03    0.000000e+00
   -5.760555e-03   -4.131933e-03    0.000000e+00
   -8.608659e-04    1.038453e-03    0.000000e+00
   -4.253155e-03   -3.616095e-03    0.000000e+00
   -3.072206e-04    5.711410e-04    0.000000e+00
   -2.343227e-03   -2.592207e-03    0.000000e+00
   -5.185099e-05    1.699430e-04    0.000000e+00
   -1.374022e-03   -1.906662e-03    0.000000e+00
   -3.125491e-06   -1.841805e-05    0.000000e+00
   -6.724407e-04   -1.213352e-03    0.000000e+00
   -1.896504e-05   -1.296924e-04    0.000000e+00
   -1.852895e-04   -4.611958e-04    0.000000e+00
   -1.075459e-01    2.668750e-02    0.000000e+00
   -1.072991e-01    2.635933e-02    0.000000e+00
   -1.085186e-01    2.614079e-02    0.000000e+00
   -1.063648e-01    2.563869e-02    0.000000e+00
   -1.092591e-01    2.518781e-02    0.000000e+00
   -1.055816e-01    2.458374e-02    0.000000e+00
   -1.097554e-01    2.406454e-02    0.000000e+00
   -1.048970e-01    2.319896e-02    0.000000e+00
   -1.052228e-01    2.392899e-02    0.000000e+00
   -1.102294e-01    2.256395e-02    0.000000e+00
   -1.043263e-01    2.153021e-02    0.000000e+00
   -1.045957e-01    2.239803e-02    0.000000e+00
   -9.170787e-02    9.781261e-03    0.000000e+00
   -9.518336e-02    9.151203e-03    0.000000e+00
   -1.037255e-01    6.149304e-03    0.000000e+00
   -1.034108e-01    8.059775e-03    0.000000e+00
   -1.031710e-01    1.008599e-02    0.000000e+00
   -1.010543e-01   -1.315790e-03    0.000000e+00
   -8.811757e-02    1.049897e-02    0.000000e+00
   -3.496137e-04   -7.037508e-04    0.000000e+00
   -8.769349e-05   -1.299244e-04    0.000000e+00
   -8.116815e-05    1.037116e-04    0.000000e+00
   -2.171911e-04    4.910091e-04    0.000000e+00
   -9.330083e-04    1.581822e-03    0.000000e+00
   -2.236595e-03    2.826688e-03    0.000000e+00
   -1.152702e-02   -5.439611e-03    0.000000e+00
   -8.623560e-03   -4.983312e-03    0.000000e+00
   -1.494207e-02   -6.048690e-03    0.000000e+00
   -1.339199e-02    7.297893e-03    0.000000e+00
   -1.702826e-02    8.109413e-03    0.000000e+00
   -2.087989e-02    8.872317e-03    0.000000e+00
   -3.648379e-02   -7.886211e-03    0.000000e+00
   -3.170978e-02   -7.674950e-03    0.000000e+00
   -4.132219e-02   -8.162929e-03    0.000000e+00
   -4.147453e-02    1.116310e-02    0.000000e+00
   -4.571234e-02    1.140022e-02    0.000000e+00
   -6.808030e-02   -7.210351e-03    0.000000e+00
   -6.315053e-02   -7.523493e-03    0.000000e+00
   -7.289550e-02   -6.817479e-03    0.000000e+00
   -7.294822e-02    1.139959e-02    0.000000e+00
   -7.759895e-02    1.118911e-02    0.000000e+00
   -9.500871e-02   -3.290221e-03    0.000000e+00
   -9.150094e-02   -4.109820e-03    0.000000e+00
   -7.752620e-02   -6.323575e-03    0.000000e+00
   -8.201876e-02   -5.823709e-03    0.000000e+00
   -5.815484e-02   -7.771177e-03    0.000000e+00
   -5.313912e-02   -7.941504e-03    0.000000e+00
   -4.810256e-02   -7.971969e-03    0.000000e+00
   -2.714794e-02   -7.363187e-03    0.000000e+00
   -2.280124e-02   -6.984659e-03    0.000000e+00
   -1.871312e-02   -6.555522e-03    0.000000e+00
   -4.919771e-03   -3.693210e-03    0.000000e+00
   -2.896799e-03   -2.783704e-03    0.000000e+00
   -1.383096e-03   -1.810345e-03    0.000000e+00
   -5.026443e-03    4.556405e-03    0.000000e+00
   -7.329654e-03    5.269138e-03    0.000000e+00
   -1.011496e-02    6.455169e-03    0.000000e+00
   -2.716242e-02    9.696947e-03    0.000000e+00
   -3.174124e-02    1.021909e-02    0.000000e+00
   -3.650257e-02    1.069103e-02    0.000000e+00
   -5.082794e-02    1.149377e-02    0.000000e+00
   -5.842459e-02    1.164028e-02    0.000000e+00
   -6.334972e-02    1.166228e-02    0.000000e+00
   -6.815977e-02    1.157134e-02    0.000000e+00
   -8.205570e-02    1.093339e-02    0.000000e+00
   -9.817728e-02   -2.356535e-03    0.000000e+00
   -9.825452e-02    8.488121e-03    0.000000e+00
   -1.041438e-01    4.484810e-03    0.000000e+00
   -1.008266e-01    7.819138e-03    0.000000e+00
   -1.028761e-01    7.041824e-03    0.000000e+00
   -1.051113e-01    5.946524e-03    0.000000e+00
   -1.060458e-01    5.352242e-03    0.000000e+00
   -1.066161e-01    4.999130e-03    0.000000e+00
   -1.075821e-01    2.399880e-03    0.000000e+00
   -1.077166e-01    2.737151e-03    0.000000e+00
   -1.031232e-01    1.216717e-02    0.000000e+00
   -1.031798e-01    1.434835e-02    0.000000e+00
   -1.033584e-01    1.651102e-02    0.000000e+00
   -1.036663e-01    1.860586e-02    0.000000e+00
   -1.040771e-01    2.059563e-02    0.000000e+00
   -3.194362e-01    2.620040e-02    0.000000e+00
   -3.635041e-01   -8.832075e-03    0.000000e+00
   -3.431145e-01    2.648091e-02    0.000000e+00
   -3.633100e-01    6.858055e-03    0.000000e+00
   -3.600650e-01    2.647402e-02    0.000000e+00
   -8.786517e-02   -5.153790e-03    0.000000e+00
   -1.121866e-01    2.432892e-02    0.000000e+00
   -1.107992e-01    2.567843e-02    0.000000e+00
   -1.095112e-01    2.644458e-02    0.000000e+00
   -1.038603e-01    1.962217e-02    0.000000e+00
   -1.034990e-01    1.756743e-02    0.000000e+00
   -1.032520e-01    1.543496e-02    0.000000e+00
   -1.031352e-01    1.325334e-02    0.000000e+00
   -1.031307e-01    1.110469e-02    0.000000e+00
   -1.046620e-01    3.125526e-03    0.000000e+00
   -1.052777e-01    2.137152e-03    0.000000e+00
   -1.059468e-01    1.580433e-03    0.000000e+00
   -1.065962e-01    1.488774e-03    0.000000e+00
   -1.071584e-01    1.806498e-03    0.000000e+00
   -3.636664e-01   -2.446938e-02    0.000000e+00
   -3.636491e-01   -1.661768e-02    0.000000e+00
   -3.964198e-04   -8.373915e-04    0.000000e+00
   -9.994244e-04   -1.572341e-03    0.000000e+00
   -1.822538e-03   -2.242991e-03    0.000000e+00
   -2.871521e-03   -2.940546e-03    0.000000e+00
   -3.490286e-03   -3.079044e-03    0.000000e+00
   -4.926771e-03   -3.830407e-03    0.000000e+00
   -6.653854e-03   -4.432239e-03    0.000000e+00
   -8.613525e-03   -5.043968e-03    0.000000e+00
   -1.076081e-02   -5.635956e-03    0.000000e+00
   -1.316628e-02   -6.141356e-03    0.000000e+00
   -1.584060e-02   -6.732792e-03    0.000000e+00
   -1.869409e-02   -7.252229e-03    0.000000e+00
   -2.179362e-02   -7.816311e-03    0.000000e+00
   -2.486242e-02   -8.564764e-03    0.000000e+00
   -2.628938e-02   -8.557165e-03    0.000000e+00
   -2.986313e-02   -8.962687e-03    0.000000e+00
   -3.356193e-02   -9.415620e-03    0.000000e+00
   -3.739297e-02   -9.929565e-03    0.000000e+00
   -4.134651e-02   -1.039211e-02    0.000000e+00
   -4.543887e-02   -1.074832e-02    0.000000e+00
   -4.968609e-02   -1.107477e-02    0.000000e+00
   -5.410134e-02   -1.147355e-02    0.000000e+00
   -5.838934e-02   -1.207285e-02    0.000000e+00
   -6.071659e-02   -1.155224e-02    0.000000e+00
   -6.519598e-02   -1.235318e-02    0.000000e+00
   -6.997711e-02   -1.258945e-02    0.000000e+00
   -7.484454e-02   -1.286123e-02    0.000000e+00
   -7.976424e-02   -1.319051e-02    0.000000e+00
   -8.468358e-02   -1.345171e-02    0.000000e+00
   -8.960848e-02   -1.361350e-02    0.000000e+00
   -9.453871e-02   -1.384950e-02    0.000000e+00
   -9.941492e-02   -1.425494e-02    0.000000e+00
   -1.040080e-01   -1.501267e-02    0.000000e+00
   -1.064749e-01   -1.454117e-02    0.000000e+00
   -1.113468e-01   -1.588146e-02    0.000000e+00
   -1.167930e-01   -1.688575e-02    0.000000e+00
   -1.227819e-01   -1.822981e-02    0.000000e+00
   -1.293894e-01   -1.974888e-02    0.000000e+00
   -1.369876e-01   -2.114025e-02    0.000000e+00
   -1.456676e-01   -2.288706e-02    0.000000e+00
   -1.551332e-01   -2.440958e-02    0.000000e+00
   -1.655617e-01   -2.605321e-02    0.000000e+00
   -1.759648e-01   -2.830538e-02    0.000000e+00
   -1.808262e-01   -2.814068e-02    0.000000e+00
   -1.930123e-01   -2.914769e-02    0.000000e+00
   -2.056326e-01   -3.027818e-02    0.000000e+00
   -2.186887e-01   -3.157915e-02    0.000000e+00
   -2.321330e-01   -3.266846e-02    0.000000e+00
   -2.460042e-01   -3.335866e-02    0.000000e+00
   -2.603339e-01   -3.390788e-02    0.000000e+00
   -2.751419e-01   -3.465503e-02    0.000000e+00
   -2.894157e-01   -3.605821e-02    0.000000e+00
   -2.971628e-01   -3.401885e-02    0.000000e+00
   -3.118932e-01   -3.604391e-02    0.000000e+00
   -3.274468e-01   -3.628499e-02    0.000000e+00
   -3.428594e-01   -3.614403e-02    0.000000e+00
   -3.576247e-01   -3.684029e-02    0.000000e+00
   -2.031662e-05    9.876056e-05    0.000000e+00
   -6.912375e-06    3.939474e-05    0.000000e+00
   -6.727015e-06   -7.382059e-05    0.000000e+00
   -3.611135e-05   -1.790323e-04    0.000000e+00
   -6.321749e-05   -2.161898e-04    0.000000e+00
   -8.214847e-02    6.980224e-03    0.000000e+00
   -7.708317e-02    6.904590e-03    0.000000e+00
   -7.216106e-02    6.841959e-03    0.000000e+00
   -6.734595e-02    6.756906e-03    0.000000e+00
   -6.289859e-02    7.049451e-03    0.000000e+00
   -6.059346e-02    6.301404e-03    0.000000e+00
   -5.627834e-02    6.571979e-03    0.000000e+00
   -5.178990e-02    6.429279e-03    0.000000e+00
   -4.747549e-02    6.270554e-03    0.000000e+00
   -4.325435e-02    6.083858e-03    0.000000e+00
   -3.916373e-02    5.915833e-03    0.000000e+00
   -3.522661e-02    5.742376e-03    0.000000e+00
   -3.145254e-02    5.579878e-03    0.000000e+00
   -2.781818e-02    5.495470e-03    0.000000e+00
   -2.503655e-02    5.237835e-03    0.000000e+00
   -2.335758e-02    4.927584e-03    0.000000e+00
   -2.010329e-02    4.666982e-03    0.000000e+00
   -1.715017e-02    4.393916e-03    0.000000e+00
   -1.439693e-02    4.078000e-03    0.000000e+00
   -1.184736e-02    3.751242e-03    0.000000e+00
   -9.516811e-03    3.412325e-03    0.000000e+00
   -7.432355e-03    3.055011e-03    0.000000e+00
   -5.590311e-03    2.674631e-03    0.000000e+00
   -4.088494e-03    2.418007e-03    0.000000e+00
   -3.368929e-03    2.011242e-03    0.000000e+00
   -2.224228e-03    1.722821e-03    0.000000e+00
   -1.242393e-03    1.264989e-03    0.000000e+00
   -5.473245e-04    8.022453e-04    0.000000e+00
   -1.645691e-04    3.844164e-04    0.000000e+00
   -1.080413e-01    2.174297e-03    0.000000e+00
   -1.089448e-01    3.737823e-03    0.000000e+00
   -1.095961e-01    5.367334e-03    0.000000e+00
   -1.101153e-01    7.198859e-03    0.000000e+00
   -1.105146e-01    9.362032e-03    0.000000e+00
   -1.107563e-01    1.126702e-02    0.000000e+00
   -1.110271e-01    1.319490e-02    0.000000e+00
   -1.110742e-01    1.571452e-02    0.000000e+00
   -1.109610e-01    1.759409e-02    0.000000e+00
   -1.108076e-01    1.985128e-02    0.000000e+00
   -7.993513e-04   -1.264104e-03    0.000000e+00
   -2.078148e-03   -2.311109e-03    0.000000e+00
   -3.842340e-03   -3.231311e-03    0.000000e+00
   -5.974147e-03   -4.206067e-03    0.000000e+00
   -7.200170e-03   -4.220329e-03    0.000000e+00
   -9.923154e-03   -5.119639e-03    0.000000e+00
   -1.319631e-02   -5.761026e-03    0.000000e+00
   -1.678269e-02   -6.309236e-03    0.000000e+00
   -2.071998e-02   -6.767547e-03    0.000000e+00
   -2.494577e-02   -7.179290e-03    0.000000e+00
   -2.940386e-02   -7.517845e-03    0.000000e+00
   -3.406036e-02   -7.801947e-03    0.000000e+00
   -3.891382e-02   -8.037076e-03    0.000000e+00
   -4.338150e-02   -8.468419e-03    0.000000e+00
   -4.549874e-02   -8.059138e-03    0.000000e+00
   -5.063497e-02   -7.968275e-03    0.000000e+00
   -5.564471e-02   -7.861548e-03    0.000000e+00
   -6.066129e-02   -7.648522e-03    0.000000e+00
   -6.562462e-02   -7.370713e-03    0.000000e+00
   -7.050733e-02   -7.019797e-03    0.000000e+00
   -7.523400e-02   -6.578954e-03    0.000000e+00
   -7.978980e-02   -6.046643e-03    0.000000e+00
   -8.388081e-02   -5.839026e-03    0.000000e+00
   -8.593364e-02   -4.981615e-03    0.000000e+00
   -8.958396e-02   -4.570186e-03    0.000000e+00
   -9.330191e-02   -3.705714e-03    0.000000e+00
   -9.663185e-02   -2.833688e-03    0.000000e+00
   -9.965025e-02   -1.843538e-03    0.000000e+00
   -1.349440e-04    3.345920e-04    0.000000e+00
   -9.819218e-05    2.159485e-04    0.000000e+00
   -7.986631e-05   -8.364921e-06    0.000000e+00
   -9.972533e-05   -2.292503e-04    0.000000e+00
   -1.314479e-04   -3.096115e-04    0.000000e+00
   -1.068342e-01    4.812810e-03    0.000000e+00
   -1.063857e-01    5.117248e-03    0.000000e+00
   -1.056248e-01    5.627581e-03    0.000000e+00
   -1.044852e-01    6.291755e-03    0.000000e+00
   -1.037413e-01    6.666025e-03    0.000000e+00
   -1.019006e-01    7.455544e-03    0.000000e+00
   -9.961177e-02    8.150455e-03    0.000000e+00
   -9.676769e-02    8.835463e-03    0.000000e+00
   -9.348387e-02    9.471446e-03    0.000000e+00
   -8.984399e-02    1.010036e-02    0.000000e+00
   -8.609480e-02    1.013813e-02    0.000000e+00
   -8.394745e-02    1.096528e-02    0.000000e+00
   -7.985491e-02    1.106705e-02    0.000000e+00
   -7.529743e-02    1.130025e-02    0.000000e+00
   -7.056834e-02    1.149548e-02    0.000000e+00
   -6.575685e-02    1.164135e-02    0.000000e+00
   -6.090613e-02    1.166990e-02    0.000000e+00
   -5.590218e-02    1.159415e-02    0.000000e+00
   -5.336941e-02    1.153891e-02    0.000000e+00
   -4.827221e-02    1.143740e-02    0.000000e+00
   -4.359264e-02    1.161499e-02    0.000000e+00
   -3.896543e-02    1.091797e-02    0.000000e+00
   -3.409982e-02    1.045401e-02    0.000000e+00
   -2.942193e-02    9.955660e-03    0.000000e+00
   -2.497153e-02    9.450156e-03    0.000000e+00
   -2.288137e-02    9.188371e-03    0.000000e+00
   -1.892886e-02    8.518393e-03    0.000000e+00
   -1.517679e-02    7.708335e-03    0.000000e+00
   -1.170655e-02    6.885256e-03    0.000000e+00
   -8.810148e-03    6.172820e-03    0.000000e+00
   -6.084829e-03    5.132924e-03    0.000000e+00
   -3.969532e-03    3.989247e-03    0.000000e+00
   -3.043150e-03    3.425501e-03    0.000000e+00
   -1.523182e-03    2.202144e-03    0.000000e+00
   -5.529292e-04    1.074148e-03    0.000000e+00
   -1.068908e-01    1.601428e-03    0.000000e+00
   -1.073900e-01    2.081231e-03    0.000000e+00
   -1.129263e-01    2.343352e-02    0.000000e+00
   -1.114833e-01    2.507637e-02    0.000000e+00
   -1.101434e-01    2.613293e-02    0.000000e+00
   -1.089130e-01    2.661527e-02    0.000000e+00
   -1.078094e-01    2.656437e-02    0.000000e+00
   -1.068170e-01    2.604687e-02    0.000000e+00
   -1.059602e-01    2.515796e-02    0.000000e+00
   -1.032819e-01    9.070698e-03    0.000000e+00
   -1.035550e-01    7.076270e-03    0.000000e+00
   -1.039213e-01    5.281663e-03    0.000000e+00
   -1.043911e-01    3.761611e-03    0.000000e+00
   -1.049578e-01    2.581125e-03    0.000000e+00
   -1.056085e-01    1.801380e-03    0.000000e+00
   -1.062780e-01    1.477365e-03    0.000000e+00
   -3.514366e-01    2.633962e-02    0.000000e+00
   -3.351305e-01    2.645371e-02    0.000000e+00
   -3.272646e-01    2.634244e-02    0.000000e+00
   -3.115976e-01    2.626730e-02    0.000000e+00
   -2.972263e-01    2.456189e-02    0.000000e+00
   -2.829006e-01    2.530471e-02    0.000000e+00
   -2.678927e-01    2.463207e-02    0.000000e+00
   -2.533787e-01    2.386765e-02    0.000000e+00
   -2.391028e-01    2.297949e-02    0.000000e+00
   -2.321067e-01    2.251524e-02    0.000000e+00
   -2.184439e-01    2.162352e-02    0.000000e+00
   -2.053138e-01    2.068422e-02    0.000000e+00
   -1.926102e-01    1.963071e-02    0.000000e+00
   -1.817584e-01    1.990374e-02    0.000000e+00
   -1.712486e-01    1.683223e-02    0.000000e+00
   -1.655457e-01    1.611752e-02    0.000000e+00
   -1.551765e-01    1.482331e-02    0.000000e+00
   -1.454498e-01    1.316664e-02    0.000000e+00
   -3.632740e-01   -9.585446e-04    0.000000e+00
   -3.637536e-01    1.434224e-02    0.000000e+00
   -3.642695e-01    2.068836e-02    0.000000e+00
   -1.137047e-01    2.241399e-02    0.000000e+00
   -1.067750e-01    2.673112e-02    0.000000e+00
   -1.056178e-01    2.623853e-02    0.000000e+00
   -1.096439e-01    2.223813e-02    0.000000e+00
   -1.099782e-01    2.014271e-02    0.000000e+00
   -1.100975e-01    1.808476e-02    0.000000e+00
   -1.092856e-01    2.380677e-02    0.000000e+00
   -1.075760e-01    3.780487e-03    0.000000e+00
   -1.088926e-01    2.512457e-02    0.000000e+00
   -1.101684e-01    1.600359e-02    0.000000e+00
   -1.083482e-01    2.614963e-02    0.000000e+00
   -1.101498e-01    1.362961e-02    0.000000e+00
   -1.075378e-01    2.810780e-03    0.000000e+00
   -1.069470e-01    4.482695e-03    0.000000e+00
   -1.942676e-02    3.310351e-03    0.000000e+00
   -5.172996e-02   -5.831501e-03    0.000000e+00
   -3.034528e-02    4.036714e-03    0.000000e+00
   -3.540984e-02   -5.915312e-03    0.000000e+00
   -1.076522e-01    2.675806e-02    0.000000e+00
   -1.097717e-01    1.130770e-02    0.000000e+00
   -9.414929e-02   -2.080351e-03    0.000000e+00
   -7.078200e-02    4.705822e-03    0.000000e+00
   -1.020201e-03    8.353126e-04    0.000000e+00
   -2.417338e-03   -1.908354e-03    0.000000e+00
   -1.388497e-02   -4.431924e-03    0.000000e+00
   -6.862607e-03    2.138376e-03    0.000000e+00
   -2.646121e-01    1.820370e-02    0.000000e+00
   -5.082186e-02    4.520251e-03    0.000000e+00
   -7.657932e-02   -4.478273e-03    0.000000e+00
   -1.650622e-02    3.110207e-03    0.000000e+00
   -5.679183e-02   -5.658429e-03    0.000000e+00
   -3.410515e-02    4.064276e-03    0.000000e+00
   -3.064614e-02   -5.634130e-03    0.000000e+00
   -3.469638e-01    1.921233e-02    0.000000e+00
   -3.665831e-04    4.769288e-04    0.000000e+00
   -9.766826e-04   -1.121711e-03    0.000000e+00
   -9.745515e-02   -1.321669e-03    0.000000e+00
   -7.574581e-02    4.718928e-03    0.000000e+00
   -1.052797e-01    2.570765e-05    0.000000e+00
   -1.161184e-01    1.830212e-02    0.000000e+00
   -4.648002e-02    4.358679e-03    0.000000e+00
   -1.759956e-02   -4.777588e-03    0.000000e+00
   -8.900602e-03    2.386849e-03    0.000000e+00
   -7.182256e-02   -4.867947e-03    0.000000e+00
   -2.499817e-01    1.738362e-02    0.000000e+00
   -1.096838e-04   -2.955442e-04    0.000000e+00
   -8.111909e-02    9.434602e-03    0.000000e+00
   -3.036816e-04   -3.535091e-04    0.000000e+00
   -4.447379e-03    3.575660e-03    0.000000e+00
   -2.589815e-02    7.922009e-03    0.000000e+00
   -3.536325e-02    8.810011e-03    0.000000e+00
   -5.713789e-02    9.731724e-03    0.000000e+00
   -1.073462e-01    2.218257e-03    0.000000e+00
   -1.123639e-01    2.304835e-02    0.000000e+00
   -1.117141e-01    2.403386e-02    0.000000e+00
   -3.575485e-01    1.101097e-02    0.000000e+00
   -1.084914e-01    2.677809e-02    0.000000e+00
   -1.047935e-01    2.016894e-02    0.000000e+00
   -1.044661e-01    1.809127e-02    0.000000e+00
   -1.041932e-01    1.595724e-02    0.000000e+00
   -1.040507e-01    1.376740e-02    0.000000e+00
   -1.039958e-01    1.157796e-02    0.000000e+00
   -1.067942e-01    2.590404e-02    0.000000e+00
   -1.056501e-01    2.368229e-02    0.000000e+00
   -1.051901e-01    2.207939e-02    0.000000e+00
   -3.578295e-01   -2.068143e-02    0.000000e+00
   -8.122234e-05    1.319048e-04    0.000000e+00
   -1.100049e-01    2.333604e-02    0.000000e+00
   -1.094936e-01    2.470193e-02    0.000000e+00
   -1.087807e-01    2.587295e-02    0.000000e+00
   -1.079260e-01    2.654762e-02    0.000000e+00
   -1.071617e-01    2.671587e-02    0.000000e+00
   -3.247311e-04    5.147164e-04    0.000000e+00
   -2.827279e-04    9.236162e-05    0.000000e+00
   -1.041955e-01    5.894518e-03    0.000000e+00
   -1.024226e-01    6.528104e-03    0.000000e+00
   -1.003540e-01    7.077137e-03    0.000000e+00
   -9.757582e-02    7.610890e-03    0.000000e+00
   -9.433372e-02    8.062195e-03    0.000000e+00
   -6.694390e-02    9.850809e-03    0.000000e+00
   -6.213087e-02    9.894605e-03    0.000000e+00
   -3.054767e-02    8.362943e-03    0.000000e+00
   -1.039583e-01    9.648897e-03    0.000000e+00
   -1.041981e-01    7.561608e-03    0.000000e+00
   -3.306271e-01    1.947867e-02    0.000000e+00
   -1.578568e-01    1.085983e-02    0.000000e+00
   -1.479975e-01    9.614206e-03    0.000000e+00
   -1.076120e-01    2.657681e-02    0.000000e+00
   -1.062138e-01    2.499337e-02    0.000000e+00
   -1.046228e-01    4.825489e-03    0.000000e+00
   -1.043212e-01    6.587829e-03    0.000000e+00
   -4.045560e-02    9.308343e-03    0.000000e+00
   -7.653655e-02    9.542359e-03    0.000000e+00
   -1.049897e-01    3.361374e-03    0.000000e+00
   -1.105655e-01    2.554933e-02    0.000000e+00
   -1.094802e-01    2.645439e-02    0.000000e+00
   -1.054366e-01    2.275735e-03    0.000000e+00
   -1.059647e-01    1.590205e-03    0.000000e+00
   -1.064936e-01    1.392671e-03    0.000000e+00
   -1.069621e-01    1.641343e-03    0.000000e+00
   -7.065168e-05   -8.694010e-05    0.000000e+00
   -9.070117e-02    8.630509e-03    0.000000e+00
   -7.178161e-02    9.670784e-03    0.000000e+00
   -1.111307e-01    2.487396e-02    0.000000e+00
   -1.100119e-01    2.607718e-02    0.000000e+00
   -1.044665e-01    5.671622e-03    0.000000e+00
   -1.048018e-01    4.047818e-03    0.000000e+00
   -1.051909e-01    2.773735e-03    0.000000e+00
   -1.056966e-01    1.874087e-03    0.000000e+00
   -2.355302e-01    1.657331e-02    0.000000e+00
   -2.214662e-01    1.592337e-02    0.000000e+00
   -2.079370e-01    1.534535e-02    0.000000e+00
   -1.951149e-01    1.483569e-02    0.000000e+00
   -3.572715e-01   -4.991787e-03    0.000000e+00
   -1.130517e-01    2.200167e-02    0.000000e+00
   -1.376657e-02    2.870958e-03    0.000000e+00
   -2.604909e-02   -5.378231e-03    0.000000e+00
   -6.185665e-02   -5.455055e-03    0.000000e+00
   -3.807539e-02    4.122660e-03    0.000000e+00
   -1.073815e-01    3.994896e-03    0.000000e+00
   -1.004400e-01   -4.979970e-04    0.000000e+00
   -8.083625e-02    4.743025e-03    0.000000e+00
   -1.385090e-01    8.068415e-03    0.000000e+00
   -1.095829e-01    9.221480e-03    0.000000e+00
   -1.069212e-01    2.685887e-02    0.000000e+00
   -9.730018e-02    1.080311e-02    0.000000e+00
   -1.062958e-01    4.966467e-04    0.000000e+00
   -4.221252e-02    4.212467e-03    0.000000e+00
   -6.688454e-02   -5.189976e-03    0.000000e+00
   -2.168478e-02   -5.078693e-03    0.000000e+00
   -1.121626e-02    2.629690e-03    0.000000e+00
   -1.093006e-01    7.177956e-03    0.000000e+00
   -1.136704e-01    2.097282e-02    0.000000e+00
   -1.083501e-01    3.653505e-03    0.000000e+00
   -1.088758e-01    5.304434e-03    0.000000e+00
   -1.030650e-01    2.715823e-04    0.000000e+00
   -8.617035e-02    4.808293e-03    0.000000e+00
   -1.093196e-01    2.640008e-02    0.000000e+00
   -1.060424e-01    1.644917e-03    0.000000e+00
   -1.101655e-01    2.535844e-02    0.000000e+00
   -1.052220e-01    5.201102e-03    0.000000e+00
   -1.056383e-01    2.478851e-03    0.000000e+00
   -1.122541e-01    2.144995e-02    0.000000e+00
   -1.109595e-01    2.360154e-02    0.000000e+00
   -1.054447e-01    3.609134e-03    0.000000e+00
   -1.555618e-01    6.379400e-03    0.000000e+00
   -1.975805e-01    9.837465e-03    0.000000e+00
   -1.876438e-02    1.996094e-03    0.000000e+00
   -3.108258e-02    2.533510e-03    0.000000e+00
   -5.281879e-02   -3.684886e-03    0.000000e+00
   -3.438717e-02   -3.933044e-03    0.000000e+00
   -1.050381e-01    7.072194e-03    0.000000e+00
   -7.187596e-02    2.567816e-03    0.000000e+00
   -1.976501e-03   -1.135916e-03    0.000000e+00
   -3.340405e-01    1.233359e-02    0.000000e+00
   -8.313734e-04    4.508704e-04    0.000000e+00
   -4.049614e-02    7.213638e-03    0.000000e+00
   -9.499248e-02   -5.289658e-04    0.000000e+00
   -1.069721e-01    4.100170e-03    0.000000e+00
   -4.342763e-03    2.714530e-03    0.000000e+00
   -9.067718e-02    7.052591e-03    0.000000e+00
   -2.614022e-01    1.175178e-02    0.000000e+00
   -4.987834e-02    2.605045e-03    0.000000e+00
   -7.276269e-03    1.360419e-03    0.000000e+00
   -1.460099e-02   -3.032985e-03    0.000000e+00
   -7.556517e-02   -2.593992e-03    0.000000e+00
   -1.084704e-01    2.687887e-02    0.000000e+00
   -1.048840e-01    9.185976e-03    0.000000e+00
   -1.064830e-01    1.306693e-03    0.000000e+00
   -8.116293e-02    7.583507e-03    0.000000e+00
   -1.458474e-01    5.334236e-03    0.000000e+00
   -1.587689e-02    1.848889e-03    0.000000e+00
   -2.106331e-01    9.708933e-03    0.000000e+00
   -3.491081e-02    2.373719e-03    0.000000e+00
   -5.802511e-02   -3.394313e-03    0.000000e+00
   -2.952505e-02   -3.562608e-03    0.000000e+00
   -3.546726e-02    6.504736e-03    0.000000e+00
   -7.700689e-02    2.512395e-03    0.000000e+00
   -3.504663e-01    1.178424e-02    0.000000e+00
   -6.630364e-04   -5.892671e-04    0.000000e+00
   -1.094928e-01    1.914111e-02    0.000000e+00
   -1.090741e-01    2.306581e-02    0.000000e+00
   -1.369070e-01    4.228863e-03    0.000000e+00
   -9.826613e-02    1.058832e-04    0.000000e+00
   -9.427625e-02    6.377256e-03    0.000000e+00
   -1.095427e-01    1.703826e-02    0.000000e+00
   -1.087723e-01    2.455379e-02    0.000000e+00
   -1.078182e-01    2.677595e-02    0.000000e+00
   -1.050181e-01    1.149151e-02    0.000000e+00
   -1.068352e-01    1.477170e-03    0.000000e+00
   -1.095961e-01    1.481788e-02    0.000000e+00
   -1.084088e-01    2.574978e-02    0.000000e+00
   -4.546924e-02    2.434569e-03    0.000000e+00
   -9.422902e-03    1.466652e-03    0.000000e+00
   -2.465217e-01    1.085488e-02    0.000000e+00
   -1.847937e-02   -3.166592e-03    0.000000e+00
   -7.063145e-02   -2.888545e-03    0.000000e+00
   -7.667898e-02    7.330065e-03    0.000000e+00
   -1.094264e-01    1.245799e-02    0.000000e+00
   -1.079150e-01    2.657618e-02    0.000000e+00
   -1.317441e-02    1.695659e-03    0.000000e+00
   -2.246651e-01    1.001146e-02    0.000000e+00
   -3.902944e-02    2.345995e-03    0.000000e+00
   -2.491562e-02   -3.437432e-03    0.000000e+00
   -6.307355e-02   -3.281831e-03    0.000000e+00
   -1.091983e-01    1.025761e-02    0.000000e+00
   -1.073440e-01    2.693546e-02    0.000000e+00
   -3.053722e-02    6.084785e-03    0.000000e+00
   -5.714395e-02    7.230073e-03    0.000000e+00
   -2.204782e-04    2.148302e-04    0.000000e+00
   -1.035493e-01    1.233943e-03    0.000000e+00
   -1.089646e-01    2.669056e-02    0.000000e+00
   -1.071667e-01    1.900336e-03    0.000000e+00
   -1.057855e-01    2.434434e-02    0.000000e+00
   -1.067378e-01    1.468057e-03    0.000000e+00
   -1.080397e-01    2.673715e-02    0.000000e+00
   -1.071947e-01    2.629607e-02    0.000000e+00
   -1.064179e-01    2.547855e-02    0.000000e+00
   -1.062375e-01    1.427781e-03    0.000000e+00
   -8.209503e-02    2.486032e-03    0.000000e+00
   -9.592621e-02    8.380189e-03    0.000000e+00
   -9.876506e-02    1.303222e-02    0.000000e+00
   -1.050977e-01    1.372540e-02    0.000000e+00
   -1.071883e-01    2.617823e-02    0.000000e+00
   -1.071472e-01    2.028026e-03    0.000000e+00
   -1.042874e-01    5.154044e-03    0.000000e+00
   -9.761002e-02    6.328885e-03    0.000000e+00
   -1.090022e-01    8.177220e-03    0.000000e+00
   -1.067204e-01    2.675409e-02    0.000000e+00
   -2.110560e-04   -1.388595e-04    0.000000e+00
   -6.370582e-04    1.579351e-04    0.000000e+00
   -3.500451e-01   -5.424692e-03    0.000000e+00
   -8.470944e-02    2.516632e-03    0.000000e+00
   -2.318280e-01    1.016095e-02    0.000000e+00
   -4.113597e-02    2.334754e-03    0.000000e+00
   -1.186694e-02    1.592217e-03    0.000000e+00
   -6.563351e-02   -3.116379e-03    0.000000e+00
   -2.271451e-02   -3.316496e-03    0.000000e+00
   -7.185066e-02    7.336405e-03    0.000000e+00
   -1.059892e-01    6.078894e-04    0.000000e+00
   -2.556224e-02    5.638570e-03    0.000000e+00
   -6.212771e-02    7.749657e-03    0.000000e+00
   -1.011516e-01    7.341345e-04    0.000000e+00
   -2.691314e-04   -4.851677e-04    0.000000e+00
   -6.906286e-04    8.182630e-04    0.000000e+00
   -3.503739e-01   -2.071691e-02    0.000000e+00
   -1.052256e-01    1.592881e-02    0.000000e+00
   -1.067023e-01    2.511791e-02    0.000000e+00
   -9.976081e-02    4.325458e-04    0.000000e+00
   -1.023517e-01    5.496590e-03    0.000000e+00
   -1.006574e-01    5.765711e-03    0.000000e+00
   -6.693020e-02    7.656696e-03    0.000000e+00
   -6.816013e-02   -3.033913e-03    0.000000e+00
   -2.055302e-02   -3.221994e-03    0.000000e+00
   -2.391536e-01    1.043505e-02    0.000000e+00
   -4.329425e-02    2.361719e-03    0.000000e+00
   -1.060753e-02    1.535872e-03    0.000000e+00
   -8.734759e-02    2.441993e-03    0.000000e+00
   -7.954330e-02    2.529662e-03    0.000000e+00
   -1.024286e-01    1.004200e-03    0.000000e+00
   -1.061823e-01    1.745031e-03    0.000000e+00
   -1.090166e-01    2.628895e-02    0.000000e+00
   -1.105805e-01    2.240081e-02    0.000000e+00
   -1.071732e-01    3.798390e-03    0.000000e+00
   -1.506591e-01    5.873188e-03    0.000000e+00
   -1.605133e-01    6.743473e-03    0.000000e+00
   -2.040008e-01    9.716243e-03    0.000000e+00
   -1.730265e-02    1.928164e-03    0.000000e+00
   -2.027522e-02    2.020436e-03    0.000000e+00
   -3.296591e-02    2.435826e-03    0.000000e+00
   -5.538154e-02   -3.489317e-03    0.000000e+00
   -5.036512e-02   -3.755474e-03    0.000000e+00
   -3.194803e-02   -3.689928e-03    0.000000e+00
   -1.054832e-01    8.115241e-03    0.000000e+00
   -7.443045e-02    2.466342e-03    0.000000e+00
   -3.422376e-01    1.209512e-02    0.000000e+00
   -1.223415e-03    5.708504e-04    0.000000e+00
   -4.871609e-04    3.221896e-04    0.000000e+00
   -1.242994e-03   -8.732390e-04    0.000000e+00
   -3.815738e-02    5.849397e-03    0.000000e+00
   -3.358992e-03    1.949404e-03    0.000000e+00
   -2.685432e-01    1.229406e-02    0.000000e+00
   -2.539867e-01    1.113999e-02    0.000000e+00
   -5.200278e-02    2.724673e-03    0.000000e+00
   -4.767834e-02    2.469473e-03    0.000000e+00
   -8.304731e-03    1.384582e-03    0.000000e+00
   -1.289542e-02   -2.968258e-03    0.000000e+00
   -1.647487e-02   -3.064428e-03    0.000000e+00
   -7.311834e-02   -2.680054e-03    0.000000e+00
   -9.327292e-02   -7.832581e-04    0.000000e+00
   -9.667235e-02   -1.916546e-04    0.000000e+00
   -1.058970e-01    2.830275e-03    0.000000e+00
   -1.057105e-01    4.342239e-03    0.000000e+00
   -1.411956e-01    4.812190e-03    0.000000e+00
   -1.066925e-01    1.290797e-03    0.000000e+00
   -1.054581e-01    1.033145e-02    0.000000e+00
   -9.226254e-02    5.963556e-03    0.000000e+00
   -1.080579e-01    2.694336e-02    0.000000e+00
   -7.914025e-02    6.523611e-03    0.000000e+00
   -1.095998e-01    2.511320e-02    0.000000e+00
   -1.450003e-02    1.779365e-03    0.000000e+00
   -2.175303e-01    9.678962e-03    0.000000e+00
   -3.693458e-02    2.305621e-03    0.000000e+00
   -6.059112e-02   -3.373116e-03    0.000000e+00
   -2.716677e-02   -3.474933e-03    0.000000e+00
   -1.332882e-01    3.662077e-03    0.000000e+00
   -3.301793e-02    5.426084e-03    0.000000e+00
   -8.592197e-02    6.142067e-04    0.000000e+00
   -1.090153e-01    2.014641e-02    0.000000e+00
   -1.088740e-01    2.224371e-02    0.000000e+00
   -1.090300e-01    1.808545e-02    0.000000e+00
   -1.086321e-01    2.385526e-02    0.000000e+00
   -1.069650e-01    1.675173e-03    0.000000e+00
   -1.075585e-01    2.659017e-02    0.000000e+00
   -1.055485e-01    1.258416e-02    0.000000e+00
   -1.090824e-01    1.593901e-02    0.000000e+00
   -1.083763e-01    2.522612e-02    0.000000e+00
   -9.308844e-02    8.019462e-03    0.000000e+00
   -9.816778e-02    9.075193e-03    0.000000e+00
   -7.434516e-02    6.482115e-03    0.000000e+00
   -1.090300e-01    1.364638e-02    0.000000e+00
   -1.080420e-01    2.625927e-02    0.000000e+00
   -9.609619e-02    5.675250e-03    0.000000e+00
   -1.088340e-01    1.135593e-02    0.000000e+00
   -1.076360e-01    2.686116e-02    0.000000e+00
   -5.981832e-02    6.443533e-03    0.000000e+00
   -2.809896e-02    4.927070e-03    0.000000e+00
   -1.071878e-01    2.386716e-03    0.000000e+00
   -3.311335e-04    4.801354e-05    0.000000e+00
   -8.076464e-02    3.998092e-04    0.000000e+00
   -1.071024e-01    2.573824e-02    0.000000e+00
   -1.056469e-01    1.482548e-02    0.000000e+00
   -1.086447e-01    9.207966e-03    0.000000e+00
   -1.071935e-01    2.695719e-02    0.000000e+00
   -3.557113e-04   -3.833700e-04    0.000000e+00
   -9.273499e-04    5.882505e-04    0.000000e+00
   -3.459422e-01   -1.285528e-02    0.000000e+00
   -6.931138e-02    6.375995e-03    0.000000e+00
   -1.035486e-01    4.841964e-03    0.000000e+00
   -2.325575e-02    5.218252e-03    0.000000e+00
   -6.447166e-02    6.463915e-03    0.000000e+00
   -9.904931e-02    5.404521e-03    0.000000e+00
   -4.520340e-04   -8.154953e-04    0.000000e+00
   -1.072003e-03    1.425552e-03    0.000000e+00
   -3.463841e-01   -2.856834e-02    0.000000e+00
   -1.067527e-01    2.452498e-02    0.000000e+00
   -1.057957e-01    1.698189e-02    0.000000e+00
   -9.007131e-02    2.307884e-03    0.000000e+00
   -1.124796e-02    4.992262e-04    0.000000e+00
   -6.697282e-02   -1.045938e-03    0.000000e+00
   -1.053589e-01    3.748020e-04    0.000000e+00
   -1.060936e-01    2.640533e-02    0.000000e+00
   -1.083832e-01    7.168009e-03    0.000000e+00
   -1.076247e-01    2.157361e-03    0.000000e+00
   -1.073613e-01    3.536974e-03    0.000000e+00
   -1.249178e-01    9.672896e-03    0.000000e+00
   -9.075419e-02    6.601938e-03    0.000000e+00
   -1.046147e-01    2.714514e-04    0.000000e+00
   -1.284864e-01    9.198655e-03    0.000000e+00
   -1.066122e-01    5.741192e-04    0.000000e+00
   -1.056069e-01    6.103019e-03    0.000000e+00
   -1.044872e-01    1.414840e-03    0.000000e+00
   -1.086580e-01    6.195877e-03    0.000000e+00
   -1.029367e-01    2.006149e-03    0.000000e+00
   -1.110337e-01    2.062206e-02    0.000000e+00
   -1.087369e-01    2.664251e-02    0.000000e+00
   -1.063233e-01    1.446875e-03    0.000000e+00
   -1.082711e-01    4.418883e-03    0.000000e+00
   -1.077886e-01    2.920721e-03    0.000000e+00
   -1.004566e-01    1.678930e-03    0.000000e+00
   -4.668526e-02    9.610489e-03    0.000000e+00
   -2.693164e-02   -7.371707e-03    0.000000e+00
   -2.273929e-02   -6.825946e-03    0.000000e+00
   -1.830554e-01   -2.405849e-02    0.000000e+00
   -1.687971e-01   -2.263397e-02    0.000000e+00
   -1.063069e-01    4.855523e-03    0.000000e+00
   -2.036893e-03   -2.059888e-03    0.000000e+00
   -3.152678e-01   -3.047711e-02    0.000000e+00
   -6.619534e-02   -1.067054e-02    0.000000e+00
   -1.007428e-01   -1.251443e-02    0.000000e+00
   -1.071869e-02    5.537276e-03    0.000000e+00
   -1.124105e-01   -1.395562e-02    0.000000e+00
   -5.531810e-02   -9.954660e-03    0.000000e+00
   -2.792705e-01   -2.944212e-02    0.000000e+00
   -5.223739e-03   -3.367444e-03    0.000000e+00
   -5.196447e-02    9.613673e-03    0.000000e+00
   -1.957347e-01   -2.468451e-02    0.000000e+00
   -1.577363e-01   -2.099559e-02    0.000000e+00
   -3.064712e-02   -7.673138e-03    0.000000e+00
   -1.946213e-02   -6.247560e-03    0.000000e+00
   -1.108500e-01    1.025185e-02    0.000000e+00
   -1.054615e-01    5.301848e-03    0.000000e+00
   -2.579340e-03    2.613789e-03    0.000000e+00
   -7.106887e-02   -1.081676e-02    0.000000e+00
   -9.582502e-02   -1.200732e-02    0.000000e+00
   -1.119357e-03   -1.469799e-03    0.000000e+00
   -3.309366e-01   -3.074520e-02    0.000000e+00
   -1.174791e-01    1.430496e-02    0.000000e+00
   -7.787415e-02   -2.420651e-03    0.000000e+00
   -6.365722e-03    1.299886e-03    0.000000e+00
   -1.020988e-01    1.716514e-02    0.000000e+00
   -1.071894e-01    1.178891e-03    0.000000e+00
   -1.417336e-02    6.193898e-03    0.000000e+00
   -7.036059e-03   -3.864493e-03    0.000000e+00
   -1.180291e-01   -1.480360e-02    0.000000e+00
   -5.078267e-02   -9.513848e-03    0.000000e+00
   -2.640849e-01   -2.854118e-02    0.000000e+00
   -1.155920e-01    1.626801e-02    0.000000e+00
   -2.086690e-01   -2.571505e-02    0.000000e+00
   -3.443750e-02   -8.100915e-03    0.000000e+00
   -1.478795e-01   -1.978181e-02    0.000000e+00
   -1.650527e-02   -5.806756e-03    0.000000e+00
   -7.600322e-02   -1.108588e-02    0.000000e+00
   -9.084265e-02   -1.172069e-02    0.000000e+00
   -2.826382e-03   -1.397094e-03    0.000000e+00
   -3.261150e-01    1.257226e-02    0.000000e+00
   -6.945790e-02    2.591699e-03    0.000000e+00
   -1.062978e-01    2.378079e-02    0.000000e+00
   -1.007439e-01    1.316701e-02    0.000000e+00
   -1.792574e-02    6.967504e-03    0.000000e+00
   -9.050756e-03   -4.430020e-03    0.000000e+00
   -4.645439e-02   -9.300632e-03    0.000000e+00
   -1.241404e-01   -1.612790e-02    0.000000e+00
   -2.494954e-01   -2.835816e-02    0.000000e+00
   -9.762415e-02    6.737971e-03    0.000000e+00
   -6.206199e-02    5.274024e-03    0.000000e+00
   -6.690490e-02    4.827284e-03    0.000000e+00
   -1.299853e-01    5.734176e-03    0.000000e+00
   -1.003217e-01    8.548840e-03    0.000000e+00
   -1.688317e-01   -1.786158e-02    0.000000e+00
   -4.656800e-02    7.449443e-03    0.000000e+00
   -1.827340e-01   -1.890051e-02    0.000000e+00
   -2.682183e-02   -5.842966e-03    0.000000e+00
   -2.273594e-02   -5.406619e-03    0.000000e+00
   -1.007436e-01   -1.018004e-02    0.000000e+00
   -1.966491e-03   -1.607498e-03    0.000000e+00
   -3.151812e-01   -2.372226e-02    0.000000e+00
   -6.612085e-02   -8.582401e-03    0.000000e+00
   -1.063708e-01    4.374783e-03    0.000000e+00
   -1.581839e-01    3.056474e-03    0.000000e+00
   -1.957888e-02    9.374861e-04    0.000000e+00
   -5.145968e-02   -2.009897e-03    0.000000e+00
   -9.158965e-02    4.555928e-03    0.000000e+00
   -1.061235e-02    4.216429e-03    0.000000e+00
   -5.140342e-03   -2.645780e-03    0.000000e+00
   -2.792563e-01   -2.286213e-02    0.000000e+00
   -5.529115e-02   -7.969893e-03    0.000000e+00
   -1.122896e-01   -1.132233e-02    0.000000e+00
   -7.060257e-02    8.147001e-04    0.000000e+00
   -1.043391e-03    2.436939e-04    0.000000e+00
   -3.295060e-01    6.669843e-03    0.000000e+00
   -2.388841e-03   -7.459342e-04    0.000000e+00
   -1.578617e-01   -1.587317e-02    0.000000e+00
   -5.177766e-02    7.085321e-03    0.000000e+00
   -1.952172e-01   -1.835173e-02    0.000000e+00
   -3.047685e-02   -5.797459e-03    0.000000e+00
   -1.948728e-02   -4.712251e-03    0.000000e+00
   -9.415292e-02    5.126751e-04    0.000000e+00
   -2.653848e-01    6.849177e-03    0.000000e+00
   -5.107272e-02    1.107603e-03    0.000000e+00
   -6.788915e-03    6.769994e-04    0.000000e+00
   -1.360546e-02   -1.824644e-03    0.000000e+00
   -7.681572e-02   -8.866331e-04    0.000000e+00
   -9.598156e-02   -9.386213e-03    0.000000e+00
   -1.010590e-03   -1.086578e-03    0.000000e+00
   -2.559256e-03    2.021835e-03    0.000000e+00
   -3.309413e-01   -2.321158e-02    0.000000e+00
   -7.088171e-02   -8.388737e-03    0.000000e+00
   -1.049799e-01    8.480719e-04    0.000000e+00
   -1.055695e-01    4.616054e-03    0.000000e+00
   -1.655696e-01    6.783859e-03    0.000000e+00
   -2.187803e-02    1.999667e-03    0.000000e+00
   -4.792973e-02   -3.683152e-03    0.000000e+00
   -6.706177e-02    2.591815e-03    0.000000e+00
   -3.183267e-01    1.262773e-02    0.000000e+00
   -1.690504e-03    6.665296e-04    0.000000e+00
   -3.801420e-03   -1.613248e-03    0.000000e+00
   -9.141190e-02   -9.988836e-04    0.000000e+00
   -1.404277e-02    4.435517e-03    0.000000e+00
   -6.912370e-03   -2.903292e-03    0.000000e+00
   -2.642004e-01   -2.106843e-02    0.000000e+00
   -5.079187e-02   -7.275283e-03    0.000000e+00
   -1.177525e-01   -1.154271e-02    0.000000e+00
   -2.750430e-01    1.294531e-02    0.000000e+00
   -5.394234e-02    2.882993e-03    0.000000e+00
   -5.483801e-03    1.175197e-03    0.000000e+00
   -1.143959e-02   -2.934937e-03    0.000000e+00
   -8.018335e-02   -2.196959e-03    0.000000e+00
   -1.004467e-01    1.925320e-02    0.000000e+00
   -1.477262e-01   -1.512993e-02    0.000000e+00
   -3.439080e-02   -6.154826e-03    0.000000e+00
   -2.085776e-01   -1.913079e-02    0.000000e+00
   -1.644967e-02   -4.397834e-03    0.000000e+00
   -1.060424e-01    2.190264e-03    0.000000e+00
   -1.093011e-01    2.577729e-02    0.000000e+00
   -1.077355e-01    9.212267e-03    0.000000e+00
   -1.059622e-01    7.105167e-03    0.000000e+00
   -4.054927e-02    4.821304e-03    0.000000e+00
   -4.279924e-03    1.744249e-03    0.000000e+00
   -1.059109e-01    9.202183e-03    0.000000e+00
   -1.066029e-01    1.210863e-03    0.000000e+00
   -1.081772e-01    2.696821e-02    0.000000e+00
   -8.122369e-02    5.482271e-03    0.000000e+00
   -3.472004e-02    4.485722e-03    0.000000e+00
   -1.094044e-01    2.086886e-02    0.000000e+00
   -1.073531e-01    2.801790e-03    0.000000e+00
   -1.070377e-01    1.985900e-03    0.000000e+00
   -1.068320e-01    1.392188e-03    0.000000e+00
   -1.059861e-01    1.143632e-02    0.000000e+00
   -1.077909e-01    2.686236e-02    0.000000e+00
   -7.600182e-02    5.455074e-03    0.000000e+00
   -1.098806e-01    2.438756e-02    0.000000e+00
   -5.808352e-02    5.148062e-03    0.000000e+00
   -2.981275e-02    4.037860e-03    0.000000e+00
   -9.056102e-02    5.307240e-03    0.000000e+00
   -1.074270e-01    2.625800e-02    0.000000e+00
   -1.060803e-01    1.369615e-02    0.000000e+00
   -1.219256e-03    2.213979e-04    0.000000e+00
   -4.842608e-04   -2.057180e-04    0.000000e+00
   -3.417324e-01   -5.325847e-03    0.000000e+00
   -2.164201e-02    5.944956e-03    0.000000e+00
   -5.869339e-04   -7.373916e-04    0.000000e+00
   -1.071290e-01    2.520638e-02    0.000000e+00
   -1.061886e-01    1.591142e-02    0.000000e+00
   -1.054543e-01    1.802185e-02    0.000000e+00
   -9.079099e-02   -9.052211e-03    0.000000e+00
   -7.588664e-02   -8.609041e-03    0.000000e+00
   -9.488415e-02    4.900944e-03    0.000000e+00
   -9.972610e-02    2.671953e-03    0.000000e+00
   -1.060373e-01    2.604704e-02    0.000000e+00
   -1.033781e-01    2.899364e-03    0.000000e+00
   -1.793703e-02    5.320871e-03    0.000000e+00
   -8.966714e-03   -3.479824e-03    0.000000e+00
   -4.636281e-02   -7.404614e-03    0.000000e+00
   -2.492560e-01   -2.200364e-02    0.000000e+00
   -1.238967e-01   -1.306364e-02    0.000000e+00
   -1.026925e-01    1.482204e-02    0.000000e+00
   -1.078889e-01    1.138397e-02    0.000000e+00
   -1.077380e-01    3.609669e-03    0.000000e+00
   -1.080770e-01    5.238911e-03    0.000000e+00
   -1.069980e-01    1.043484e-03    0.000000e+00
   -1.080230e-01    1.366257e-02    0.000000e+00
   -1.021182e-01    1.166769e-02    0.000000e+00
   -1.072034e-01    1.498774e-03    0.000000e+00
   -1.034081e-01    1.873226e-02    0.000000e+00
   -6.618836e-02    9.724692e-04    0.000000e+00
   -1.179140e-02   -6.579700e-04    0.000000e+00
   -8.155715e-02   -1.474665e-03    0.000000e+00
   -1.069803e-01    3.602242e-03    0.000000e+00
   -1.080870e-01    1.591646e-02    0.000000e+00
   -1.023030e-01    2.902903e-03    0.000000e+00
   -3.460157e-01    6.192232e-03    0.000000e+00
   -9.156964e-04   -4.221675e-04    0.000000e+00
   -1.052306e-01    2.288461e-02    0.000000e+00
   -8.578634e-02   -1.624692e-03    0.000000e+00
   -1.115692e-01    1.833976e-02    0.000000e+00
   -1.164451e-01    1.184957e-02    0.000000e+00
   -1.066916e-01    2.652464e-02    0.000000e+00
   -1.010775e-01    2.839350e-03    0.000000e+00
   -1.080848e-01    1.800999e-02    0.000000e+00
   -2.594313e-02   -1.621972e-03    0.000000e+00
   -3.793690e-02    5.496163e-04    0.000000e+00
   -2.208933e-01    3.854037e-03    0.000000e+00
   -3.403751e-01   -2.051349e-02    0.000000e+00
   -1.304804e-03    1.169097e-03    0.000000e+00
   -7.179008e-02   -7.023604e-04    0.000000e+00
   -8.870052e-03    4.398788e-04    0.000000e+00
   -1.063335e-01    7.152606e-04    0.000000e+00
   -7.586820e-02    2.215114e-04    0.000000e+00
   -3.078658e-02   -1.684401e-03    0.000000e+00
   -3.377428e-02    9.542742e-04    0.000000e+00
   -2.067112e-01    4.797662e-03    0.000000e+00
   -1.068723e-01    2.381593e-02    0.000000e+00
   -1.081525e-01    2.217849e-02    0.000000e+00
   -1.081622e-01    2.027467e-02    0.000000e+00
   -1.073936e-01    2.423047e-03    0.000000e+00
   -1.064292e-01    2.305375e-02    0.000000e+00
   -1.064423e-01    1.304942e-03    0.000000e+00
   -1.085100e-01    2.683777e-02    0.000000e+00
   -1.139342e-01    1.781802e-02    0.000000e+00
   -9.142298e-02    3.404873e-05    0.000000e+00
   -1.303212e-01    1.049524e-03    0.000000e+00
   -9.754882e-02    4.815637e-03    0.000000e+00
   -5.665463e-02   -1.227138e-03    0.000000e+00
   -1.666838e-02    8.187181e-04    0.000000e+00
   -1.485092e-01    2.102998e-03    0.000000e+00
   -9.752654e-02    1.199462e-03    0.000000e+00
   -1.073196e-01    3.126391e-03    0.000000e+00
   -1.738594e-02   -1.493676e-03    0.000000e+00
   -4.662605e-02    5.752997e-04    0.000000e+00
   -2.503875e-01    4.721908e-03    0.000000e+00
   -1.147593e-01    1.408288e-02    0.000000e+00
   -6.183768e-02   -1.589187e-03    0.000000e+00
   -1.391451e-02    7.915656e-04    0.000000e+00
   -1.393516e-01    1.568260e-03    0.000000e+00
   -3.074183e-02    2.058433e-03    0.000000e+00
   -5.736488e-02    2.997579e-03    0.000000e+00
   -7.687590e-02    3.623266e-03    0.000000e+00
   -9.451526e-02    3.580323e-03    0.000000e+00
   -6.583890e-02    2.809981e-03    0.000000e+00
   -1.052435e-01    1.540820e-03    0.000000e+00
   -3.566698e-02    2.618067e-03    0.000000e+00
   -1.095762e-01    2.367330e-02    0.000000e+00
   -1.062116e-01    9.778935e-04    0.000000e+00
   -1.065384e-01    9.302011e-04    0.000000e+00
   -6.193646e-02    2.885827e-03    0.000000e+00
   -3.337837e-01   -5.357775e-03    0.000000e+00
   -1.855585e-03    2.162930e-04    0.000000e+00
   -8.125316e-02    3.417100e-03    0.000000e+00
   -1.003455e-01    3.643304e-03    0.000000e+00
   -9.057504e-02    3.629199e-03    0.000000e+00
   -4.255769e-03    7.915018e-04    0.000000e+00
   -4.053910e-02    2.493331e-03    0.000000e+00
   -1.068099e-01    3.927989e-03    0.000000e+00
   -1.069674e-01    3.165112e-03    0.000000e+00
   -1.070148e-01    2.251532e-03    0.000000e+00
   -1.028113e-01    3.633917e-03    0.000000e+00
   -1.266248e-01    3.314459e-03    0.000000e+00
   -1.318178e-01    8.963867e-03    0.000000e+00
   -9.248871e-02    6.111800e-03    0.000000e+00
   -1.074996e-01    2.518578e-03    0.000000e+00
   -1.636652e-01   -1.455330e-02    0.000000e+00
   -4.892702e-02    6.178301e-03    0.000000e+00
   -1.883157e-01   -1.596781e-02    0.000000e+00
   -2.844768e-02   -5.026444e-03    0.000000e+00
   -2.120402e-02   -4.375876e-03    0.000000e+00
   -9.859277e-02   -8.622229e-03    0.000000e+00
   -1.462476e-03   -1.136906e-03    0.000000e+00
   -3.224783e-01   -1.989485e-02    0.000000e+00
   -6.826512e-02   -7.418855e-03    0.000000e+00
   -1.060788e-01    4.191761e-03    0.000000e+00
   -1.208234e-02    3.619128e-03    0.000000e+00
   -5.883877e-03   -2.363850e-03    0.000000e+00
   -2.723631e-01   -1.866869e-02    0.000000e+00
   -5.321740e-02   -6.635477e-03    0.000000e+00
   -1.146845e-01   -9.997447e-03    0.000000e+00
   -1.525861e-01   -1.341005e-02    0.000000e+00
   -5.445109e-02    6.091397e-03    0.000000e+00
   -2.018323e-01   -1.597296e-02    0.000000e+00
   -3.240622e-02   -5.156482e-03    0.000000e+00
   -1.790665e-02   -3.922701e-03    0.000000e+00
   -1.153158e-01    9.140947e-03    0.000000e+00
   -9.351400e-02   -8.103233e-03    0.000000e+00
   -7.329979e-02   -7.547138e-03    0.000000e+00
   -1.686172e-01    1.144599e-02    0.000000e+00
   -2.266792e-02    3.413293e-03    0.000000e+00
   -4.653008e-02   -5.760164e-03    0.000000e+00
   -1.049894e-01    4.546592e-03    0.000000e+00
   -6.591529e-02    4.682179e-03    0.000000e+00
   -1.962358e-03    1.168519e-03    0.000000e+00
   -3.147073e-01    1.941341e-02    0.000000e+00
   -4.375653e-03   -2.598619e-03    0.000000e+00
   -1.617610e-02    3.838306e-03    0.000000e+00
   -7.931452e-03   -2.724158e-03    0.000000e+00
   -2.561012e-01   -1.790708e-02    0.000000e+00
   -4.837761e-02   -6.248008e-03    0.000000e+00
   -1.208319e-01   -1.075238e-02    0.000000e+00
   -2.793527e-01    1.839691e-02    0.000000e+00
   -5.522311e-02    4.504826e-03    0.000000e+00
   -5.058797e-03    1.849248e-03    0.000000e+00
   -1.056606e-02   -3.897991e-03    0.000000e+00
   -8.122396e-02   -4.003002e-03    0.000000e+00
   -9.041601e-02   -2.755768e-03    0.000000e+00
   -1.429538e-01   -1.298700e-02    0.000000e+00
   -2.157197e-01   -1.709558e-02    0.000000e+00
   -3.647786e-02   -5.620677e-03    0.000000e+00
   -1.499668e-02   -3.707869e-03    0.000000e+00
   -4.250374e-02    6.149763e-03    0.000000e+00
   -5.192985e-03    2.468376e-03    0.000000e+00
   -8.290739e-02    6.525174e-03    0.000000e+00
   -7.759285e-02    5.472990e-03    0.000000e+00
   -3.143826e-02    4.182083e-03    0.000000e+00
   -1.044128e-01    1.914201e-02    0.000000e+00
   -9.053406e-04   -1.150325e-04    0.000000e+00
   -3.458810e-01    4.130399e-04    0.000000e+00
   -2.164755e-02    4.027800e-03    0.000000e+00
   -8.802764e-02   -8.137160e-03    0.000000e+00
   -1.063434e-01    1.800363e-02    0.000000e+00
   -7.847772e-02   -7.794434e-03    0.000000e+00
   -7.117187e-02    5.297306e-03    0.000000e+00
   -1.123338e-01    1.387979e-02    0.000000e+00
   -8.916570e-02    6.292338e-03    0.000000e+00
   -1.980767e-02    4.734464e-03    0.000000e+00
   -1.000254e-02   -3.190996e-03    0.000000e+00
   -4.423518e-02   -6.300265e-03    0.000000e+00
   -2.420886e-01   -1.853508e-02    0.000000e+00
   -1.270240e-01   -1.191344e-02    0.000000e+00
   -1.052345e-01    2.541058e-02    0.000000e+00
   -1.068480e-01    8.244923e-04    0.000000e+00
   -1.074514e-01    2.383414e-02    0.000000e+00
   -1.034731e-01    2.026227e-02    0.000000e+00
   -1.041452e-01    1.727761e-02    0.000000e+00
   -8.336297e-02   -2.714408e-03    0.000000e+00
   -1.301917e-02   -1.013074e-03    0.000000e+00
   -6.404279e-02    1.726820e-03    0.000000e+00
   -1.073238e-01    2.658428e-02    0.000000e+00
   -1.071861e-01    2.776283e-03    0.000000e+00
   -1.077542e-01    2.302938e-02    0.000000e+00
   -1.077021e-01    1.953973e-02    0.000000e+00
   -9.715126e-02    3.900267e-03    0.000000e+00
   -1.072425e-01    1.983935e-03    0.000000e+00
   -9.827744e-02    2.472459e-03    0.000000e+00
   -1.059830e-01    2.224948e-02    0.000000e+00
   -9.043638e-02   -2.319064e-03    0.000000e+00
   -9.281209e-02    2.429757e-03    0.000000e+00
   -1.071760e-01    3.578537e-03    0.000000e+00
   -9.729869e-02    3.387233e-03    0.000000e+00
   -1.324755e-01   -3.152017e-03    0.000000e+00
   -1.489496e-01   -2.808859e-03    0.000000e+00
   -1.397004e-01   -2.081980e-03    0.000000e+00
   -9.342349e-02    4.723419e-03    0.000000e+00
   -1.073563e-01    5.146423e-03    0.000000e+00
   -2.518862e-03    1.312853e-03    0.000000e+00
   -1.043148e-01    2.893768e-03    0.000000e+00
   -1.076286e-01    1.697712e-02    0.000000e+00
   -1.075752e-01    1.480103e-02    0.000000e+00
   -1.074767e-01    1.252674e-02    0.000000e+00
   -1.073487e-01    1.028612e-02    0.000000e+00
   -1.400967e-02   -3.533259e-04    0.000000e+00
   -3.716866e-02   -1.299221e-03    0.000000e+00
   -2.182185e-01   -2.451353e-03    0.000000e+00
   -6.186625e-02    4.879491e-04    0.000000e+00
   -2.662733e-02    1.959231e-04    0.000000e+00
   -2.532538e-01   -1.770775e-03    0.000000e+00
   -4.748990e-02   -1.389825e-03    0.000000e+00
   -8.429915e-03   -3.698111e-04    0.000000e+00
   -1.657783e-02    1.636885e-04    0.000000e+00
   -7.271332e-02    1.205486e-03    0.000000e+00
   -7.494646e-02   -1.815679e-03    0.000000e+00
   -2.059211e-01   -1.888238e-03    0.000000e+00
   -3.356177e-02   -1.020607e-03    0.000000e+00
   -1.680329e-02   -6.795962e-04    0.000000e+00
   -5.553570e-02    9.831581e-04    0.000000e+00
   -3.164573e-02   -1.211977e-05    0.000000e+00
   -2.631857e-02    3.330070e-03    0.000000e+00
   -1.072272e-01    8.182316e-03    0.000000e+00
   -1.065417e-01    2.240625e-02    0.000000e+00
   -9.423874e-02    1.959662e-03    0.000000e+00
   -6.813474e-02    5.798597e-04    0.000000e+00
   -1.068320e-02   -3.739132e-04    0.000000e+00
   -1.061761e-01    2.554513e-02    0.000000e+00
   -7.976706e-02   -1.317843e-03    0.000000e+00
   -2.434829e-03   -1.286772e-04    0.000000e+00
   -1.092516e-03   -8.242727e-05    0.000000e+00
   -3.284799e-01   -1.008622e-05    0.000000e+00
   -7.057282e-02   -1.408704e-03    0.000000e+00
   -7.687983e-02    1.118899e-03    0.000000e+00
   -1.350553e-02   -3.843187e-04    0.000000e+00
   -6.718728e-03   -1.411895e-04    0.000000e+00
   -5.117495e-02   -8.376521e-04    0.000000e+00
   -2.656828e-01    3.886526e-04    0.000000e+00
   -1.077880e-01    2.123538e-02    0.000000e+00
   -1.094717e-01    2.148387e-02    0.000000e+00
   -1.182774e-01    9.309429e-03    0.000000e+00
   -1.063549e-01    2.165436e-02    0.000000e+00
   -8.063219e-02   -3.551691e-03    0.000000e+00
   -7.760213e-02   -2.229375e-03    0.000000e+00
   -1.091063e-02   -1.451873e-03    0.000000e+00
   -9.551338e-03   -7.547857e-04    0.000000e+00
   -7.025926e-02    1.429501e-03    0.000000e+00
   -8.358124e-04   -3.032838e-04    0.000000e+00
   -8.564977e-02   -4.212723e-03    0.000000e+00
   -7.226081e-02    3.419521e-03    0.000000e+00
   -1.169482e-01    6.365185e-03    0.000000e+00
   -1.072162e-01    1.799633e-02    0.000000e+00
   -5.969671e-02    1.694678e-03    0.000000e+00
   -2.849068e-02    9.308248e-04    0.000000e+00
   -7.464467e-02    2.239274e-03    0.000000e+00
   -3.338465e-02    1.075659e-03    0.000000e+00
   -3.304743e-01   -1.150744e-02    0.000000e+00
   -7.912999e-02    2.293665e-03    0.000000e+00
   -9.583087e-02    2.742623e-03    0.000000e+00
   -3.302627e-03    2.502098e-04    0.000000e+00
   -9.256028e-02    3.014429e-03    0.000000e+00
   -1.070350e-01    2.782867e-03    0.000000e+00
   -3.815597e-02    1.302567e-03    0.000000e+00
   -9.696466e-02    2.188167e-03    0.000000e+00
   -1.067321e-01    8.084139e-04    0.000000e+00
   -1.068517e-01    2.887723e-03    0.000000e+00
   -1.689521e-01   -1.228590e-02    0.000000e+00
   -4.642936e-02    4.946291e-03    0.000000e+00
   -1.824049e-01   -1.292620e-02    0.000000e+00
   -2.669947e-02   -4.069736e-03    0.000000e+00
   -2.275238e-02   -3.765705e-03    0.000000e+00
   -1.008158e-01   -7.408621e-03    0.000000e+00
   -1.932675e-03   -1.097395e-03    0.000000e+00
   -3.149213e-01   -1.576925e-02    0.000000e+00
   -6.598189e-02   -6.165003e-03    0.000000e+00
   -1.064404e-01    3.772692e-03    0.000000e+00
   -1.047922e-02    2.696583e-03    0.000000e+00
   -5.027361e-03   -1.807237e-03    0.000000e+00
   -2.794893e-01   -1.524387e-02    0.000000e+00
   -5.533787e-02   -5.670216e-03    0.000000e+00
   -1.121548e-01   -8.202760e-03    0.000000e+00
   -1.561407e-01   -1.118593e-02    0.000000e+00
   -5.254827e-02    4.857877e-03    0.000000e+00
   -1.971358e-01   -1.273213e-02    0.000000e+00
   -3.102156e-02   -4.151989e-03    0.000000e+00
   -1.896385e-02   -3.288275e-03    0.000000e+00
   -9.535323e-02   -7.019049e-03    0.000000e+00
   -7.156277e-02   -6.335411e-03    0.000000e+00
   -1.712492e-01    5.795836e-03    0.000000e+00
   -2.358529e-02    1.959497e-03    0.000000e+00
   -4.525174e-02   -3.145637e-03    0.000000e+00
   -6.466009e-02    2.613744e-03    0.000000e+00
   -3.105206e-01    1.263525e-02    0.000000e+00
   -2.249611e-03    7.537986e-04    0.000000e+00
   -4.920760e-03   -1.810335e-03    0.000000e+00
   -1.457185e-02    2.907202e-03    0.000000e+00
   -7.157049e-03   -2.113142e-03    0.000000e+00
   -2.616888e-01   -1.420267e-02    0.000000e+00
   -5.002532e-02   -5.190345e-03    0.000000e+00
   -2.825563e-01    9.978171e-03    0.000000e+00
   -5.619653e-02    1.943753e-03    0.000000e+00
   -4.610151e-03    1.061413e-03    0.000000e+00
   -9.825405e-03   -2.157931e-03    0.000000e+00
   -8.258358e-02   -1.928788e-03    0.000000e+00
   -1.459988e-01   -1.116196e-02    0.000000e+00
   -1.388967e-01   -1.460863e-02    0.000000e+00
   -1.185760e-01   -8.780180e-03    0.000000e+00
   -2.110249e-01   -1.350976e-02    0.000000e+00
   -2.220071e-01   -2.127052e-02    0.000000e+00
   -1.375341e-02   -4.164748e-03    0.000000e+00
   -1.591945e-02   -3.181457e-03    0.000000e+00
   -3.833468e-02   -6.917399e-03    0.000000e+00
   -3.509107e-02   -4.513743e-03    0.000000e+00
   -8.968037e-02   -6.782052e-03    0.000000e+00
   -8.576386e-02   -9.465801e-03    0.000000e+00
   -1.044456e-01    2.520297e-02    0.000000e+00
   -8.089907e-02   -9.265450e-03    0.000000e+00
   -7.658209e-02   -6.460816e-03    0.000000e+00
   -1.060084e-01    1.882523e-02    0.000000e+00
   -2.353745e-01   -2.209978e-02    0.000000e+00
   -4.226679e-02   -7.294630e-03    0.000000e+00
   -1.096651e-02   -4.016370e-03    0.000000e+00
   -8.932955e-02   -1.224464e-03    0.000000e+00
   -1.235197e-01    4.691682e-03    0.000000e+00
   -1.054557e-01    4.045878e-03    0.000000e+00
   -1.300344e-01   -1.444119e-02    0.000000e+00
   -1.067398e-01    6.971204e-04    0.000000e+00
   -9.920042e-02    2.465389e-03    0.000000e+00
   -1.018028e-01    2.070039e-02    0.000000e+00
   -9.251367e-02   -1.879564e-03    0.000000e+00
   -8.802626e-02   -3.124890e-03    0.000000e+00
   -1.044112e-01    4.273362e-03    0.000000e+00
   -1.074282e-01    2.213513e-02    0.000000e+00
   -1.542330e-01   -3.567806e-03    0.000000e+00
   -1.437043e-01   -4.485874e-03    0.000000e+00
   -2.477543e-03    5.938649e-04    0.000000e+00
   -1.364767e-01   -4.291329e-03    0.000000e+00
   -1.071328e-01    1.590383e-02    0.000000e+00
   -1.070466e-01    1.367439e-02    0.000000e+00
   -1.069387e-01    1.140655e-02    0.000000e+00
   -1.522452e-02   -1.131355e-03    0.000000e+00
   -2.123504e-01   -3.894648e-03    0.000000e+00
   -2.241683e-01   -1.035891e-03    0.000000e+00
   -3.891166e-02   -9.308060e-04    0.000000e+00
   -3.545186e-02   -1.674648e-03    0.000000e+00
   -7.293960e-02   -2.828484e-03    0.000000e+00
   -2.491499e-02   -1.591918e-04    0.000000e+00
   -2.596919e-01   -2.897784e-03    0.000000e+00
   -4.940211e-02   -1.779004e-03    0.000000e+00
   -7.626875e-03   -7.138929e-04    0.000000e+00
   -1.494586e-02    3.640104e-04    0.000000e+00
   -1.990910e-01   -3.079067e-03    0.000000e+00
   -3.156430e-02   -1.308866e-03    0.000000e+00
   -1.838629e-02   -9.786809e-04    0.000000e+00
   -5.328414e-02    1.219174e-03    0.000000e+00
   -2.999160e-02   -8.556788e-06    0.000000e+00
   -2.699936e-02    1.772296e-03    0.000000e+00
   -1.068343e-01    9.209215e-03    0.000000e+00
   -1.075587e-01    7.215301e-03    0.000000e+00
   -1.493941e-03   -2.846438e-04    0.000000e+00
   -6.818840e-02   -2.547802e-03    0.000000e+00
   -3.213772e-01   -3.361707e-03    0.000000e+00
   -2.727829e-01   -3.394825e-03    0.000000e+00
   -5.330056e-02   -2.032001e-03    0.000000e+00
   -5.677432e-03   -4.497897e-04    0.000000e+00
   -1.187393e-02    4.210534e-04    0.000000e+00
   -1.073673e-01    2.029243e-02    0.000000e+00
   -1.071286e-01    2.561969e-02    0.000000e+00
   -8.729344e-02    6.325598e-03    0.000000e+00
   -1.077883e-01    2.164394e-02    0.000000e+00
   -1.001652e-01    4.582930e-03    0.000000e+00
   -1.048030e-01    2.162290e-03    0.000000e+00
   -1.126827e-01    8.944474e-03    0.000000e+00
   -4.449445e-02    6.216521e-03    0.000000e+00
   -1.084597e-01    2.376172e-02    0.000000e+00
   -1.077412e-01    2.460046e-02    0.000000e+00
   -1.809634e-02    3.514349e-03    0.000000e+00
   -1.028546e-01    4.385293e-03    0.000000e+00
   -1.066230e-01    4.004709e-03    0.000000e+00
   -1.828061e-02   -1.002965e-04    0.000000e+00
   -4.562152e-02   -9.752425e-04    0.000000e+00
   -2.469486e-01   -5.526823e-04    0.000000e+00
   -5.774360e-02    6.959832e-04    0.000000e+00
   -1.215530e-01    9.629702e-03    0.000000e+00
   -1.076780e-01    2.686829e-02    0.000000e+00
   -1.289977e-01   -2.416756e-03    0.000000e+00
   -1.069659e-01    4.321660e-03    0.000000e+00
   -1.053620e-01    2.480584e-02    0.000000e+00
   -8.997823e-02   -4.706622e-03    0.000000e+00
   -1.626266e-02   -2.160850e-03    0.000000e+00
   -3.443880e-02   -3.008821e-03    0.000000e+00
   -2.088484e-01   -8.501257e-03    0.000000e+00
   -1.471422e-01   -7.756913e-03    0.000000e+00
   -1.173249e-01   -5.776952e-03    0.000000e+00
   -5.101303e-02   -3.332424e-03    0.000000e+00
   -2.650704e-01   -7.919599e-03    0.000000e+00
   -6.717383e-03   -1.225001e-03    0.000000e+00
   -1.365885e-02    1.448532e-03    0.000000e+00
   -1.057329e-01    3.355603e-03    0.000000e+00
   -7.062228e-02   -4.240807e-03    0.000000e+00
   -9.637372e-02   -4.820343e-03    0.000000e+00
   -2.477882e-01   -6.743191e-03    0.000000e+00
   -4.588512e-02   -2.832680e-03    0.000000e+00
   -1.794206e-02    1.659922e-03    0.000000e+00
   -2.233454e-01   -6.976151e-03    0.000000e+00
   -3.868597e-02   -2.688750e-03    0.000000e+00
   -4.360340e-02   -1.722809e-03    0.000000e+00
   -2.400912e-01   -3.244130e-03    0.000000e+00
   -2.021387e-02    6.368567e-04    0.000000e+00
   -1.298904e-01   -5.936970e-03    0.000000e+00
   -2.307422e-01   -3.391634e-03    0.000000e+00
   -4.085017e-02   -1.687864e-03    0.000000e+00
   -2.300660e-02    6.483532e-04    0.000000e+00
   -1.958838e-02   -2.067992e-03    0.000000e+00
   -3.015843e-02   -2.568484e-03    0.000000e+00
   -1.942527e-01   -7.486316e-03    0.000000e+00
   -5.141121e-02    2.778181e-03    0.000000e+00
   -1.582432e-01   -6.986318e-03    0.000000e+00
   -9.429265e-02   -3.012598e-03    0.000000e+00
   -1.262720e-01   -3.838699e-03    0.000000e+00
   -1.120783e-01   -5.026869e-03    0.000000e+00
   -5.543987e-02   -3.354164e-03    0.000000e+00
   -2.799008e-01   -7.578902e-03    0.000000e+00
   -4.897298e-03   -9.705829e-04    0.000000e+00
   -1.034141e-02    1.196210e-03    0.000000e+00
   -6.583066e-02   -3.701338e-03    0.000000e+00
   -3.143055e-01   -7.635067e-03    0.000000e+00
   -1.931771e-03   -6.038556e-04    0.000000e+00
   -1.008828e-01   -4.615801e-03    0.000000e+00
   -2.273020e-02   -2.150171e-03    0.000000e+00
   -2.661890e-02   -2.340755e-03    0.000000e+00
   -1.822744e-01   -7.129699e-03    0.000000e+00
   -4.635798e-02    2.416925e-03    0.000000e+00
   -1.689734e-01   -6.608445e-03    0.000000e+00
   -1.068759e-01    2.816037e-03    0.000000e+00
   -8.563139e-02   -6.816749e-03    0.000000e+00
   -3.643965e-02    4.607975e-03    0.000000e+00
   -6.783438e-02    2.431698e-03    0.000000e+00
   -1.036594e-03   -6.986103e-04    0.000000e+00
   -7.283076e-02    5.388593e-03    0.000000e+00
   -3.581579e-02    4.056681e-06    0.000000e+00
   -1.069331e-01    2.371872e-03    0.000000e+00
   -8.130792e-02    1.333526e-03    0.000000e+00
   -4.264122e-03   -1.609379e-04    0.000000e+00
   -4.050391e-02    1.886756e-04    0.000000e+00
   -1.066063e-01    2.328672e-03    0.000000e+00
   -1.026438e-01   -8.958006e-03    0.000000e+00
   -1.733597e-01   -1.552812e-02    0.000000e+00
   -1.779182e-01   -1.582363e-02    0.000000e+00
   -2.405600e-02   -4.761541e-03    0.000000e+00
   -2.539358e-02   -4.890098e-03    0.000000e+00
   -2.389141e-03   -1.524866e-03    0.000000e+00
   -1.014980e-01    3.796292e-03    0.000000e+00
   -9.686328e-02    1.119883e-03    0.000000e+00
   -3.088188e-01   -1.981319e-02    0.000000e+00
   -6.418166e-02   -7.342586e-03    0.000000e+00
   -9.316450e-03    3.289085e-03    0.000000e+00
   -4.452663e-03   -2.108057e-03    0.000000e+00
   -2.853539e-01   -1.938128e-02    0.000000e+00
   -5.710965e-02   -6.979821e-03    0.000000e+00
   -6.988913e-02   -6.284212e-03    0.000000e+00
   -6.583789e-02    9.205128e-04    0.000000e+00
   -8.586445e-02   -1.169602e-02    0.000000e+00
   -3.142254e-01    7.192124e-03    0.000000e+00
   -4.331050e-03   -1.000400e-03    0.000000e+00
   -5.091303e-03    3.903921e-04    0.000000e+00
   -6.475191e-03   -2.013163e-03    0.000000e+00
   -1.387914e-01   -9.854062e-03    0.000000e+00
   -1.388906e-01   -1.841282e-02    0.000000e+00
   -2.224115e-01   -1.406928e-02    0.000000e+00
   -3.843201e-02   -4.786508e-03    0.000000e+00
   -1.375495e-02   -5.321996e-03    0.000000e+00
   -1.372208e-02   -2.723766e-03    0.000000e+00
   -8.142001e-02   -4.957351e-04    0.000000e+00
   -2.064028e-01   -1.321197e-02    0.000000e+00
   -3.373640e-02   -4.382034e-03    0.000000e+00
   -8.078610e-02   -6.538136e-03    0.000000e+00
   -1.101922e-01   -9.594301e-03    0.000000e+00
   -1.128423e-02   -2.931314e-03    0.000000e+00
   -2.354758e-01   -2.805451e-02    0.000000e+00
   -2.353440e-01   -1.503940e-02    0.000000e+00
   -4.231562e-02   -9.062324e-03    0.000000e+00
   -4.223681e-02   -5.195522e-03    0.000000e+00
   -1.165475e-01   -8.589157e-03    0.000000e+00
   -1.310128e-01   -1.080564e-02    0.000000e+00
   -1.583963e-01   -1.304287e-03    0.000000e+00
   -1.964409e-02   -3.844518e-04    0.000000e+00
   -1.935977e-01   -6.453429e-04    0.000000e+00
   -2.994042e-02   -5.309720e-04    0.000000e+00
   -5.130567e-02    8.227029e-05    0.000000e+00
   -6.583424e-02   -1.175401e-03    0.000000e+00
   -1.941421e-03   -1.069277e-04    0.000000e+00
   -3.141293e-01    5.072820e-04    0.000000e+00
   -3.273474e-01   -6.370120e-03    0.000000e+00
   -2.807353e-01    5.260280e-04    0.000000e+00
   -5.567046e-02   -9.065732e-04    0.000000e+00
   -1.016811e-02   -3.740029e-04    0.000000e+00
   -1.241057e-01    1.832016e-03    0.000000e+00
   -1.076250e-01    2.617441e-02    0.000000e+00
   -1.067205e-01    1.077313e-03    0.000000e+00
   -1.080371e-01    2.386226e-02    0.000000e+00
   -1.075348e-01    2.525562e-02    0.000000e+00
   -1.155681e-01    3.512794e-03    0.000000e+00
   -1.068696e-01    2.207972e-02    0.000000e+00
   -1.058048e-01    1.712597e-03    0.000000e+00
   -1.067081e-01    5.123397e-03    0.000000e+00
   -1.079642e-01    2.658735e-02    0.000000e+00
   -1.075203e-01    2.700835e-02    0.000000e+00
   -1.075428e-01    2.316009e-02    0.000000e+00
   -9.059330e-02    1.869299e-03    0.000000e+00
   -1.061053e-01    1.972765e-02    0.000000e+00
   -7.546297e-02   -4.314569e-03    0.000000e+00
   -1.113318e-01    1.139844e-02    0.000000e+00
   -1.046081e-01    2.405375e-02    0.000000e+00
   -2.008484e-02   -3.454212e-03    0.000000e+00
   -5.068819e-02    4.926233e-03    0.000000e+00
   -1.599022e-01   -1.157886e-02    0.000000e+00
   -1.236326e-01   -9.386858e-03    0.000000e+00
   -4.619809e-02   -5.097771e-03    0.000000e+00
   -2.487767e-01   -1.429203e-02    0.000000e+00
   -8.891211e-03   -2.268772e-03    0.000000e+00
   -1.699590e-02    2.729014e-03    0.000000e+00
   -1.035075e-01    2.160860e-02    0.000000e+00
   -1.067843e-01    7.194587e-03    0.000000e+00
   -1.066313e-01    3.562470e-03    0.000000e+00
   -8.612978e-02    4.508742e-03    0.000000e+00
   -1.049155e-01    2.143148e-02    0.000000e+00
   -1.213731e-01    2.531446e-03    0.000000e+00
   -1.046300e-01    2.300005e-02    0.000000e+00
   -9.657059e-02   -1.728453e-03    0.000000e+00
   -1.071267e-01    6.487417e-03    0.000000e+00
   -1.199854e-01   -3.593073e-03    0.000000e+00
   -7.486691e-02   -6.438605e-03    0.000000e+00
   -2.354299e-01    3.698364e-03    0.000000e+00
   -4.221215e-02    3.842705e-04    0.000000e+00
   -2.159178e-02   -1.374232e-03    0.000000e+00
   -1.061036e-01    1.359129e-03    0.000000e+00
   -1.051773e-01    2.893095e-03    0.000000e+00
   -1.145031e-01   -3.500143e-03    0.000000e+00
   -9.874064e-02   -3.214453e-03    0.000000e+00
   -1.635168e-01   -3.760881e-03    0.000000e+00
   -1.879382e-01   -4.154858e-03    0.000000e+00
   -2.115053e-02   -1.247842e-03    0.000000e+00
   -2.827752e-02   -1.511100e-03    0.000000e+00
   -8.327874e-02   -8.070203e-03    0.000000e+00
   -1.069502e-01    1.978216e-03    0.000000e+00
   -1.021655e-01    6.678252e-03    0.000000e+00
   -1.067329e-01    1.840589e-03    0.000000e+00
   -4.238862e-02    1.358956e-03    0.000000e+00
   -1.354275e-01   -1.180831e-02    0.000000e+00
   -2.287837e-01   -1.827420e-02    0.000000e+00
   -4.031631e-02   -6.094690e-03    0.000000e+00
   -1.267558e-02   -3.283973e-03    0.000000e+00
   -8.567554e-03   -1.230754e-03    0.000000e+00
   -1.078636e-01    2.701174e-02    0.000000e+00
   -1.066133e-01    1.277716e-03    0.000000e+00
   -1.054943e-01    2.412933e-02    0.000000e+00
   -1.033777e-01    2.347446e-02    0.000000e+00
   -1.232600e-01   -5.513824e-03    0.000000e+00
   -8.299092e-02    2.474203e-03    0.000000e+00
   -1.183709e-01    3.327686e-03    0.000000e+00
   -1.129138e-01    3.467972e-03    0.000000e+00
   -1.075322e-01    2.426743e-02    0.000000e+00
   -5.125680e-03    3.768824e-04    0.000000e+00
   -8.495765e-02    6.411738e-03    0.000000e+00
   -8.722498e-02    2.738045e-03    0.000000e+00
   -1.060694e-01    3.558191e-03    0.000000e+00
   -2.971180e-03   -1.705395e-03    0.000000e+00
   -1.049506e-01   -9.025543e-03    0.000000e+00
   -1.058934e-01    2.426398e-03    0.000000e+00
   -1.101774e-01    8.720852e-03    0.000000e+00
   -1.011746e-01    1.036615e-03    0.000000e+00
   -3.280151e-01   -1.661345e-02    0.000000e+00
   -1.403756e-02   -1.584163e-03    0.000000e+00
   -1.079412e-01    2.526477e-02    0.000000e+00
   -1.067056e-01    2.850764e-03    0.000000e+00
   -4.055272e-02   -2.138434e-03    0.000000e+00
   -1.398089e-01   -6.082235e-03    0.000000e+00
   -1.062705e-01    2.405927e-03    0.000000e+00
   -1.080527e-01    2.560614e-02    0.000000e+00
   -1.068052e-01    8.961641e-04    0.000000e+00
   -4.886575e-02    1.187210e-03    0.000000e+00
   -1.068416e-01    1.971706e-03    0.000000e+00
   -1.100884e-01    1.367296e-02    0.000000e+00
   -1.062116e-01    2.071188e-02    0.000000e+00
   -6.355611e-02   -2.315216e-03    0.000000e+00
   -3.067932e-01   -3.421232e-03    0.000000e+00
   -1.232173e-01    7.408933e-03    0.000000e+00
   -1.047939e-01    2.112556e-02    0.000000e+00
   -5.736414e-02   -2.405044e-03    0.000000e+00
   -2.863399e-01   -4.276467e-03    0.000000e+00
   -9.035562e-03    4.965173e-04    0.000000e+00
   -1.084788e-01    2.653482e-02    0.000000e+00
   -9.510606e-02    2.534853e-03    0.000000e+00
   -1.088275e-01    2.552029e-02    0.000000e+00
   -1.967296e-03    3.342903e-04    0.000000e+00
   -9.043020e-02    2.499569e-04    0.000000e+00
   -1.060117e-01    5.172439e-03    0.000000e+00
   -8.612342e-02    7.985334e-03    0.000000e+00
   -9.213494e-02   -3.980808e-03    0.000000e+00
   -1.040362e-01    1.332943e-02    0.000000e+00
   -2.353680e-01   -8.802123e-03    0.000000e+00
   -4.222646e-02   -3.338843e-03    0.000000e+00
   -2.168371e-02    2.267110e-03    0.000000e+00
   -1.064561e-01    1.505768e-03    0.000000e+00
   -2.176680e-02    7.621622e-03    0.000000e+00
   -1.115076e-01    6.136481e-03    0.000000e+00
   -1.045757e-01    3.517423e-03    0.000000e+00
   -6.012899e-03   -1.923327e-03    0.000000e+00
   -3.036366e-01    1.213209e-02    0.000000e+00
   -6.255934e-02    2.486907e-03    0.000000e+00
   -8.493216e-02   -1.611494e-03    0.000000e+00
   -3.897827e-03    9.655746e-04    0.000000e+00
   -1.109704e-01    1.595975e-02    0.000000e+00
   -6.361260e-03    2.705144e-03    0.000000e+00
   -3.013377e-01   -1.953574e-02    0.000000e+00
   -6.192661e-02   -7.187555e-03    0.000000e+00
   -1.076638e-01    1.878174e-02    0.000000e+00
   -1.040789e-01    1.703246e-02    0.000000e+00
   -1.685980e-02   -3.197951e-03    0.000000e+00
   -5.629151e-02    4.974791e-03    0.000000e+00
   -1.491130e-01   -1.111883e-02    0.000000e+00
   -1.067055e-01    1.109636e-03    0.000000e+00
   -1.067056e-01    2.023427e-02    0.000000e+00
   -1.077393e-01    2.690882e-02    0.000000e+00
   -1.068227e-01    1.295047e-03    0.000000e+00
   -1.076252e-01    2.630567e-02    0.000000e+00
   -1.064970e-01    3.154904e-03    0.000000e+00
   -1.228785e-01   -1.220532e-03    0.000000e+00
   -1.079384e-01    1.349632e-02    0.000000e+00
   -1.065635e-01    1.640679e-03    0.000000e+00
   -1.030094e-01    2.388193e-03    0.000000e+00
   -1.062602e-01    1.807511e-03    0.000000e+00
   -1.009806e-01   -1.783101e-03    0.000000e+00
   -1.925433e-01   -1.291780e-02    0.000000e+00
   -2.967570e-02   -4.162549e-03    0.000000e+00
   -1.068705e-01    1.689531e-03    0.000000e+00
   -1.097042e-01    1.751078e-02    0.000000e+00
   -1.055873e-01    2.020552e-02    0.000000e+00
   -3.334800e-01   -1.679354e-02    0.000000e+00
   -1.170203e-01   -1.889555e-03    0.000000e+00
   -1.119927e-01   -1.782121e-03    0.000000e+00
   -1.822563e-01   -1.462719e-03    0.000000e+00
   -2.654347e-02   -6.324949e-04    0.000000e+00
   -1.077005e-01    2.703048e-02    0.000000e+00
   -1.070790e-01    5.794165e-03    0.000000e+00
   -8.907873e-02    2.700897e-03    0.000000e+00
   -1.027851e-01    9.274067e-03    0.000000e+00
   -1.062981e-01    2.110871e-02    0.000000e+00
   -1.077287e-01    2.583963e-02    0.000000e+00
   -3.832649e-02   -3.348631e-03    0.000000e+00
   -1.063409e-01    2.370368e-02    0.000000e+00
   -8.498846e-02    2.672375e-03    0.000000e+00
   -1.066838e-01    1.988801e-03    0.000000e+00
   -4.432331e-02    1.248952e-03    0.000000e+00
   -1.067821e-01    1.462868e-03    0.000000e+00
   -1.075811e-01    2.505091e-02    0.000000e+00
   -4.629694e-02   -4.045248e-04    0.000000e+00
   -1.067797e-01    9.986337e-04    0.000000e+00
   -6.086854e-02    1.185938e-03    0.000000e+00
   -2.980362e-01    7.781455e-03    0.000000e+00
   -6.960472e-03   -1.425211e-03    0.000000e+00
   -3.344337e-03    5.469998e-04    0.000000e+00
   -8.607917e-02   -7.628527e-05    0.000000e+00
   -1.066519e-01    1.330436e-03    0.000000e+00
   -6.250409e-03    4.932068e-04    0.000000e+00
   -1.065530e-01    2.507030e-03    0.000000e+00
   -1.058531e-01    1.339105e-02    0.000000e+00
   -2.269228e-02   -5.517318e-04    0.000000e+00
   -1.690130e-01   -3.240651e-04    0.000000e+00
   -7.685908e-03    5.666270e-04    0.000000e+00
   -5.950239e-02   -2.790627e-03    0.000000e+00
   -2.934278e-01   -5.358009e-03    0.000000e+00
   -1.067294e-01    1.123164e-03    0.000000e+00
   -6.066107e-02    3.579623e-03    0.000000e+00
   -2.974050e-01    1.561688e-02    0.000000e+00
   -7.080209e-03   -2.710206e-03    0.000000e+00
   -1.067808e-01    1.098000e-03    0.000000e+00
   -3.004894e-01   -6.627502e-03    0.000000e+00
   -6.164197e-02   -3.238382e-03    0.000000e+00
   -3.339074e-03    1.235638e-03    0.000000e+00
   -8.600214e-02   -3.011512e-03    0.000000e+00
   -1.077138e-01    2.667522e-02    0.000000e+00
   -1.117792e-01    1.018128e-03    0.000000e+00
   -1.063298e-01   -6.216255e-03    0.000000e+00
   -7.023989e-03    1.673523e-03    0.000000e+00
   -3.288638e-03   -1.206270e-03    0.000000e+00
   -2.969354e-01   -1.246084e-02    0.000000e+00
   -6.057788e-02   -4.987160e-03    0.000000e+00
   -1.063941e-01   -1.152381e-02    0.000000e+00
   -7.201539e-03    3.884783e-03    0.000000e+00
   -3.404982e-03   -2.355061e-03    0.000000e+00
   -2.970668e-01   -2.572449e-02    0.000000e+00
   -6.065754e-02   -9.029277e-03    0.000000e+00
   -2.525571e-02    1.505368e-03    0.000000e+00
   -8.095453e-02   -1.148418e-02    0.000000e+00
   -1.930241e-01    5.399477e-03    0.000000e+00
   -2.975292e-02    1.268157e-03    0.000000e+00
   -1.076544e-01    8.466303e-03    0.000000e+00
   -3.833689e-02   -8.657785e-03    0.000000e+00
   -2.219525e-01   -2.715579e-02    0.000000e+00
   -1.068017e-01    1.197020e-03    0.000000e+00
   -4.252982e-02   -3.308062e-03    0.000000e+00
   -2.951020e-02    2.724827e-03    0.000000e+00
   -1.922356e-01    1.028798e-02    0.000000e+00
   -1.080040e-01    1.756528e-02    0.000000e+00
   -1.062260e-01    2.877650e-03    0.000000e+00
   -1.101035e-01   -3.337876e-03    0.000000e+00
   -4.050799e-02   -4.493691e-03    0.000000e+00
   -3.609899e-02   -2.357492e-03    0.000000e+00
   -1.169033e-01    1.072995e-03    0.000000e+00
   -1.069336e-01    1.276729e-03    0.000000e+00
   -6.124792e-02   -1.183326e-03    0.000000e+00
   -2.992304e-01    6.033143e-05    0.000000e+00
   -6.923276e-03   -3.681649e-04    0.000000e+00
   -3.431424e-03   -1.383619e-04    0.000000e+00
   -8.610213e-02    1.319689e-03    0.000000e+00
   -1.076778e-01    2.690827e-02    0.000000e+00
   -1.069893e-01    1.556704e-02    0.000000e+00
   -7.892325e-03    3.007022e-03    0.000000e+00
   -1.049661e-01   -3.231827e-03    0.000000e+00
   -1.077625e-01   -9.254915e-03    0.000000e+00
   -2.937953e-03   -5.604504e-04    0.000000e+00
   -3.732985e-03   -1.920940e-03    0.000000e+00
   -2.926659e-01   -1.943594e-02    0.000000e+00
   -5.930864e-02   -7.070168e-03    0.000000e+00
   -1.067895e-01    1.219513e-03    0.000000e+00
   -2.525814e-02   -1.458031e-03    0.000000e+00
   -1.778862e-01   -4.332844e-03    0.000000e+00
   -1.071143e-01    2.022713e-02    0.000000e+00
   -2.648103e-02    1.058946e-03    0.000000e+00
   -1.820594e-01    4.162501e-03    0.000000e+00
   -1.672275e-01    3.592737e-03    0.000000e+00
   -1.874670e-01    7.546760e-03    0.000000e+00
   -2.810615e-02    1.976696e-03    0.000000e+00
   -1.103578e-01    3.208502e-03    0.000000e+00
   -4.712899e-02   -2.188182e-03    0.000000e+00
   -1.068429e-01    1.444369e-03    0.000000e+00
   -1.048359e-01    8.195069e-03    0.000000e+00
   -1.066153e-01    1.103625e-02    0.000000e+00
   -1.063362e-01    5.496056e-03    0.000000e+00
   -1.066065e-01    1.588197e-03    0.000000e+00
   -1.051084e-01    2.509757e-03    0.000000e+00
   -1.061047e-01    1.745594e-02    0.000000e+00
   -2.649969e-02    2.758873e-03    0.000000e+00
   -1.819756e-01    9.880900e-03    0.000000e+00
   -1.058141e-01    3.950113e-03    0.000000e+00
   -3.645318e-02   -4.262987e-03    0.000000e+00
   -4.143622e-03   -5.196174e-04    0.000000e+00
   -2.367543e-03   -4.285174e-04    0.000000e+00
   -1.027159e-01   -3.214668e-03    0.000000e+00
   -1.077371e-01   -3.272261e-03    0.000000e+00
   -2.396587e-02   -1.411470e-03    0.000000e+00
   -1.734562e-01   -4.036956e-03    0.000000e+00
   -1.077322e-01    2.794356e-03    0.000000e+00
   -1.071132e-01    1.893027e-02    0.000000e+00
   -1.078195e-01    2.630667e-02    0.000000e+00
   -1.063798e-01   -2.810840e-04    0.000000e+00
   -8.714610e-02   -1.394341e-03    0.000000e+00
   -8.149639e-03   -2.125127e-03    0.000000e+00
   -2.913423e-01    1.098018e-02    0.000000e+00
   -5.883869e-02    2.198402e-03    0.000000e+00
   -1.773309e-01    6.522797e-03    0.000000e+00
   -2.513758e-02    1.888305e-03    0.000000e+00
   -4.775267e-03   -2.495149e-04    0.000000e+00
   -3.572104e-03   -7.462977e-04    0.000000e+00
   -2.274840e-02    8.236145e-04    0.000000e+00
   -2.643594e-02    4.410401e-03    0.000000e+00
   -1.817687e-01    1.551691e-02    0.000000e+00
   -5.166253e-02   -5.366416e-03    0.000000e+00
   -2.671885e-01   -1.461882e-02    0.000000e+00
   -1.323761e-02    2.891383e-03    0.000000e+00
   -1.952759e-03    1.448298e-03    0.000000e+00
   -1.106960e-01    2.051058e-02    0.000000e+00
   -9.700095e-02   -7.168093e-03    0.000000e+00
   -9.234435e-03   -1.573776e-03    0.000000e+00
   -1.109491e-01    1.845373e-02    0.000000e+00
   -1.038731e-01    1.487384e-02    0.000000e+00
   -4.039614e-02   -6.482559e-03    0.000000e+00
   -1.093285e-01    2.156915e-02    0.000000e+00
   -1.307561e-01   -1.733455e-02    0.000000e+00
   -1.119579e-02   -4.909212e-03    0.000000e+00
   -1.077522e-01    1.680879e-03    0.000000e+00
   -1.110141e-01    1.660712e-02    0.000000e+00
   -1.111047e-01    1.228839e-02    0.000000e+00
   -1.110796e-01    1.413077e-02    0.000000e+00
   -9.248941e-02    1.039548e-02    0.000000e+00
   -1.037802e-01    1.267740e-02    0.000000e+00
   -1.328201e-02   -1.827016e-03    0.000000e+00
   -1.373538e-01   -6.944993e-03    0.000000e+00
   -1.078015e-01    3.703196e-03    0.000000e+00
   -9.166382e-02   -6.371374e-03    0.000000e+00
   -2.814815e-03    8.108561e-04    0.000000e+00
   -1.037584e-01    1.056929e-02    0.000000e+00
   -1.040824e-01    8.592023e-03    0.000000e+00
   -1.174074e-03   -4.161466e-04    0.000000e+00
   -8.131473e-04   -7.584936e-04    0.000000e+00
   -1.064866e-01    2.048038e-03    0.000000e+00
   -1.104232e-01    2.183992e-02    0.000000e+00
   -3.953797e-01    1.502118e-02    0.000000e+00
   -3.908187e-01    1.976192e-02    0.000000e+00
   -3.988074e-01    3.230570e-03    0.000000e+00
   -3.862624e-01    2.353517e-02    0.000000e+00
   -3.789772e-01    2.310327e-02    0.000000e+00
   -3.991649e-01    1.055340e-02    0.000000e+00
   -3.895120e-01    2.015266e-03    0.000000e+00
   -3.810205e-01    1.834481e-03    0.000000e+00
   -3.776707e-01    1.410693e-02    0.000000e+00
   -3.895786e-01    1.380217e-02    0.000000e+00
   -3.928279e-01    8.926571e-03    0.000000e+00
   -3.769273e-01    7.601392e-03    0.000000e+00
   -3.846411e-01    1.720648e-02    0.000000e+00
   -3.845996e-01    9.348359e-03    0.000000e+00

CELL_DATA 4904
SCALARS mises_stress float
LOOKUP_TABLE default
    4.350703e-02
    5.269682e-02
    2.584666e-02
    1.262683e-02
    1.829055e-02
    5.602348e-02
    4.075143e-02
    2.074737e-02
    2.149963e-02
    1.557677e-02
    3.509787e-02
    3.955524e-02
    1.387950e-01
    4.213473e-02
    4.526597e-02
    7.281507e-01
    4.566054e-02
    3.212881e-02
    5.927293e-02
    1.034160e-01
    8.081053e-02
    1.741212e-01
    2.985462e-02
    1.976437e-02
    3.522224e-02
    3.678101e-02
    7.462050e-02
    3.520110e-02
    3.439626e-02
    3.074202e-02
    2.675252e-02
    2.916459e-02
    1.005259e-01
    8.441682e-02
    9.662725e-02
    3.492215e-02
    2.509649e-02
    1.392618e-02
    1.436791e-01
    3.451805e-01
    4.161953e-02
    3.941208e-02
    9.469467e-02
    1.440425e-01
    4.676288e-01
    5.211413e-01
    5.337864e-01
    5.813487e-01
    1.105891e+00
    9.627050e-01
    1.020284e+00
    8.278973e-01
    4.703394e-01
    4.704096e-01
    5.463292e-01
    4.695955e-01
    4.332956e-01
    3.892144e-01
    6.378961e-01
    5.630007e-01
    4.628719e-01
    9.242695e-01
    1.161656e+00
    8.717302e-01
    5.564894e-01
    8.209974e-01
    6.098945e-01
    5.782276e-01
    1.090839e+00
    1.361608e+00
    1.376965e+00
    7.396093e-01
    1.106454e+00
    7.212388e-01
    7.188208e-01
    9.718162e-01
    1.550996e+00
    1.566298e+00
    8.542404e-01
    1.355883e+00
    6.374386e-01
    7.191913e-01
    1.054857e+00
    2.180160e+00
    2.063720e+00
    1.090463e+00
    1.588014e+00
    6.491612e-01
    6.104338e-01
    1.182361e+00
    2.416545e+00
    2.060243e+00
    1.270990e+00
    1.823681e+00
    7.692867e-01
    8.199085e-01
    1.689545e+00
    2.655523e+00
    2.274409e+00
    1.458352e+00
    1.864839e+00
    1.082171e+00
    8.893883e-01
    1.874627e+00
    2.881939e+00
    2.483982e+00
    1.370805e+00
    2.045505e+00
    1.163883e+00
    6.594244e-01
    1.581959e+00
    3.175256e+00
    2.675178e+00
    1.528028e+00
    2.223770e+00
    1.202246e+00
    6.772217e-01
    2.089899e+00
    2.887388e+00
    2.671763e+00
    2.169498e+00
    2.434025e+00
    1.282357e+00
    5.484297e-01
    2.330607e+00
    3.124818e+00
    3.546903e+00
    2.361293e+00
    2.653647e+00
    1.443707e+00
    7.534363e-01
    2.484892e+00
    3.407053e+00
    3.842238e+00
    2.598878e+00
    3.381696e+00
    1.067248e+00
    1.166869e+00
    2.464730e+00
    2.438254e+00
    3.461116e+00
    2.721794e+00
    3.622013e+00
    1.177135e+00
    1.035351e+00
    1.470273e+00
    3.242368e+00
    3.247730e+00
    1.088006e+00
    7.341207e-01
    1.397771e+00
    2.342886e+00
    2.303312e+00
    2.786563e+00
    2.250609e+00
    2.443402e+00
    1.289841e+00
    4.401577e-01
    1.181630e+00
    1.982338e+00
    2.076002e+00
    9.418584e-01
    5.823086e-01
    2.078436e+00
    1.609144e+00
    1.963316e+00
    2.898752e+00
    3.840277e+00
    1.307913e+00
    5.911922e-01
    1.025459e+00
    1.207809e+00
    1.199401e+00
    4.435560e-01
    1.769457e+00
    2.542725e+00
    2.526796e+00
    3.059261e+00
    3.147573e+00
    2.244951e+00
    6.359251e-01
    1.085886e+00
    1.020439e+00
    8.232503e-01
    1.098452e+00
    2.770493e+00
    2.766787e+00
    2.473019e+00
    3.061660e+00
    1.783588e+00
    1.134542e+00
    1.146266e+00
    1.197645e+00
    1.662188e+00
    2.277730e+00
    2.889859e+00
    2.267703e+00
    2.758968e+00
    1.776265e+00
    1.345447e+00
    1.408046e+00
    1.588814e+00
    2.145803e+00
    2.978796e+00
    2.344121e+00
    1.582409e+00
    1.371789e+00
    1.290399e+00
    1.442773e+00
    1.012726e+00
    1.490960e+00
    2.597803e+00
    1.857656e+00
    1.342603e+00
    1.081173e+00
    1.145108e+00
    8.873825e-01
    6.161832e-01
    2.138149e+00
    1.583639e+00
    1.001247e+00
    7.289251e-01
    4.193929e-01
    7.166325e-02
    5.469883e-01
    1.570900e+00
    1.070549e+00
    5.663181e-01
    4.245836e-01
    1.929327e-01
    8.281328e-02
    2.099677e-01
    1.165488e+00
    6.876230e-01
    3.221075e-01
    1.684262e-01
    1.659263e-01
    1.091652e-01
    2.027291e-01
    7.970178e-01
    5.018090e-01
    2.985882e-01
    1.926419e-01
    9.300077e-02
    1.316799e-01
    2.016856e-01
    5.569273e-01
    4.737310e-01
    3.839028e-01
    1.742405e-01
    6.291466e-02
    1.617081e-01
    2.201867e-01
    4.273563e-01
    5.154742e-01
    4.124973e-01
    1.785847e-01
    5.765505e-02
    1.979570e-01
    2.540835e-01
    4.458285e-01
    5.598437e-01
    4.253424e-01
    2.221870e-01
    6.784391e-02
    1.257016e-01
    2.811881e-01
    5.421992e-01
    6.026432e-01
    4.303194e-01
    1.826653e-01
    1.376931e-01
    2.759697e-01
    2.381696e-01
    5.865477e-01
    6.438642e-01
    4.483273e-01
    2.593042e-01
    1.711737e-01
    3.084614e-01
    2.739397e-01
    6.305345e-01
    7.517161e-01
    4.698927e-01
    1.293246e-01
    1.017572e-01
    3.393910e-01
    3.060919e-01
    6.367722e-01
    8.034467e-01
    4.104827e-01
    1.187755e-01
    1.120963e-01
    3.746136e-01
    4.751007e-01
    6.959366e-01
    8.432784e-01
    3.418348e-01
    2.025803e-01
    1.344603e-01
    4.122204e-01
    5.171914e-01
    7.250660e-01
    8.850407e-01
    4.319299e-01
    9.380594e-02
    2.750327e-01
    4.553034e-01
    5.601757e-01
    7.578927e-01
    8.340387e-01
    5.456924e-01
    1.417874e-01
    3.119258e-01
    5.262503e-01
    5.999554e-01
    6.792250e-01
    8.637449e-01
    5.609938e-01
    2.061710e-01
    2.225938e-01
    5.244787e-01
    6.609620e-01
    7.098642e-01
    8.930210e-01
    5.582607e-01
    2.525947e-01
    3.492656e-01
    5.633487e-01
    5.080557e-01
    8.888770e-01
    9.310483e-01
    5.724308e-01
    2.327701e-01
    3.851103e-01
    5.981117e-01
    5.627386e-01
    9.218583e-01
    9.704045e-01
    6.114089e-01
    2.590594e-01
    4.146452e-01
    6.312307e-01
    5.971498e-01
    9.663601e-01
    1.155864e+00
    5.009715e-01
    1.394458e-01
    2.719723e-01
    6.644761e-01
    6.300298e-01
    9.833456e-01
    1.195890e+00
    5.246904e-01
    1.458596e-01
    2.770681e-01
    7.003914e-01
    8.703196e-01
    1.011913e+00
    1.238580e+00
    5.428596e-01
    1.151807e-01
    2.969596e-01
    7.357728e-01
    9.125448e-01
    1.042359e+00
    1.101218e+00
    8.353919e-01
    9.539225e-02
    5.269839e-01
    7.745680e-01
    9.517350e-01
    8.884166e-01
    1.151784e+00
    7.085012e-01
    1.630135e-01
    3.305374e-01
    7.912118e-01
    9.994562e-01
    8.566347e-01
    1.182790e+00
    7.140654e-01
    1.703729e-01
    3.388577e-01
    6.116372e-01
    1.017013e+00
    1.185986e+00
    1.217700e+00
    7.040494e-01
    5.006994e-01
    6.121418e-01
    8.867850e-01
    8.572148e-01
    1.215045e+00
    1.261925e+00
    5.064826e-01
    2.824034e-01
    6.381057e-01
    9.105579e-01
    8.867058e-01
    1.258026e+00
    1.484856e+00
    7.705947e-01
    1.933571e-01
    6.411075e-01
    9.201966e-01
    9.110951e-01
    1.215982e+00
    1.545518e+00
    7.749416e-01
    2.459957e-01
    4.370521e-01
    8.559487e-01
    1.309682e+00
    1.573591e+00
    8.077148e-01
    4.912665e-01
    1.740570e-01
    1.330010e+00
    1.601225e+00
    7.562564e-01
    3.242288e-01
    1.360096e+00
    1.088543e+00
    1.066810e+00
    2.009383e+00
    2.155003e+00
    1.169171e+00
    7.916692e-01
    1.425875e+00
    2.020726e+00
    1.914487e+00
    1.892136e+00
    1.015548e+00
    7.709544e-01
    1.311683e+00
    1.796049e+00
    1.586480e+00
    1.603096e+00
    8.659900e-01
    5.349752e-01
    1.094226e+00
    1.917579e+00
    1.340159e+00
    1.310131e+00
    7.501948e-01
    7.230744e-01
    8.051357e-01
    1.334254e+00
    1.470074e+00
    1.180345e+00
    1.028835e+00
    6.706242e-01
    6.889963e-01
    8.664928e-01
    1.099298e+00
    1.234890e+00
    9.603508e-01
    7.741609e-01
    4.832358e-01
    2.080626e-01
    1.308900e-01
    3.653606e-01
    5.458164e-01
    9.025187e-01
    1.166126e+00
    1.437723e+00
    1.784294e+00
    1.896716e+00
    2.112919e+00
    3.233768e+00
    1.585658e+00
    4.561308e-01
    8.861523e-01
    1.502286e+00
    1.149185e+00
    1.605604e+00
    1.297080e+00
    4.223672e-01
    3.703284e-01
    8.317428e-01
    1.256203e+00
    9.131206e-01
    4.564508e-01
    6.409611e-01
    8.204271e-01
    9.093483e-01
    6.220782e-01
    3.490380e-01
    4.997956e-01
    5.421443e-01
    6.851521e-01
    6.915736e-01
    7.857755e-01
    2.435475e+00
    1.154248e+00
    4.911188e-01
    7.833230e-01
    1.308070e+00
    1.003030e+00
    1.992341e+00
    2.716130e+00
    1.542241e+00
    9.518879e-01
    4.495762e-01
    1.897193e+00
    3.224985e+00
    2.347279e+00
    2.430226e+00
    2.230705e+00
    1.208085e+00
    4.944730e-01
    1.024440e+00
    1.176783e+00
    1.415012e+00
    1.328510e+00
    1.843687e+00
    1.269707e+00
    3.561743e-01
    1.364122e+00
    1.309006e+00
    1.832595e+00
    1.013837e+00
    1.158348e+00
    9.499214e-01
    4.190613e-01
    7.653111e-01
    1.968715e+00
    1.630040e+00
    1.777427e+00
    1.538933e+00
    1.239902e+00
    8.367494e-01
    4.256745e-01
    3.815359e-01
    2.189340e-01
    4.408846e-01
    3.275219e-01
    6.347291e-01
    3.991418e-01
    4.395153e-01
    1.193952e+00
    8.307816e-01
    8.644130e-01
    1.996646e-01
    2.527600e-01
    3.706681e-01
    4.477324e-01
    5.569434e-01
    5.727169e-01
    5.823592e-01
    5.380229e-01
    4.565240e-01
    4.158923e-01
    4.132695e-01
    4.660908e-01
    6.005327e-01
    8.304800e-01
    8.105999e-01
    7.734491e-01
    4.687545e-01
    4.560476e-01
    4.795411e-01
    4.690553e-01
    4.461579e-01
    3.731597e-01
    9.880670e-01
    1.002869e+00
    6.731737e-01
    5.713238e-01
    4.002273e-01
    3.225405e-01
    4.264701e-01
    7.240363e-01
    5.870444e-01
    7.154850e-01
    3.900723e-01
    5.150455e-01
    1.365764e+00
    1.865928e+00
    1.609316e+00
    1.688271e+00
    1.462354e+00
    8.886484e-01
    4.295367e-01
    4.406672e-01
    4.451846e-01
    5.400687e-01
    1.153322e+00
    1.191685e+00
    8.506030e-01
    5.023221e-01
    4.185009e-01
    4.368493e-01
    5.456154e-01
    1.039600e+00
    1.383951e+00
    7.536213e-01
    7.301930e-01
    5.418491e-01
    3.296778e-01
    3.666433e-01
    4.714625e-01
    5.643283e-01
    5.027881e-01
    3.967356e-01
    2.234875e-01
    3.902771e-01
    4.945878e-01
    4.690349e-01
    2.694858e-01
    2.020626e-01
    3.593825e-01
    2.979376e-01
    4.735196e-01
    8.247014e-01
    4.282327e-01
    3.860432e-01
    1.285250e+00
    8.217520e-01
    6.230509e-01
    1.016860e+00
    5.379413e-01
    5.166401e-01
    4.219189e-01
    7.769344e-01
    9.941854e-01
    8.838987e-01
    5.891317e-01
    1.411825e+00
    2.068251e+00
    9.961482e-01
    4.820805e-01
    8.401459e-01
    1.367385e+00
    1.640807e+00
    2.256012e+00
    1.042359e+00
    5.271735e-01
    3.952971e-01
    1.784723e+00
    2.445016e+00
    5.157074e-01
    1.505120e+00
    2.341965e+00
    2.534129e+00
    1.196102e+00
    3.735057e-01
    1.008025e+00
    2.201441e+00
    2.312449e+00
    1.038191e+00
    2.841564e-01
    1.922143e+00
    2.168059e+00
    1.408923e+00
    1.872665e+00
    1.122349e+00
    1.167886e+00
    6.889919e-01
    5.170863e-01
    3.139537e-01
    1.292470e+00
    1.075591e+00
    6.331592e-01
    5.108197e-01
    9.008339e-01
    8.549150e-01
    7.172752e-01
    7.448630e-01
    2.946681e-01
    2.457393e-01
    3.954989e-01
    5.507473e-01
    6.715615e-01
    8.869587e-02
    2.077686e-01
    3.950980e-01
    4.552161e-01
    1.622864e-01
    2.278927e-01
    2.805124e-01
    3.442230e-01
    7.710623e-01
    8.768695e-01
    5.592728e-01
    4.404630e-01
    1.169040e+00
    2.096210e+00
    1.857553e+00
    1.783285e+00
    1.425890e+00
    8.043951e-01
    3.913668e-01
    6.198091e-01
    8.680121e-01
    3.911805e-01
    3.973809e-01
    9.625552e-01
    1.190010e+00
    1.913768e+00
    1.526027e+00
    6.960074e-01
    4.770242e-01
    6.449795e-01
    5.215124e-01
    5.898339e-01
    1.028497e+00
    1.908515e+00
    1.774032e+00
    8.212869e-01
    7.389199e-01
    8.820502e-01
    7.016755e-01
    1.012387e+00
    1.650038e+00
    1.297076e+00
    8.110251e-01
    8.738300e-01
    7.901737e-01
    9.347511e-01
    1.294789e+00
    1.046511e+00
    7.716808e-01
    7.565702e-01
    8.710815e-01
    8.560658e-01
    7.798557e-01
    5.300247e-01
    6.179610e-01
    8.815332e-01
    6.620914e-01
    4.221409e-01
    4.290156e-01
    3.758807e-01
    4.006797e-01
    2.550696e-01
    1.110903e-01
    2.716177e-01
    5.738184e-01
    6.483625e-01
    5.546046e-01
    5.135885e-01
    2.523576e-01
    2.721462e-01
    6.053340e-01
    6.097820e-01
    4.351276e-01
    2.400184e-01
    5.224467e-01
    3.882158e-01
    6.416415e-01
    5.757924e-01
    3.411769e-01
    1.189217e-01
    7.989025e-01
    5.475686e-01
    6.495609e-01
    5.535568e-01
    3.916554e-01
    3.460940e-01
    9.930334e-01
    7.151718e-01
    7.109830e-01
    5.559233e-01
    4.842907e-01
    6.243650e-01
    2.258645e+00
    9.826264e-01
    5.973194e-01
    1.595693e+00
    1.821027e+00
    2.553059e+00
    2.944556e+00
    9.391476e-01
    9.090151e-01
    6.255722e-01
    2.574343e+00
    2.544115e+00
    1.236960e+00
    1.263982e+00
    3.002015e+00
    3.219313e+00
    5.159283e+00
    7.708147e-01
    6.422252e-01
    4.314370e-01
    5.366961e-01
    5.383680e-01
    3.945878e-01
    3.002216e-01
    4.866621e-01
    9.704288e-01
    1.427199e-01
    2.042078e-01
    1.358260e+00
    1.555092e+00
    1.529889e+00
    4.748339e-01
    4.240172e-01
    5.109242e-01
    4.765976e-01
    5.174313e-01
    5.384387e-01
    6.948553e-01
    6.039605e-01
    6.476721e-01
    5.665714e-01
    8.022491e-01
    5.560567e-01
    6.217864e-01
    9.517981e-01
    4.483026e-01
    8.365145e-01
    1.092970e+00
    4.351955e-01
    1.154760e+00
    1.267414e+00
    6.094469e-01
    9.401870e-01
    1.216780e+00
    5.280873e-01
    1.082528e+00
    1.192313e+00
    4.691721e-01
    1.142050e+00
    1.652949e+00
    5.271026e-01
    1.293885e+00
    1.826997e+00
    7.181100e-01
    1.480164e+00
    1.339465e+00
    3.494006e-01
    1.347918e+00
    1.809423e+00
    7.549191e-01
    1.667815e+00
    2.243850e+00
    5.533003e-01
    2.415332e+00
    2.404803e+00
    2.605749e-01
    2.514950e+00
    2.060427e+00
    4.290241e-01
    2.156861e+00
    2.101181e+00
    4.630618e-01
    9.092041e-01
    1.718367e+00
    3.313104e+00
    3.740728e+00
    2.338329e+00
    8.635576e-01
    8.218948e-01
    3.291485e+00
    3.546358e+00
    2.699426e+00
    2.262428e+00
    2.473132e+00
    8.385914e-01
    6.562160e-01
    4.894153e-01
    3.435668e-01
    2.611870e-01
    4.831495e-01
    7.677592e-01
    1.325757e+00
    1.550736e+00
    1.662145e+00
    1.619661e+00
    1.407201e+00
    2.126125e+00
    1.375868e+00
    1.251697e+00
    1.097935e+00
    1.208851e+00
    1.816750e+00
    1.738079e+00
    9.104246e-01
    1.254998e+00
    1.699123e+00
    1.816783e+00
    1.418445e+00
    1.362347e+00
    1.134051e+00
    6.309520e-01
    6.271645e-01
    5.154796e-01
    4.422203e-01
    4.159198e-01
    4.716696e-01
    5.221475e-01
    5.231733e-01
    6.626074e-01
    6.898642e-01
    5.136440e-01
    6.008162e-01
    7.603099e-01
    7.902608e-01
    8.350607e-01
    8.232951e-01
    7.768255e-01
    7.954352e-01
    3.646080e-01
    1.774846e+00
    1.566646e+00
    1.346369e+00
    1.118930e+00
    1.068580e+00
    7.242571e-01
    7.899027e-01
    8.196546e-01
    5.022664e-01
    8.417843e-01
    7.869266e-01
    7.223930e-01
    8.654952e-01
    7.964815e-01
    5.456034e-01
    6.019801e-01
    6.167334e-01
    6.338848e-01
    6.522457e-01
    6.677819e-01
    6.292082e-01
    5.650446e-01
    7.325386e-01
    7.043157e-01
    7.063925e-01
    6.889056e-01
    6.960896e-01
    5.629126e-01
    4.369623e-01
    6.038762e-01
    7.776939e-01
    8.420281e-01
    8.308995e-01
    6.728411e-01
    1.077204e+00
    1.304442e+00
    1.400655e+00
    1.581342e+00
    1.497196e+00
    8.794346e-01
    7.608180e-01
    8.582730e-01
    4.715182e-01
    7.037068e-01
    6.921773e-01
    5.198535e-01
    4.924791e-01
    4.649710e-01
    4.417539e-01
    4.752451e-01
    5.641747e-01
    6.699146e-01
    7.500308e-01
    8.820210e-01
    1.040247e+00
    1.229480e+00
    9.840621e-01
    8.981194e-01
    7.950190e-01
    9.454097e-01
    1.042636e+00
    9.965438e-01
    5.648382e-01
    5.927572e-01
    6.887638e-01
    8.901741e-01
    9.119225e-01
    8.732618e-01
    8.750259e-01
    1.217868e+00
    1.303447e+00
    1.562404e+00
    1.866447e+00
    1.581883e+00
    1.839880e+00
    1.558924e+00
    1.443766e+00
    1.227985e+00
    9.112205e-01
    7.254036e-01
    1.066035e+00
    1.336560e+00
    1.456041e+00
    1.498084e+00
    3.024575e+00
    3.320392e+00
    1.315538e+00
    9.206858e-01
    6.757671e-01
    6.663280e-01
    1.055306e+00
    5.821308e-01
    4.087930e-01
    7.541738e-01
    9.844884e-01
    1.487334e+00
    1.604391e+00
    7.142437e-01
    3.935834e-01
    1.116225e+00
    4.342430e-01
    2.353093e-01
    2.659139e-01
    4.001054e-01
    2.178031e-01
    1.699965e-01
    4.239370e-01
    2.301773e-01
    1.004043e-01
    4.862268e-01
    2.613707e-01
    7.980680e-02
    5.170534e-01
    2.439981e-01
    5.735405e-02
    5.438204e-01
    1.613027e-01
    9.981385e-02
    5.565290e-01
    2.647766e-01
    4.250879e-02
    6.009790e-01
    2.926146e-01
    8.223878e-02
    6.257374e-01
    2.061756e-01
    1.800405e-01
    6.638134e-01
    2.087452e-01
    9.458946e-02
    6.100364e-01
    2.132538e-01
    1.111230e-01
    5.918702e-01
    2.158481e-01
    1.216398e-01
    7.263462e-01
    1.935131e-01
    1.505230e-01
    7.602694e-01
    3.384930e-01
    1.913880e-01
    5.976375e-01
    2.233054e-01
    1.516130e-01
    7.115343e-01
    3.382247e-01
    2.098031e-01
    8.307095e-01
    1.909489e-01
    4.026376e-01
    8.693140e-01
    1.964085e-01
    4.267614e-01
    7.737030e-01
    2.251811e-01
    2.719639e-01
    8.013512e-01
    1.980277e-01
    4.798122e-01
    9.534435e-01
    2.108880e-01
    2.912821e-01
    9.805495e-01
    1.577668e-01
    3.368113e-01
    1.008530e+00
    1.834252e-01
    5.653538e-01
    7.573461e-01
    3.499041e-02
    3.343647e-01
    1.063892e+00
    3.198241e-01
    3.781537e-01
    1.120175e+00
    2.455431e-01
    6.423330e-01
    7.818208e-01
    2.322340e-01
    3.462676e-01
    1.059281e+00
    1.478882e+00
    4.223056e-01
    1.101921e+00
    2.322533e+00
    1.159128e+00
    4.720333e-01
    7.705462e-01
    6.486365e-01
    1.010417e+00
    1.161862e+00
    2.545725e-01
    1.431000e+00
    1.241224e+00
    1.300328e+00
    4.170624e-01
    4.279592e-01
    6.963249e-01
    4.023265e-01
    4.748697e-01
    8.317202e-01
    6.362413e-01
    3.924775e-01
    3.470365e-01
    5.314993e-01
    4.871708e-01
    4.491913e-01
    2.594343e-01
    4.707473e-01
    4.740140e-01
    3.016548e-01
    4.094825e-01
    3.327025e-01
    4.675436e-01
    4.760104e-01
    3.502924e-01
    5.543998e-01
    8.274915e-01
    4.179818e-01
    5.492397e-01
    9.307929e-01
    4.574420e-01
    5.043024e-01
    3.618124e-01
    7.959813e-01
    7.838715e-01
    4.769518e-01
    1.479126e+00
    3.274876e-01
    5.506561e-01
    1.697535e+00
    9.185377e-01
    1.444882e+00
    5.592459e-01
    8.350319e-02
    2.381367e-01
    3.764761e-01
    1.753664e+00
    1.366753e+00
    1.590402e+00
    1.560065e+00
    1.533611e+00
    1.232442e+00
    1.267965e+00
    1.214416e+00
    1.178881e+00
    1.149441e+00
    1.098960e+00
    1.076594e+00
    1.217604e+00
    1.175767e+00
    1.141177e+00
    9.859133e-01
    9.284030e-01
    8.898442e-01
    8.601926e-01
    8.309698e-01
    7.949999e-01
    8.648729e-01
    8.241485e-01
    7.856187e-01
    6.522402e-01
    6.467662e-01
    5.994025e-01
    5.555646e-01
    5.115168e-01
    4.744932e-01
    4.683794e-01
    5.679995e-01
    8.422804e-01
    1.312996e+00
    1.342314e+00
    1.743629e+00
    2.260778e+00
    2.706877e+00
    3.032704e+00
    3.126039e+00
    3.167071e+00
    3.740251e+00
    3.504765e+00
    3.282021e+00
    2.704718e+00
    2.414954e+00
    2.202427e+00
    2.022509e+00
    1.844817e+00
    1.646410e+00
    1.710681e+00
    1.477567e+00
    1.251062e+00
    9.521067e-01
    8.032094e-01
    5.878338e-01
    4.057260e-01
    3.090323e-01
    1.188177e+00
    5.642492e-01
    3.380586e-01
    4.582146e-01
    8.214192e-01
    1.054311e+00
    2.126385e-01
    1.990955e-01
    2.087132e-01
    2.349554e-01
    2.771832e-01
    1.765550e-01
    2.269020e-01
    2.585647e-01
    2.906632e-01
    3.227557e-01
    4.955075e-01
    5.379675e-01
    5.823228e-01
    6.228374e-01
    6.606501e-01
    5.168492e-01
    5.438154e-01
    5.821320e-01
    6.148061e-01
    6.484177e-01
    8.910065e-01
    9.314071e-01
    9.734024e-01
    1.031241e+00
    7.686892e-01
    8.589221e-01
    8.736939e-01
    9.013485e-01
    9.301563e-01
    4.515012e+00
    3.939548e+00
    2.111628e+00
    2.097147e-01
    2.154825e+00
    1.637860e+00
    1.158535e+00
    9.280103e-01
    6.991705e-01
    5.403904e-01
    3.233140e-01
    1.399321e-01
    2.146553e-01
    5.136410e-01
    7.695354e-01
    9.220976e-01
    1.153628e+00
    1.511502e+00
    1.773762e+00
    1.956812e+00
    2.528440e+00
    2.832715e+00
    3.127839e+00
    3.514569e+00
    3.376318e+00
    3.523475e+00
    3.246225e+00
    2.027529e+00
    2.841763e+00
    2.542567e+00
    2.351818e+00
    2.156500e+00
    2.002653e+00
    1.493762e+00
    1.432303e+00
    1.240793e+00
    1.077787e+00
    9.142514e-01
    9.196628e-01
    7.288062e-01
    5.399532e-01
    3.492061e-01
    1.689139e-01
    9.769870e-02
    1.291984e-01
    2.764484e-01
    4.325831e-01
    5.912956e-01
    9.066829e-01
    1.097140e+00
    1.285338e+00
    1.490692e+00
    1.284806e+00
    1.461936e+00
    1.602077e+00
    1.768233e+00
    1.963283e+00
    3.390672e+00
    1.742575e+00
    1.620442e+00
    5.169233e-01
    1.056920e+00
    1.485815e+00
    7.080215e-01
    7.825115e-01
    1.103505e+00
    1.341486e+00
    1.476038e+00
    1.535010e+00
    1.157555e+00
    1.061224e+00
    9.384724e-01
    9.878168e-01
    1.087667e+00
    1.019698e+00
    8.166572e-01
    6.233485e-01
    2.731491e-01
    2.801835e-01
    2.092699e-01
    1.660464e-01
    2.502866e-01
    4.372667e-01
    6.306503e-01
    8.199138e-01
    1.011790e+00
    1.011192e+00
    1.397126e+00
    1.224568e+00
    1.380185e+00
    1.866724e+00
    2.061103e+00
    2.266288e+00
    2.457202e+00
    2.626971e+00
    2.222647e+00
    2.343660e+00
    2.498333e+00
    4.158687e-01
    4.033062e-01
    2.385613e-01
    4.042438e-01
    4.176805e-01
    1.072746e+00
    9.364682e-01
    4.305611e+00
    2.930145e+00
    2.812021e+00
    2.586250e+00
    2.353980e+00
    2.134872e+00
    1.904420e+00
    1.566991e+00
    3.077407e-01
    4.470898e-01
    8.892592e-01
    1.098921e+00
    1.257166e+00
    1.320065e+00
    1.259058e+00
    5.147034e+00
    3.745573e+00
    3.180054e+00
    8.347053e-02
    2.622442e-01
    5.247008e-01
    4.341730e-01
    5.604799e-01
    8.775653e-01
    1.068087e+00
    1.269472e+00
    1.457661e+00
    1.647010e+00
    1.842999e+00
    2.043576e+00
    2.257754e+00
    2.488048e+00
    2.746089e+00
    2.690514e+00
    3.414706e+00
    3.678081e+00
    4.097147e+00
    5.876671e-01
    3.305464e-01
    3.332424e-01
    2.179965e+00
    5.219974e+00
    3.285654e-01
    2.731408e-01
    3.146447e+00
    3.503306e+00
    1.915463e+00
    5.262809e+00
    3.076772e-01
    6.492259e-01
    2.086225e+00
    2.445766e+00
    7.430547e-01
    5.113653e-01
    1.512720e+00
    2.143761e+00
    2.497426e-01
    1.098308e-01
    3.467706e+00
    2.658973e+00
    1.939189e+00
    1.308943e+00
    6.594743e-01
    4.569520e-01
    2.337867e+00
    5.707658e+00
    2.186117e+00
    1.490981e+00
    1.276511e+00
    1.963313e+00
    2.768796e-01
    5.135046e-01
    4.686880e-01
    3.102142e-01
    4.824693e+00
    4.911992e+00
    1.379869e+00
    1.828368e+00
    3.212189e+00
    1.775685e+00
    2.295018e+00
    3.597980e+00
    2.019476e+00
    2.155578e+00
    5.813512e+00
    1.535676e+00
    3.062375e-01
    2.449199e-01
    3.670397e-01
    4.090983e-01
    3.244529e+00
    3.402027e+00
    3.237897e-01
    1.968225e-01
    2.358106e-01
    2.626447e-01
    1.181167e+00
    1.254554e+00
    8.958775e-01
    7.659726e-01
    4.316281e-01
    5.231877e-01
    1.059810e+00
    1.469953e+00
    4.904370e-01
    7.691355e-01
    1.196581e+00
    1.713607e+00
    6.267761e-01
    1.012592e+00
    1.663580e+00
    1.947316e+00
    1.181804e+00
    1.202069e+00
    1.956887e+00
    2.299061e+00
    1.367463e+00
    1.384647e+00
    2.160804e+00
    2.535681e+00
    1.664008e+00
    1.588102e+00
    2.388708e+00
    2.777343e+00
    1.291237e+00
    2.067856e+00
    2.021077e+00
    2.999441e+00
    1.424662e+00
    2.307417e+00
    2.065246e+00
    3.205231e+00
    1.534752e+00
    2.535577e+00
    2.324772e+00
    3.000180e+00
    1.717556e+00
    2.766632e+00
    2.481543e+00
    3.254632e+00
    1.862339e+00
    3.009990e+00
    4.605239e+00
    2.499306e+00
    2.868142e+00
    2.871554e+00
    3.023062e+00
    3.029891e+00
    2.037159e+00
    2.604410e+00
    3.185869e+00
    3.188227e+00
    2.493630e+00
    3.970082e+00
    2.381312e+00
    3.914291e+00
    2.517092e+00
    3.674005e+00
    2.376619e+00
    3.191977e+00
    2.073069e+00
    2.574084e+00
    1.698730e+00
    1.919803e+00
    9.132317e-01
    9.791238e-01
    6.336281e-01
    6.610570e-01
    9.138530e-02
    1.009234e-01
    4.646883e-01
    4.958482e-01
    1.109255e-01
    1.230598e-01
    4.512274e-01
    4.640914e-01
    1.352726e-01
    1.500715e-01
    4.280337e-01
    5.078654e-01
    1.658644e-01
    1.855386e-01
    4.567672e-01
    5.742289e-01
    2.404665e-01
    3.149110e-01
    4.894658e-01
    6.367027e-01
    1.656209e-01
    3.486169e-01
    5.194467e-01
    6.912941e-01
    1.866977e-01
    3.930706e-01
    5.507607e-01
    7.414935e-01
    2.099965e-01
    4.339086e-01
    7.176878e-01
    7.191219e-01
    3.421704e-01
    3.600373e-01
    7.482831e-01
    7.492820e-01
    3.775579e-01
    3.971168e-01
    7.971782e-01
    7.875727e-01
    4.151935e-01
    4.376746e-01
    6.761186e-01
    9.294094e-01
    4.598100e-01
    4.771532e-01
    6.945645e-01
    9.717415e-01
    3.403178e-01
    5.158327e-01
    7.093691e-01
    1.010750e+00
    3.837494e-01
    6.997815e-01
    7.480303e-01
    1.050477e+00
    4.137912e-01
    7.469729e-01
    7.725046e-01
    1.092451e+00
    4.388242e-01
    7.874325e-01
    1.014024e+00
    1.013931e+00
    6.506811e-01
    8.281565e-01
    1.039048e+00
    1.039259e+00
    6.664954e-01
    6.859570e-01
    1.079279e+00
    1.075631e+00
    7.030110e-01
    7.217870e-01
    8.941863e-01
    1.281129e+00
    7.382763e-01
    7.573961e-01
    8.708286e-01
    1.320038e+00
    7.760965e-01
    8.007265e-01
    9.497951e-01
    1.365335e+00
    8.559188e-01
    1.074059e+00
    9.894205e-01
    1.404053e+00
    6.380382e-01
    1.098595e+00
    1.004086e+00
    1.446079e+00
    6.411133e-01
    1.140356e+00
    1.035063e+00
    1.493941e+00
    9.160274e-01
    1.168267e+00
    1.337676e+00
    1.338757e+00
    6.196820e-01
    7.455918e-01
    1.362952e+00
    1.362599e+00
    8.239296e-02
    8.080912e-02
    1.359342e+00
    1.089092e+00
    5.874443e-01
    5.739303e-01
    1.680415e+00
    1.335687e+00
    1.784990e+00
    1.816921e+00
    1.531065e+00
    2.327750e+00
    1.518376e+00
    1.542300e+00
    1.589755e+00
    2.065012e+00
    1.256687e+00
    1.274180e+00
    1.222264e+00
    1.781863e+00
    1.016054e+00
    1.054626e+00
    1.033638e+00
    1.503810e+00
    1.636867e+00
    1.285374e+00
    8.047726e-01
    8.460234e-01
    1.026439e+00
    1.224100e+00
    1.357844e+00
    1.263095e+00
    1.102829e+00
    1.409880e+00
    1.695513e+00
    1.243075e+00
    6.665196e-01
    9.270216e-01
    6.058654e-01
    7.120063e-01
    2.098410e-01
    4.015481e-01
    2.185752e+00
    2.784161e+00
    6.476910e-01
    1.218955e+00
    2.043334e+00
    2.010304e+00
    5.918163e-01
    2.259691e-01
    4.971973e-01
    9.802885e-01
    2.198918e+00
    2.454535e+00
    2.222762e+00
    2.976890e+00
    1.926706e+00
    2.788671e+00
    9.197587e-01
    1.588221e+00
    9.962841e-01
    1.802397e+00
    7.838064e-01
    1.402552e+00
    1.641094e+00
    1.700960e+00
    1.396056e+00
    1.494572e+00
    1.208804e+00
    1.591993e+00
    3.658142e-01
    4.015005e-01
    5.174884e-01
    5.463234e-01
    2.625864e-01
    2.051862e-01
    7.002013e-01
    7.197053e-01
    4.900615e-01
    5.546296e-01
    6.705030e-01
    6.941007e-01
    6.183699e-01
    6.195056e-01
    8.509348e-01
    9.302556e-01
    3.333805e-01
    5.331275e-01
    4.253913e-01
    5.536858e-01
    1.473907e+00
    2.025823e+00
    1.353065e+00
    1.834727e+00
    1.006949e+00
    1.087929e+00
    1.165703e+00
    1.246354e+00
    4.577151e-01
    4.293940e-01
    3.456883e-01
    2.428042e-01
    2.534695e-01
    8.418305e-02
    6.744508e-01
    6.985452e-01
    9.328822e-01
    8.544590e-01
    6.552266e-01
    1.209137e+00
    1.699236e+00
    1.703951e+00
    1.852496e+00
    1.858321e+00
    2.003365e+00
    1.942316e+00
    2.091625e+00
    1.742084e+00
    1.906237e+00
    1.535964e+00
    1.804685e+00
    1.815220e+00
    1.201718e+00
    9.510732e-01
    1.102373e+00
    8.271295e-01
    9.116254e-01
    7.040391e-01
    3.480717e-01
    3.478475e-01
    8.691315e-02
    2.363594e-01
    2.478483e-01
    2.031305e-01
    4.343865e-01
    2.464535e-01
    9.226778e-01
    5.470252e-01
    1.975087e+00
    2.251565e+00
    1.850107e+00
    1.398795e+00
    1.124460e+00
    1.053953e+00
    1.932565e+00
    1.503954e+00
    1.865062e+00
    1.166559e+00
    1.164196e+00
    1.374352e+00
    8.817694e-01
    9.987101e-01
    6.284744e-01
    8.116862e-01
    6.713614e-01
    8.416184e-01
    5.393601e-01
    6.061660e-01
    1.392076e-01
    2.740575e-01
    3.916282e-01
    3.102250e-01
    6.667510e-01
    4.773417e-01
    9.460805e-01
    6.842351e-01
    9.056302e-01
    1.076596e+00
    6.485174e-01
    7.343081e-01
    4.377660e-01
    9.720631e-01
    3.822298e-01
    4.665424e-01
    4.387454e-01
    5.391616e-01
    3.003614e-01
    9.910809e-02
    1.223040e+00
    1.675591e+00
    2.716223e+00
    3.390434e+00
    2.491010e+00
    3.135878e+00
    1.866487e+00
    2.874603e+00
    7.581419e-01
    8.640699e-01
    5.260335e-01
    6.315598e-01
    2.973114e-01
    4.045188e-01
    1.040014e-01
    1.837789e-01
    2.160261e-01
    1.142704e-01
    1.277174e+00
    1.445040e+00
    1.336304e+00
    1.621251e+00
    1.281049e+00
    1.659824e+00
    1.112960e+00
    1.533097e+00
    7.873257e-01
    1.239650e+00
    4.387144e-01
    3.212856e-01
    5.866930e-01
    3.759750e-01
    1.363533e+00
    1.619223e+00
    1.360417e+00
    1.142262e+00
    1.326643e+00
    1.108286e+00
    1.312046e+00
    1.032780e+00
    1.267211e+00
    1.295467e+00
    1.256977e+00
    1.471233e+00
    1.213784e+00
    1.425898e+00
    1.183663e+00
    1.384951e+00
    1.151651e+00
    1.348723e+00
    1.107654e+00
    1.296577e+00
    1.075144e+00
    1.261844e+00
    1.039961e+00
    8.641176e-01
    1.009578e+00
    8.523517e-01
    9.937652e-01
    8.065837e-01
    9.660017e-01
    1.116370e+00
    9.208302e-01
    1.072799e+00
    8.869008e-01
    1.030802e+00
    8.584591e-01
    9.918423e-01
    8.250554e-01
    9.519642e-01
    7.865981e-01
    9.089267e-01
    7.558451e-01
    6.405377e-01
    7.226277e-01
    6.197277e-01
    6.945055e-01
    5.711339e-01
    6.516353e-01
    6.826559e-01
    6.285946e-01
    7.180716e-01
    5.837859e-01
    6.660852e-01
    5.383480e-01
    6.074320e-01
    4.952307e-01
    5.414577e-01
    4.688662e-01
    4.804923e-01
    4.957077e-01
    4.666684e-01
    5.428942e-01
    5.816619e-01
    7.443209e-01
    8.378121e-01
    1.115715e+00
    1.239209e+00
    1.625604e+00
    1.223162e+00
    2.052504e+00
    2.223818e+00
    2.535212e+00
    2.882715e+00
    2.943085e+00
    3.444268e+00
    3.185105e+00
    3.836530e+00
    3.235864e+00
    3.948413e+00
    3.178478e+00
    3.927847e+00
    3.043439e+00
    2.371719e+00
    2.884475e+00
    2.285227e+00
    2.751677e+00
    2.044452e+00
    2.588254e+00
    3.145915e+00
    2.348638e+00
    2.894597e+00
    2.152075e+00
    2.653835e+00
    1.974651e+00
    2.425874e+00
    1.782054e+00
    2.194029e+00
    1.574499e+00
    1.953270e+00
    1.438641e+00
    1.117039e+00
    1.247425e+00
    9.832590e-01
    1.063219e+00
    7.779714e-01
    8.467143e-01
    1.010246e+00
    7.014663e-01
    8.978253e-01
    5.019585e-01
    6.524835e-01
    3.049738e-01
    3.933970e-01
    2.038243e-01
    2.076792e-01
    4.949458e-01
    1.037312e-01
    1.431198e-01
    3.151416e-01
    2.404329e-01
    2.312020e-01
    6.937605e-01
    1.115304e+00
    1.332033e+00
    9.564877e-01
    5.400310e-02
    4.034929e-02
    9.837818e-02
    1.926155e-02
    1.202786e-01
    4.526031e-02
    1.453201e-01
    7.193284e-02
    1.873342e-01
    1.270806e-01
    2.146788e-01
    1.928277e-01
    3.295771e-01
    2.242799e-01
    3.718148e-01
    2.611145e-01
    4.135273e-01
    2.931636e-01
    4.540487e-01
    3.254895e-01
    3.570987e-01
    2.372636e-01
    3.934744e-01
    2.680506e-01
    4.337571e-01
    3.051367e-01
    4.789254e-01
    3.857726e-01
    5.380789e-01
    3.456117e-01
    5.249448e-01
    6.758764e-01
    7.239693e-01
    5.446336e-01
    7.668371e-01
    5.834496e-01
    8.067570e-01
    6.165204e-01
    8.493252e-01
    4.623742e-01
    6.833084e-01
    4.923973e-01
    7.187492e-01
    5.228357e-01
    7.540593e-01
    5.464662e-01
    8.141307e-01
    6.052262e-01
    8.406731e-01
    8.151229e-01
    1.080368e+00
    8.457228e-01
    1.120515e+00
    8.747493e-01
    1.153208e+00
    9.023407e-01
    1.213578e+00
    7.624215e-01
    1.671487e+00
    2.031385e+00
    1.350898e+00
    1.419299e+00
    1.188971e+00
    1.100973e+00
    9.625713e-01
    8.705409e-01
    7.499212e-01
    6.515809e-01
    5.365481e-01
    4.540380e-01
    3.563721e-01
    3.032493e-01
    2.595831e-01
    2.537337e-01
    3.025559e-01
    3.770689e-01
    4.489397e-01
    5.835359e-01
    2.036853e+00
    1.492558e+00
    1.933314e+00
    1.436289e+00
    1.778331e+00
    1.316774e+00
    1.646765e+00
    1.199302e+00
    1.460189e+00
    1.594982e+00
    1.314239e+00
    1.693948e+00
    1.496656e+00
    1.260098e+00
    1.305586e+00
    1.096757e+00
    8.324854e-01
    1.111817e+00
    7.546522e-01
    5.408642e-01
    5.975214e-01
    4.274920e-01
    4.420416e-01
    3.245218e-01
    2.812138e-01
    2.472440e-01
    1.337579e-01
    1.823852e-01
    6.827320e-02
    9.253343e-02
    2.014408e-01
    1.542324e-01
    3.543034e-01
    3.354821e-01
    5.118257e-01
    5.240033e-01
    7.149813e-01
    5.739824e-01
    7.505473e-01
    6.959555e-01
    9.095890e-01
    8.171849e-01
    1.067683e+00
    9.399535e-01
    1.263763e+00
    1.108652e+00
    1.416775e+00
    1.292703e+00
    1.522612e+00
    1.747669e+00
    1.681991e+00
    1.929307e+00
    2.127473e+00
    1.777032e+00
    1.571372e+00
    2.080976e+00
    1.326032e+00
    1.515222e+00
    6.769503e-01
    1.178681e+00
    2.854021e-01
    2.105253e-01
    1.546950e+00
    7.558444e-01
    2.018592e+00
    1.284056e+00
    5.422291e-01
    5.720861e-01
    9.752179e-01
    1.073207e+00
    1.255691e+00
    1.479344e+00
    1.125581e+00
    1.490783e+00
    1.470747e+00
    1.452157e+00
    1.512674e+00
    1.526492e+00
    1.411928e+00
    1.496542e+00
    1.280455e+00
    1.385408e+00
    1.131678e+00
    1.232566e+00
    1.089147e+00
    8.480127e-01
    7.827439e-01
    9.390551e-01
    8.056163e-01
    7.814243e-01
    6.890075e-01
    6.195145e-01
    5.208228e-01
    4.693642e-01
    3.616814e-01
    4.072805e-01
    1.314460e-01
    2.103500e-01
    8.463348e-02
    8.576491e-02
    2.892103e-01
    1.450844e-01
    2.160006e-01
    3.339505e-01
    3.711515e-01
    4.388220e-01
    5.487486e-01
    6.170707e-01
    6.770347e-01
    7.686728e-01
    8.350658e-01
    9.216351e-01
    1.056761e+00
    9.939185e-01
    1.155796e+00
    1.066603e+00
    1.326718e+00
    1.491625e+00
    1.479043e+00
    1.683491e+00
    1.523653e+00
    1.312476e+00
    1.686845e+00
    1.459394e+00
    1.881944e+00
    1.844273e+00
    2.041225e+00
    2.098471e+00
    2.195492e+00
    1.869098e+00
    2.337067e+00
    2.712349e+00
    2.436366e+00
    2.861370e+00
    2.531183e+00
    2.547683e+00
    1.178960e+00
    1.000736e+00
    7.926396e-01
    1.049775e+00
    3.074746e+00
    3.077539e+00
    3.263490e+00
    2.345507e+00
    3.009265e+00
    2.168953e+00
    2.246003e+00
    2.744681e+00
    2.472210e+00
    1.820207e+00
    2.195913e+00
    1.640834e+00
    1.706593e+00
    1.493418e+00
    4.275140e-01
    3.149264e-01
    6.617125e-01
    5.479448e-01
    7.794462e-01
    6.039863e-01
    9.996495e-01
    7.637812e-01
    1.192368e+00
    9.138975e-01
    1.303086e+00
    1.004157e+00
    1.301601e+00
    1.034927e+00
    1.965882e-01
    3.296498e-01
    3.981824e-01
    5.516468e-01
    5.941193e-01
    4.945247e-01
    8.235087e-01
    6.984360e-01
    1.015168e+00
    8.649929e-01
    1.354734e+00
    1.088125e+00
    1.594754e+00
    1.286773e+00
    1.830167e+00
    1.473979e+00
    1.340519e+00
    1.759212e+00
    1.857280e+00
    1.742682e+00
    1.940383e+00
    1.495691e+00
    2.145431e+00
    1.661212e+00
    2.368474e+00
    1.847215e+00
    2.690124e+00
    2.188980e+00
    2.765744e+00
    3.295197e+00
    2.763880e+00
    2.889454e+00
    2.998857e+00
    3.126878e+00
    3.252520e+00
    3.413682e+00
    8.356699e-01
    5.383345e-01
    2.479442e-01
    3.807393e-01
    2.023453e-01
    2.531421e-01
    3.788587e+00
    3.247506e+00
    2.025463e+00
    1.705561e+00
    2.180314e+00
    1.696854e+00
    6.737589e-01
    6.176482e-01
    5.078676e-01
    5.535474e-01
    4.368358e-01
    4.013668e-01
    8.015363e-01
    7.364418e-01
    7.003865e-01
    6.166250e-01
    9.915423e-01
    8.970422e-01
    4.067862e-01
    2.609629e-01
    1.196686e+00
    1.038854e+00
    4.300300e-01
    2.334891e-01
    7.248619e-01
    5.803240e-01
    6.662691e-01
    6.478444e-01
    2.357171e-01
    4.016471e-01
    3.539318e-01
    2.971538e-01
    2.932230e-01
    3.227211e-01
    4.283997e-01
    2.771913e-01
    1.376863e+00
    1.155623e+00
    5.363239e-01
    4.577504e-01
    1.109133e+00
    1.420476e+00
    6.880223e-02
    5.989088e-02
    4.069526e-01
    6.444784e-01
    1.497669e+00
    1.380079e+00
    6.495246e-01
    8.497377e-01
    3.029247e-01
    5.383375e-01
    8.748131e-01
    1.130141e+00
    9.278830e-02
    1.768232e-01
    6.748952e-01
    8.792298e-01
    2.329779e-01
    4.260653e-01
    3.793168e-01
    4.018102e-01
    1.250279e-01
    2.871736e-01
    3.660794e-01
    3.726331e-01
    4.141935e-01
    3.849038e-01
    3.618677e-01
    6.398987e-01
    9.721203e-01
    1.479911e+00
    1.489604e+00
    1.534397e+00
    4.444196e-02
    3.091704e-02
    2.508529e+00
    2.351799e+00
    3.100738e+00
    1.948972e+00
    1.911135e-01
    1.985384e-01
    8.188729e-01
    7.184088e-01
    4.964730e-01
    5.049747e-01
    7.307146e-01
    7.562490e-01
    1.224054e+00
    1.269481e+00
    7.864835e-01
    9.092069e-01
    5.186968e-01
    5.027158e-01
    9.533879e-01
    1.150442e+00
    1.443586e+00
    1.812575e+00
    7.675331e-01
    9.895641e-01
    6.081285e-01
    7.453336e-01
    3.615818e-01
    2.587072e-01
    8.780812e-01
    7.964711e-01
    1.930056e+00
    2.431418e+00
    2.377241e+00
    2.411421e+00
    4.677977e-01
    3.790554e-01
    1.895509e+00
    1.847655e+00
    7.853457e-01
    7.569275e-01
    6.304495e-01
    6.060615e-01
    5.469825e-01
    4.822606e-01
    4.768615e-01
    4.036582e-01
    4.474589e-01
    3.936650e-01
    1.559266e+00
    1.489213e+00
    1.037509e+00
    1.109044e+00
    9.093309e-01
    9.245251e-01
    4.164814e-01
    4.880064e-01
    6.427794e-01
    1.766371e-01
    1.177447e+00
    7.888824e-01
    1.463779e+00
    9.773982e-01
    1.728501e+00
    1.243443e+00
    1.986784e+00
    1.457870e+00
    2.352952e+00
    1.970177e+00
    1.349713e+00
    9.575130e-01
    4.420969e-01
    1.634923e-01
    8.890337e-01
    1.146883e+00
    8.539824e-01
    1.185018e+00
    7.578067e-01
    1.119200e+00
    8.378513e-01
    1.025781e+00
    7.067549e-01
    8.920850e-01
    3.554974e-01
    2.081740e-01
    2.903294e-01
    1.978172e-01
    6.844552e-01
    8.644849e-01
    4.362201e-01
    4.727762e-01
    4.979494e-01
    5.989782e-01
    4.698485e-01
    4.964036e-01
    1.771815e+00
    2.413105e+00
    1.760244e+00
    2.523086e+00
    1.728910e+00
    1.667763e+00
    1.205271e+00
    1.288942e+00
    7.382402e-01
    8.209358e-01
    6.785914e-01
    5.096765e-01
    5.939584e-01
    6.292360e-01
    4.119619e-01
    3.816489e-01
    8.738528e-01
    9.524887e-01
    2.285071e+00
    2.197419e+00
    2.100955e+00
    2.008732e+00
    9.958804e-01
    1.036568e+00
    1.057128e+00
    1.065726e+00
    1.045585e+00
    1.041646e+00
    9.896270e-01
    9.496876e-01
    2.352371e-01
    3.697867e-01
    6.977784e-01
    7.779320e-01
    3.702581e-01
    2.779283e-01
    2.830012e+00
    1.793418e+00
    2.604243e+00
    1.674091e+00
    8.222235e-01
    5.756271e-01
    1.031551e+00
    6.531793e-01
    1.215400e+00
    7.434171e-01
    1.319634e+00
    7.747357e-01
    9.842509e-01
    1.416033e+00
    1.524011e+00
    1.575946e+00
    1.184807e+00
    1.756644e+00
    1.781137e+00
    1.937121e+00
    4.626043e-01
    5.268463e-01
    2.573208e+00
    2.552348e+00
    4.405771e-01
    4.514629e-01
    5.821915e-01
    4.816613e-01
    5.066627e-01
    5.169079e-01
    2.435257e-01
    2.520040e-01
    5.203268e-01
    4.653539e-01
    1.125617e+00
    1.571281e+00
    9.342591e-02
    1.755505e-02
    1.716489e+00
    2.396378e+00
    6.290870e-01
    6.131086e-01
    1.473942e+00
    1.321969e+00
    1.524739e+00
    1.657638e+00
    1.436695e+00
    9.293956e-01
    1.000401e-01
    2.231330e-01
    5.170251e-01
    6.358960e-01
    4.928152e-01
    5.965574e-01
    2.602980e-01
    4.771936e-01
    8.452823e-01
    8.642629e-01
    3.347130e+00
    1.947988e+00
    1.291798e+00
    1.249529e+00
    1.057648e+00
    1.043626e+00
    8.721251e-01
    1.420758e+00
    2.924259e-01
    9.356458e-02
    1.600527e+00
    1.706825e+00
    8.193535e-01
    5.701281e-01
    1.817085e+00
    1.256892e+00
    5.647952e-01
    6.382412e-01
    7.568988e-01
    5.552119e-01
    1.961271e+00
    1.925614e+00
    1.807990e+00
    1.309808e+00
    6.359722e-01
    5.306342e-01
    1.782990e+00
    1.804807e+00
    1.016671e+00
    1.034754e+00
    2.371907e-01
    2.503996e-01
    1.314777e-01
    5.909236e-02
    4.115513e-01
    4.147951e-01
    3.530287e-01
    2.863714e-01
    5.062901e-01
    5.064819e-01
    1.313234e-01
    7.584402e-02
    6.646620e-01
    1.010393e+00
    4.646477e-01
    5.405979e-01
    4.018039e-01
    1.152763e-01
    5.544164e-01
    6.384599e-01
    1.127501e+00
    1.133977e+00
    7.515208e-01
    7.505476e-01
    1.232602e+00
    1.738060e+00
    4.442906e-01
    7.889843e-01
    9.012226e-01
    9.138690e-01
    9.486222e-02
    9.082236e-02
    1.330925e-01
    3.406317e-01
    6.925166e-01
    6.311142e-01
    6.023054e-01
    7.640084e-01
    1.230041e+00
    1.489369e+00
    4.999285e-01
    4.393584e-01
    5.908007e-01
    7.417530e-01
    3.689965e-01
    5.300165e-01
    1.795347e+00
    1.665421e+00
    2.490302e-01
    2.471393e-01
    8.392231e-01
    1.330088e+00
    4.496377e-02
    1.641520e-01
    4.679502e-01
    4.965527e-01
    3.775036e-01
    4.046626e-01
    6.299440e-01
    7.499403e-01
    8.966826e-02
    1.716684e-01
    4.721240e-01
    4.950506e-01
    6.320579e-01
    1.056319e+00
    4.541464e-01
    5.824605e-01
    5.940119e-01
    7.699039e-01
    1.567979e+00
    1.260855e+00
    1.125841e+00
    1.548756e+00
    5.499625e-01
    8.999028e-01
    4.004024e-01
    4.643213e-01
    6.876008e-01
    9.251428e-01
    1.148514e+00
    1.357952e+00
    4.820393e-01
    5.220190e-01
    8.732813e-01
    8.376758e-01
    4.767274e-01
    3.854892e-01
    1.098155e+00
    7.914575e-01
    1.015995e-01
    2.027699e-01
    2.740887e-01
    1.020949e-01
    1.019648e+00
    1.294619e+00
    4.519926e-01
    7.555736e-01
    5.606506e-01
    5.538320e-01
    3.658689e-01
    4.374169e-01
    5.337635e-01
    4.853501e-01
    1.301035e+00
    8.856302e-01
    2.577328e-01
    4.527453e-01
    1.443171e+00
    7.820919e-01
    2.290374e-01
    8.318679e-02
    6.371937e-01
    3.695165e-01
    5.604658e-01
    5.588077e-01
    6.083691e-01
    6.196787e-01
    1.498951e+00
    9.733729e-01
    6.943479e-01
    8.659583e-01
    3.846844e-01
    3.555817e-01
    3.630700e-01
    3.536290e-01
    6.985787e-01
    1.263308e+00
    2.371124e+00
    1.510281e+00
    9.956906e-01
    7.973943e-01
    1.496043e+00
    1.210676e+00
    1.209160e+00
    8.213278e-01
    2.150557e+00
    1.413308e+00
    1.923311e+00
    1.279651e+00
    1.726083e+00
    1.380852e+00
    1.318912e+00
    7.920000e-01
    1.188435e-01
    1.240037e-01
    1.288795e+00
    1.276383e+00
    1.724723e+00
    1.879661e+00
    5.257273e-01
    5.527989e-01
    1.045904e+00
    1.254337e+00
    8.887495e-01
    8.606905e-01
    8.301785e-01
    1.113555e+00
    5.272068e-01
    1.002465e+00
    6.873003e-01
    7.731104e-01
    1.100142e+00
    1.449964e+00
    9.101632e-02
    2.454374e-01
    8.549809e-01
    3.916268e-01
    4.851500e-01
    5.044768e-01
    1.541976e-01
    1.782383e-01
    1.367992e+00
    1.124233e+00
    2.150327e-01
    1.260393e-01
    9.089770e-02
    4.649896e-01
    5.140821e-01
    6.141879e-01
    6.932040e-01
    4.739440e-01
    3.394693e-01
    3.648597e-01
    7.501748e-01
    1.089201e+00
    7.605161e-01
    1.000127e+00
    3.396905e-01
    3.052627e-01
    1.029642e+00
    1.576321e+00
    5.123962e-01
    8.023628e-01
    1.918254e+00
    1.374878e+00
    3.311558e-01
    4.909369e-01
    5.933437e-01
    5.959209e-01
    9.377282e-01
    1.143053e+00
    1.170338e+00
    7.762564e-01
    4.769916e-01
    1.197905e+00
    3.478845e-01
    1.062931e+00
    3.243697e-01
    3.109265e-01
    6.355239e-01
    5.999893e-01
    5.498646e-01
    3.703294e-01
    1.010009e+00
    7.014898e-01
    1.039875e-01
    1.028160e-01
    2.869529e-01
    2.845871e-01
    3.190156e-01
    2.181991e-01
    1.031364e-01
    5.441634e-02
    6.263721e-01
    9.580877e-01
    8.006912e-01
    6.465405e-01
    1.771693e+00
    9.640316e-01
    1.424872e+00
    1.959397e+00
    7.483463e-01
    5.782087e-01
    1.761722e+00
    1.101837e+00
    1.649241e+00
    1.170520e+00
    1.391957e+00
    1.348970e+00
    2.334141e-01
    8.170612e-02
    2.059179e-01
    7.966623e-02
    1.758526e-01
    1.592166e-01
    4.393420e-01
    4.444937e-01
    3.349078e-01
    4.109066e-01
    3.765620e-01
    3.292975e-01
    5.644277e-01
    6.543267e-01
    8.868588e-02
    5.025492e-02
    5.105679e-01
    4.391184e-01
    3.799702e-01
    1.643128e-01
    3.739660e-01
    3.597201e-01
    9.877833e-01
    9.735553e-01
    6.147375e-01
    5.652687e-01
    1.494893e+00
    9.914553e-01
    8.135628e-01
    6.426510e-01
    8.909834e-01
    6.610622e-01
    8.347344e-02
    8.585113e-02
    9.171136e-02
    1.003828e-01
    3.097982e-01
    5.083894e-01
    6.807934e-01
    4.782453e-01
    5.729383e-01
    4.035493e-01
    7.116268e-01
    7.875731e-01
    1.028961e+00
    8.054348e-01
    1.118382e+00
    8.214508e-01
    7.408640e-01
    4.350856e-01
    4.825673e-01
    6.961473e-01
    1.687187e+00
    9.805100e-01
    7.410123e-01
    7.922587e-01
    5.120947e-01
    6.404688e-01
    5.086849e-01
    5.544915e-01
    1.030008e+00
    1.396621e+00
    3.978809e-01
    3.560390e-01
    1.815115e+00
    6.909628e-01
    2.464208e-01
    9.387346e-02
    1.232223e+00
    1.604283e+00
    1.437909e-01
    2.587340e-01
    4.478614e-01
    4.808803e-01
    4.232904e-01
    5.294777e-01
    7.201816e-01
    2.452001e+00
    6.831219e-01
    6.026012e-01
    2.098136e-01
    1.658276e-01
    5.458345e-01
    5.177700e-01
    5.343776e-01
    6.382457e-01
    5.728847e-01
    5.434599e-01
    6.798927e-01
    7.470707e-01
    8.664892e-01
    8.169144e-01
    9.646474e-01
    1.287188e+00
    5.174102e-01
    6.304318e-01
    5.621268e-01
    5.131676e-01
    5.094342e-01
    8.389136e-01
    1.223389e+00
    8.313565e-01
    1.587543e+00
    1.474293e+00
    3.202962e-01
    3.536251e-01
    5.724118e-01
    5.137261e-01
    7.937716e-01
    9.448478e-01
    5.209296e-01
    7.099972e-01
    5.980645e-01
    5.524788e-01
    5.232175e-01
    1.054037e+00
    4.333401e-01
    3.132217e-01
    7.632180e-01
    5.807525e-01
    7.583655e-01
    7.960915e-01
    8.154632e-02
    1.166897e-01
    2.058336e-01
    1.656450e-01
    8.825338e-01
    1.168272e+00
    5.481199e-01
    6.208148e-01
    6.334294e-01
    6.147572e-01
    9.179357e-01
    1.144217e+00
    5.181479e-01
    5.265903e-01
    8.872058e-01
    8.456436e-01
    4.844411e-01
    4.865790e-01
    2.946838e-01
    4.282510e-01
    9.400896e-01
    3.756572e-01
    8.160336e-01
    6.778005e-01
    4.298573e-01
    3.435669e-01
    5.495341e-01
    7.602639e-01
    1.104048e+00
    1.363169e+00
    1.859402e+00
    1.869359e+00
    3.903432e-01
    4.802773e-01
    8.317013e-01
    9.843794e-01
    5.994158e-01
    6.152197e-01
    4.511440e-01
    5.596813e-01
    1.798985e-01
    1.074527e-01
    4.807245e-01
    5.404954e-01
    1.110086e+00
    1.723646e+00
    1.462738e+00
    2.182674e+00
    6.653215e-01
    6.879516e-01
    1.611185e+00
    1.297821e+00
    5.643330e-01
    6.830285e-01
    1.445287e+00
    2.184929e+00
    4.348620e-01
    6.287081e-01
    2.207458e+00
    1.160385e+00
    2.290679e+00
    3.669481e+00
    1.313299e+00
    2.104048e+00
    6.285146e-01
    6.645804e-01
    5.078108e-01
    5.765033e-01
    9.486637e-01
    7.866852e-01
    3.924421e-01
    5.562727e-01
    1.817970e+00
    6.707564e-01
    1.035106e+00
    1.641308e+00
    5.617291e-01
    8.335993e-01
    1.141203e+00
    8.863418e-01
    1.215815e+00
    9.895534e-01
    5.235455e-01
    7.102920e-01
    4.610590e-01
    4.736686e-01
    7.950261e-01
    8.073647e-01
    8.131234e-01
    8.286117e-01
    2.006671e+00
    2.020415e+00
    2.132804e+00
    2.169241e+00
    7.853258e-01
    9.086531e-01
    9.072277e-01
    1.087686e+00
    6.324362e-01
    5.782521e-01
    4.951990e-01
    5.448436e-01
    8.483745e-01
    9.576623e-01
    1.179081e+00
    1.491308e+00
    1.615825e+00
    1.863329e+00
    5.355397e-01
    6.048555e-01
    8.572462e-01
    9.094974e-01
    8.760497e-01
    1.034634e+00
    4.077689e-01
    3.550628e-01
    1.400427e+00
    1.816823e+00
    1.761589e+00
    2.312780e+00
    6.217538e-01
    7.662010e-01
    6.879399e-01
    8.528892e-01
    6.631936e-01
    6.122666e-01
    8.327706e-01
    1.043404e+00
    1.480469e+00
    1.928081e+00
    4.538300e-01
    5.115125e-01
    5.283344e-01
    6.494291e-01
    8.837002e-01
    1.121280e+00
    5.247415e-01
    4.567390e-01
    1.956405e+00
    1.220726e+00
    7.902051e-01
    9.108768e-01
    3.300792e-01
    5.420486e-01
    1.741718e+00
    1.477607e+00
    1.656033e+00
    1.291001e+00
    9.939200e-01
    1.351996e+00
    7.866356e-01
    9.961376e-01
    1.731757e+00
    2.172649e+00
    5.307575e-01
    6.318460e-01
    9.053811e-01
    1.063423e+00
    1.819517e+00
    1.925550e+00
    1.310716e+00
    1.667246e+00
    6.066654e-01
    7.405839e-01
    1.867458e+00
    2.456100e+00
    7.145574e-01
    8.845617e-01
    4.375226e-01
    4.804664e-01
    3.828777e-01
    4.776870e-01
    9.356050e-01
    1.391908e+00
    5.630793e-01
    5.695347e-01
    7.625521e-02
    7.423543e-02
    1.003952e+00
    9.818113e-01
    1.739156e+00
    1.454517e+00
    7.819189e-01
    1.246676e+00
    8.127443e-01
    9.818087e-01
    5.750865e-01
    6.662815e-01
    1.966917e+00
    2.448132e+00
    1.069256e+00
    1.234482e+00
    1.242921e+00
    1.206761e+00
    4.196373e-01
    3.982792e-01
    5.047925e-01
    3.799106e-01
    1.303072e+00
    1.529070e+00
    1.536550e+00
    1.344521e+00
    1.310611e+00
    2.148292e+00
    4.760949e-01
    5.191572e-01
    1.374348e+00
    1.927747e+00
    6.026828e-01
    7.726150e-01
    5.892466e-01
    8.161848e-01
    8.772601e-01
    1.052405e+00
    7.371175e-01
    1.057895e+00
    5.322881e-01
    6.134499e-01
    4.391961e-01
    5.289094e-01
    9.019571e-01
    9.231571e-01
    8.904854e-01
    1.260443e+00
    1.689970e-01
    1.274079e-01
    4.651581e-01
    4.198323e-01
    5.328770e-01
    5.513193e-01
    1.020473e+00
    1.458411e+00
    7.352109e-01
    9.905913e-01
    6.578645e-01
    9.182503e-01
    4.604970e-01
    5.914278e-01
    1.628144e+00
    1.881369e+00
    2.047086e-01
    1.396021e-01
    7.561503e-02
    2.078565e-01
    4.839806e-01
    4.894054e-01
    4.719705e-01
    5.781527e-01
    1.453784e+00
    2.275088e+00
    4.317975e-01
    4.267800e-01
    1.245699e+00
    1.749851e+00
    5.845651e-01
    7.375965e-01
    6.133127e-01
    8.360314e-01
    5.449091e-01
    8.594075e-01
    4.700419e-01
    7.234907e-01
    1.546763e-01
    1.105185e-01
    6.409024e-02
    1.659341e-01
    5.093428e-01
    4.184282e-01
    4.397652e-01
    6.354485e-01
    5.425857e-01
    7.213718e-01
    6.762399e-01
    1.076624e+00
    1.318385e+00
    1.788569e+00
    5.230795e-01
    5.167232e-01
    4.350806e-01
    4.994766e-01
    9.613274e-01
    9.851809e-01
    9.187437e-01
    1.035294e+00
    2.223159e+00
    1.239445e+00
    3.665738e-01
    2.061969e-01
    3.114208e-01
    4.135159e-01
    7.283832e-02
    5.611729e-02
    5.415297e-01
    4.909831e-01
    6.242111e-01
    3.852437e-01
    6.125134e-01
    8.994027e-01
    1.023911e+00
    1.048830e+00
    9.394931e-01
    1.331632e+00
    7.296181e-01
    9.626194e-01
    7.797192e-01
    1.066502e+00
    4.900645e-01
    6.181660e-01
    1.828854e+00
    2.166016e+00
    1.022104e+00
    7.523693e-01
    1.606591e-01
    1.148036e-01
    3.323903e-01
    3.305405e-01
    5.579688e-01
    7.263418e-01
    5.960838e-01
    8.096029e-01
    3.099956e+00
    2.682369e+00
    1.647272e+00
    2.370693e+00
    5.448581e-01
    7.250872e-01
    1.073789e+00
    1.645508e+00
    6.528779e-01
    8.547077e-01
    5.787158e-01
    6.216878e-01
    1.328191e+00
    1.290758e+00
    6.675688e-01
    6.587725e-01
    6.466179e-01
    6.038208e-01
    5.323569e-01
    5.659890e-01
    8.569210e-01
    1.062335e+00
    6.207690e-01
    5.696952e-01
    6.289687e-01
    4.739538e-01
    1.152102e+00
    7.417592e-01
    3.385090e-01
    3.416421e-01
    5.883693e-01
    6.135289e-01
    6.032394e-01
    6.094450e-01
    7.714685e-01
    6.713072e-01
    7.722788e-01
    7.554194e-01
    7.089408e-01
    5.931551e-01
    6.067369e-01
    5.650849e-01
    1.081730e+00
    6.795504e-01
    4.090236e-01
    3.492692e-01
    1.300563e+00
    1.346500e+00
    4.369730e-01
    4.318121e-01
    6.224360e-01
    6.582586e-01
    3.286794e-01
    3.528944e-01
    9.898143e-01
    6.540990e-01
    6.030804e-01
    5.727369e-01
    4.172980e-01
    6.579799e-01
    1.584869e-01
    5.313564e-01
    4.827438e-01
    4.543284e-01
    1.138451e+00
    9.368712e-01
    7.247364e-01
    1.097129e+00
    9.011256e-01
    6.279272e-01
    6.050126e-01
    5.951517e-01
    6.211225e-01
    6.864629e-01
    3.694106e-01
    4.904501e-01
    4.169732e-01
    4.744273e-01
    3.115664e-01
    6.037802e-01
    3.973191e-01
    2.788687e-01
    1.175016e+00
    1.558139e+00
    2.139126e-01
    2.386361e-01
    9.236529e-01
    1.203032e+00
    6.738805e-01
    9.538442e-01
    3.705611e-01
    6.414591e-01
    5.431209e-01
    1.197182e+00
    1.845141e+00
    2.391687e+00
    1.700749e+00
    1.326842e+00
    6.423469e-01
    6.046263e-01
    7.757799e-01
    8.806294e-01
    7.458104e-01
    7.882441e-01
    1.338033e+00
    6.617877e-01
    6.149738e-01
    5.533200e-01
    1.614332e+00
    1.744738e+00
    9.338173e-01
    1.259750e+00
    2.236098e+00
    9.790021e-01
    4.581911e-01
    4.960646e-01
    3.466570e-01
    1.471364e-01
    2.578304e-01
    2.186960e-01
    8.274208e-01
    8.557440e-01
    5.935183e-01
    5.240431e-01
    5.488086e-01
    3.620723e-01
    4.637009e-01
    4.813699e-01
    4.923298e-01
    5.651794e-01
    1.095424e+00
    1.027087e+00
    2.025881e-01
    1.845066e-01
    1.033351e+00
    1.009009e+00
    1.930240e+00
    1.269712e+00
    9.981959e-01
    1.260837e+00
    6.687438e-01
    3.408969e-01
    6.618584e-01
    5.087340e-01
    3.998486e-01
    3.567606e-01
    1.893975e-01
    9.054800e-02
    5.952757e-01
    7.780681e-01
    4.532943e-01
    4.820705e-01
    1.602814e+00
    8.594148e-01
    5.247297e-01
    5.751668e-01
    1.910931e-01
    1.128023e-01
    6.673414e-01
    8.668907e-01
    2.378092e-01
    1.624591e-01
    4.987858e-01
    3.641968e-01
    1.591165e-01
    8.513404e-02
    4.579644e-01
    9.032710e-01
    6.101011e-01
    6.743875e-01
    5.115848e-01
    5.213978e-01
    6.430715e-01
    5.241715e-01
    9.056152e-01
    9.125280e-01
    7.573078e-01
    8.681021e-01
    8.364487e-01
    6.556726e-01
    1.550465e+00
    1.216507e+00
    1.067235e+00
    2.004227e+00
    3.837492e-01
    3.405868e-01
    5.291100e-01
    7.832915e-01
    5.562490e-01
    3.788498e-01
    4.720720e-01
    4.613496e-01
    1.626336e-01
    1.282837e-01
    4.301625e-01
    1.169386e+00
    5.775958e-01
    8.149473e-01
    7.130117e-01
    6.310553e-01
    4.695208e-01
    3.960199e-01
    1.958530e-01
    9.379420e-02
    4.594417e-01
    7.116759e-01
    1.014495e+00
    1.977593e+00
    4.933727e-01
    5.019593e-01
    1.575334e-01
    1.416206e-01
    3.847959e-01
    1.024405e+00
    4.715435e-01
    5.110807e-01
    4.635090e-01
    4.518442e-01
    4.841246e-01
    4.472311e-01
    7.687232e-01
    3.835389e-01
    4.063961e-01
    5.223082e-01
    5.834572e-01
    8.022323e-01
    5.107944e-01
    4.867902e-01
    1.188420e+00
    5.939089e-01
    6.463978e-01
    6.689632e-01
    6.770876e-01
    5.910144e-01
    5.132305e-01
    4.591165e-01
    5.011001e-01
    4.876670e-01
    7.809149e-01
    5.921657e-01
    4.934706e-01
    4.681788e-01
    3.550284e-01
    4.168980e-01
    3.921095e-01
    4.848099e-01
    7.253504e-01
    5.806460e-01
    4.848134e-01
    5.016416e-01
    8.095222e-01
    8.116443e-01
    8.887410e-01
    8.055378e-01
    8.679574e-01
    4.352693e-01
    4.170430e-01
    4.191335e-01
    9.182502e-01
    1.503519e+00
    3.575956e+00
    1.978038e+00
    8.760123e-01
    7.805871e-01
    7.107356e-01
    7.235064e-01
    1.169931e+00
    1.609223e+00
    4.834449e-01
    4.291340e-01
    1.540498e+00
    8.707462e-01
    6.700766e-01
    4.642771e-01
    5.215759e-01
    6.651516e-01
    8.436638e-01
    6.814240e-01
    6.430919e-01
    8.624157e-01
    5.347040e-01
    4.772905e-01
    4.775976e-01
    3.801586e-01
    9.443619e-01
    7.452934e-01
    8.251543e-01
    1.086877e+00
    8.467274e-01
    5.650871e-01
    6.805102e-01
    7.868028e-01
    4.181267e-01
    5.140744e-01
    1.821498e+00
    1.575877e+00
    1.161344e+00
    1.751542e+00
    4.591548e-01
    3.696320e-01
    1.289604e+00
    8.441789e-01
    6.089907e-01
    4.584686e-01
    5.075130e-01
    6.928297e-01
    1.142082e+00
    1.255381e+00
    5.097930e-01
    4.295853e-01
    4.438733e-01
    3.732386e-01
    2.217502e+00
    1.797122e+00
    3.646750e-01
    2.722380e-01
    2.175905e-01
    3.164811e-01
    9.195410e-01
    6.412892e-01
    8.797581e-02
    8.663237e-02
    6.236982e-01
    3.400398e-01
    6.402606e-01
    6.264206e-01
    1.252054e+00
    1.327832e+00
    7.470885e-01
    1.070084e+00
    7.803403e-01
    5.435303e-01
    7.226799e-01
    9.611524e-01
    4.198874e-01
    5.612506e-01
    1.938058e+00
    1.517379e+00
    9.915591e-01
    6.398550e-01
    1.538520e-01
    6.163693e-02
    5.618598e-01
    5.507858e-01
    9.790525e-01
    6.798549e-01
    1.017928e+00
    9.709857e-01
    1.287001e+00
    9.183492e-01
    1.945316e+00
    1.139738e+00
    4.879747e-01
    9.516132e-01
    3.459567e-01
    5.196075e-01
    7.387710e-01
    4.941491e-01
    5.169601e-01
    5.069187e-01
    1.167600e+00
    9.143040e-01
    4.685640e-01
    4.474416e-01
    4.304366e-01
    3.563252e-01
    5.843646e-01
    5.853350e-01
    7.044069e-01
    8.006983e-01
    4.952288e-01
    4.005286e-01
    4.741331e-01
    5.000429e-01
    6.845824e-01
    7.094924e-01
    3.813989e-01
    2.699438e-01
    6.370568e-01
    6.127309e-01
    3.189283e-01
    3.863381e-01
    4.820645e-01
    3.596325e-01
    9.594535e-01
    8.316392e-01
    5.256960e-01
    5.895387e-01
    9.840732e-01
    9.958012e-01
    4.625878e-01
    6.656942e-01
    5.939204e-01
    4.498834e-01
    1.103357e+00
    7.280594e-01
    1.367531e+00
    1.776516e+00
    2.486413e+00
    1.854107e+00
    7.894138e-01
    7.301483e-01
    6.854433e-01
    7.614921e-01
    1.896133e+00
    1.523463e+00
    1.353465e+00
    1.504971e+00
    2.589313e-01
    2.021416e-01
    3.400760e-02
    3.306661e-01
    4.806958e-01
    5.038399e-01
    4.289722e-01
    8.431046e-01
    8.524949e-01
    8.122376e-01
    5.510652e-01
    6.577365e-01
    6.160164e-01
    6.769485e-01
    9.784442e-01
    1.068818e+00
    9.889523e-01
    6.578187e-01
    4.816078e-01
    8.234670e-01
    7.460789e-01
    8.354844e-01
    2.734227e-01
    2.780319e-01
    6.745697e-01
    8.875982e-01
    8.590793e-01
    7.970774e-01
    5.633972e-01
    5.037795e-01
    9.825383e-01
    6.801743e-01
    7.123289e-01
    8.647136e-01
    1.008126e+00
    6.038227e-01
    3.546605e-01
    4.859259e-01
    7.679321e-01
    7.692096e-01
    8.785747e-01
    1.072346e+00
    4.091088e-01
    4.627417e-01
    6.069279e-01
    6.619804e-01
    6.003433e-01
    6.379241e-01
    6.046825e-01
    6.126637e-01
    6.142938e-01
    5.876268e-01
    1.015389e-01
    2.676172e-01
    1.836101e-01
    8.210955e-02
    4.642669e-01
    7.757652e-01
    5.090525e-01
    4.830274e-01
    5.115008e-01
    4.421484e-01
    4.552957e-01
    5.099005e-01
    2.927993e-01
    1.796540e-01
    3.858331e-01
    1.011790e-01
    5.209121e-01
    4.349892e-01
    4.274322e-01
    5.859590e-01
    3.062238e-01
    1.626871e-01
    8.465030e-01
    8.440970e-01
    4.578966e-01
    5.201950e-02
    3.695085e-01
    3.347411e-02
    4.782009e-01
    4.716833e-01
    4.200302e-01
    3.753023e-01
    4.675392e-01
    6.043699e-01
    7.233426e-01
    5.654224e-01
    6.314999e-01
    7.485380e-01
    8.280694e-01
    5.602261e-01
    4.723535e-01
    5.690006e-01
    2.079105e-01
    1.120952e-01
    1.069358e+00
    1.317871e+00
    2.437631e-01
    1.728971e-01
    6.691153e-01
    4.260009e-01
    2.968249e-01
    4.899692e-02
    4.926079e-01
    5.300223e-01
    3.092952e-01
    1.370004e-01
    6.015281e-01
    6.355635e-01
    5.999773e-01
    5.212687e-01
    3.573768e-01
    1.194018e-01
    3.517758e-01
    8.826658e-02
    6.268500e-01
    5.922556e-01
    5.695960e-01
    6.253010e-01
    3.204221e-01
    6.551539e-01
    1.259346e+00
    1.063780e+00
    6.615353e-01
    8.162521e-01
    3.201011e-01
    2.918111e-01
    3.315077e-01
    2.416857e-01
    4.075594e-01
    3.281661e-01
    2.884018e-01
    1.578463e-01
    4.496982e-01
    5.054220e-01
    2.628407e-01
    2.452740e-01
    3.071690e-01
    2.630741e-01
    4.130292e-01
    5.298461e-01
    9.436624e-01
    1.025908e+00
    6.092079e-01
    6.178706e-01
    4.889741e-01
    4.781471e-01
    4.366401e-01
    3.923811e-01
    5.314073e-01
    5.520389e-01
    4.245007e-01
    3.846745e-01
    4.850102e-01
    4.558503e-01
    3.806849e-01
    5.861834e-01
    6.730872e-01
    3.404710e-01
    2.885182e-01
    6.979234e-01
    6.490918e-01
    5.076290e-01
    8.374301e-01
    8.118032e-01
    4.027518e-01
    5.261106e-01
    5.294348e-01
    8.597665e-01
    5.901710e-01
    6.782250e-01
    6.693659e-01
    6.438608e-01
    6.596572e-01
    8.993629e-01
    4.973543e-01
    5.469596e-01
    6.531999e-01
    9.395462e-01
    4.031320e-01
    4.907306e-01
    4.063572e-01
    4.772201e-01
    9.261332e-01
    1.067099e+00
    3.816328e-01
    5.874324e-01
    4.631038e-01
    4.863869e-01
    2.881180e-01
    3.862688e-01
    8.024792e-01
    9.002931e-01
    4.774173e-01
    8.836673e-01
    3.335435e-01
    5.908315e-01
    6.061115e-01
    5.369005e-01
    3.060598e-01
    3.925554e-01
    1.596547e+00
    1.663689e+00
    7.567138e-01
    1.077974e+00
    4.799362e-01
    4.780633e-01
    5.054584e-01
    8.132094e-01
    3.283873e-01
    4.544026e-01
    3.619578e-01
    5.024040e-01
    5.172585e-01
    6.559022e-01
    3.196220e-01
    3.798122e-01
    9.027344e-01
    1.560341e+00
    3.672094e-02
    2.010625e-01
    4.047694e-01
    3.298661e-01
    1.151331e-01
    7.321130e-02
    4.897758e-01
    6.342761e-01
    1.806810e-01
    3.837605e-01
    6.115712e-01
    8.318232e-01
    5.481948e-01
    8.026583e-01
    3.726551e-01
    5.697836e-01
    5.834599e-01
    6.555262e-01
    3.194483e-01
    4.112620e-01
    6.041794e-01
    7.495024e-01
    1.645353e-01
    5.459927e-02
    1.379838e-01
    3.404378e-01
    3.418571e-01
    7.376775e-01
    6.407731e-01
    8.650703e-01
    8.084276e-01
    1.227110e+00
    2.535476e+00
    1.573537e+00
    1.649159e+00
    1.716283e+00
    5.842927e-01
    7.749732e-01
    1.552707e+00
    1.315963e+00
    9.112436e-01
    6.129507e-01
    4.078177e-01
    5.279439e-01
    7.260392e-01
    6.246961e-01
    3.390180e-01
    4.499854e-01
    2.393301e-01
    3.347447e-01
    4.362637e-01
    3.575441e-01
    3.119800e+00
    2.400605e+00
    4.533088e-01
    4.271178e-01
    3.767360e-01
    3.658893e-01
    6.661594e-01
    6.706909e-01
    1.407715e+00
    9.408664e-01
    7.011186e-01
    5.275236e-01
    9.449100e-01
    8.371412e-01
    7.509910e-01
    1.000341e+00
    9.127264e-01
    1.389612e+00
    7.944239e-01
    8.020062e-01
    2.546512e+00
    2.142419e+00
    8.914786e-01
    8.849238e-01
    1.497362e+00
    8.576467e-01
    2.648643e+00
    3.819144e+00
    5.335779e-01
    2.892086e-01
    2.108318e-01
    2.350076e-01
    6.655900e-01
    6.631302e-01
    6.656269e-01
    7.245763e-01
    1.020687e+00
    3.553182e-01
    5.181504e-01
    7.480406e-01
    7.295488e-01
    5.284028e-01
    4.091219e-01
    6.215210e-01
    6.481560e-01
    6.278524e-01
    6.310019e-01
    6.190223e-01
    6.141919e-01
    6.119963e-01
    3.007137e-01
    2.007192e-01
    6.304716e-01
    5.967199e-01
    4.694468e-01
    6.546865e-01
    1.757565e-01
    2.487048e-01
    2.220811e-01
    3.497155e-01
    2.412781e-01
    3.432489e-01
    4.650413e-01
    4.818729e-01
    5.509990e-01
    6.424231e-01
    2.182639e-01
    1.846413e-01
    1.824141e-01
    4.293551e-01
    4.101454e-01
    3.215220e-01
    6.783965e-01
    6.862602e-01
    3.548939e-01
    2.242925e-01
    4.311439e-02
    1.809760e-01
    4.589421e-01
    4.785918e-01
    4.209570e-01
    4.652988e-01
    4.655761e-01
    6.176134e-01
    5.952929e-01
    6.069935e-01
    7.374485e-01
    6.133219e-01
    1.759443e-01
    1.859662e-01
    3.515064e-01
    2.616151e-01
    5.573907e-01
    5.536079e-01
    6.226045e-01
    4.372233e-01
    1.984231e-01
    2.150236e-01
    4.721513e-01
    2.021482e-01
    5.374630e-01
    6.310071e-01
    5.886995e-01
    6.222564e-01
    8.044606e-01
    8.531188e-01
    3.812321e-01
    4.244978e-01
    2.726771e-01
    4.319539e-01
    7.289075e-01
    3.961610e-01
    3.692710e-01
    5.197276e-01
    1.403971e+00
    1.063244e+00
    5.011176e-01
    5.002033e-01
    9.188588e-01
    7.093939e-01
    7.813172e-01
    5.572249e-01
    6.961178e-01
    8.414308e-01
    7.935064e-01
    5.028018e-01
    8.402237e-01
    8.666713e-01
    5.450421e-01
    4.457578e-01
    2.142277e-01
    9.752202e-02
    3.994260e-01
    7.414533e-01
    4.933817e-01
    4.861898e-01
    1.758353e+00
    1.212440e+00
    7.703490e-01
    8.483738e-01
    9.129850e-01
    6.235536e-01
    6.709206e-01
    5.103669e-01
    1.664622e+00
    1.973127e+00
    3.210182e-01
    3.012370e-01
    3.933403e-01
    3.713950e-01
    2.253006e-01
    3.577738e-01
    6.289412e-01
    6.460031e-01
    8.660537e-01
    7.546900e-01
    1.536721e+00
    1.352847e+00
    2.518666e-01
    3.161693e-01
    6.146231e-01
    4.836769e-01
    5.719135e-01
    2.603160e-01
    3.456027e-01
    6.083416e-01
    7.967429e-01
    5.841714e-01
    3.845666e-01
    2.750691e-01
    5.805126e-01
    6.719203e-01
    6.329177e-01
    6.158077e-01
    4.175406e-01
    2.925056e-01
    4.784009e-01
    5.824559e-01
    7.729458e-01
    6.484947e-01
    4.030550e-01
    3.249714e-01
    3.280773e-01
    2.163071e-01
    4.958908e-01
    5.171185e-01
    6.235080e-01
    4.466174e-01
    9.197407e-01
    8.746544e-01
    4.094635e-01
    7.652127e-01
    2.792726e-01
    1.099405e-01
    5.300081e-01
    4.031437e-01
    4.095426e-01
    3.638658e-01
    4.691336e-01
    2.231661e-01
    9.261762e-01
    3.322929e-01
    4.720699e-01
    4.653208e-01
    8.666648e-01
    5.917888e-01
    5.056649e-01
    7.269114e-01
    1.225944e+00
    7.388890e-01
    1.406747e+00
    1.441045e+00
    3.634544e-01
    3.433651e-01
    6.217978e-01
    4.821681e-01
    4.869812e-01
    3.661377e-01
    6.767340e-01
    7.531095e-01
    3.424496e-01
    2.320661e-01
    4.735133e-01
    4.492718e-01
    5.168490e-01
    4.509189e-01
    1.085695e+00
    1.018612e+00
    2.096185e-01
    4.282776e-01
    3.547823e-01
    4.159741e-01
    7.582574e-01
    8.736221e-01
    4.547806e-01
    4.891555e-01
    3.641897e-01
    9.135967e-01
    8.492908e-01
    8.728244e-01
    2.817385e-01
    3.489054e-01
    5.482106e-01
    5.480967e-01
    4.708744e-01
    5.002068e-01
    5.586706e-01
    5.122689e-01
    4.124716e-01
    3.675089e-01
    4.422190e-01
    4.727102e-01
    8.050779e-01
    8.891489e-01
    6.821359e-01
    5.071467e-01
    5.090791e-01
    5.482954e-01
    4.474281e-01
    4.757224e-01
    4.243061e-01
    4.565961e-01
    1.221501e+00
    1.057078e+00
    1.031276e+00
    1.746246e+00
    1.286147e+00
    1.734463e+00
    4.830675e-01
    7.139586e-01
    5.915783e-01
    7.054821e-01
    7.630547e-01
    9.114742e-01
    1.398309e+00
    1.322783e+00
    6.396877e-01
    1.024577e+00
    5.419722e-01
    5.597122e-01
    4.431686e-01
    3.860534e-01
    7.334490e-01
    1.287469e+00
    9.831827e-01
    5.809344e-01
    5.224556e-01
    7.670091e-01
    3.534113e-01
    5.295327e-01
    3.879863e-01
    3.298295e-01
    1.872748e-01
    1.274126e-01
    4.648780e-01
    4.388466e-01
    4.676126e-01
    5.328080e-01
    9.210788e-01
    4.739004e-01
    1.101723e-01
    1.360593e-01
    5.765782e-01
    4.188740e-01
    6.945668e-01
    1.630094e+00
    3.253709e+00
    2.514272e+00
    8.977405e-01
    7.304878e-01
    4.635805e-01
    4.435488e-01
    1.110032e+00
    9.136639e-01
    3.515568e-01
    6.412207e-01
    8.452490e-01
    6.837214e-01
    9.203384e-01
    5.175933e-01
    4.636245e-01
    3.336879e-01
    3.638456e-01
    3.372279e-01
    1.522451e+00
    1.451884e+00
    6.001725e-01
    6.165144e-01
    1.797895e+00
    1.463537e+00
    5.466382e-01
    9.818525e-01
    8.270409e-01
    7.103127e-01
    3.714063e-01
    5.238054e-01
    1.533670e+00
    1.592376e+00
    1.503544e+00
    1.629626e+00
    1.203302e+00
    5.946384e-01
    1.401424e-01
    1.051892e-01
    7.450291e-01
    5.449759e-01
    5.525698e-02
    1.173868e-01
    4.338723e-01
    4.695539e-01
    3.057284e-01
    1.204982e-01
    1.087918e-01
    2.469593e-01
    5.619161e-01
    5.055518e-01
    5.076522e-01
    5.249336e-01
    5.836014e-01
    5.144832e-01
    7.703532e-02
    1.514888e-01
    5.943139e-01
    5.084400e-01
    9.179690e-01
    8.223170e-01
    8.543330e-01
    4.797000e-01
    6.125095e-01
    7.136703e-01
    5.079549e-01
    5.076029e-01
    4.863435e-01
    7.424460e-01
    1.406893e+00
    1.373151e+00
    6.395637e-01
    6.717549e-01
    4.974178e-01
    5.776519e-01
    6.710737e-01
    6.073172e-01
    8.073502e-01
    7.800758e-01
    5.370607e-01
    7.573861e-01
    3.439907e-01
    5.154145e-01
    7.232041e-01
    4.839620e-01
    7.328362e-01
    6.869158e-01
    3.211595e-01
    2.554471e-01
    9.666407e-01
    1.196827e+00
    1.893360e+00
    1.851504e+00
    4.970370e-01
    6.333625e-01
    4.744496e-01
    4.703958e-01
    1.002803e+00
    1.551467e+00
    1.543274e+00
    1.648097e+00
    4.844869e-01
    5.103759e-01
    8.517898e-01
    8.586841e-01
    4.629202e-01
    5.405093e-01
    7.081839e-01
    6.388425e-01
    2.550035e+00
    1.674547e+00
    5.551112e-01
    5.828608e-01
    4.530763e-01
    5.213277e-01
    3.438759e-01
    4.433470e-01
    7.476757e-01
    1.181519e+00
    1.164020e+00
    9.805245e-01
    1.653503e+00
    1.363627e+00
    8.589055e-01
    6.086423e-01
    6.449751e-01
    6.677092e-01
    1.527798e+00
    1.283264e+00
    3.808429e-01
    3.349485e-01
    7.110793e-01
    7.169169e-01
    9.251691e-02
    1.003191e-01
    3.778452e-01
    4.353354e-01
    6.123692e-01
    7.335380e-01
    7.138233e-01
    4.102663e-01
    1.603700e+00
    1.210360e+00
    7.796862e-01
    9.666583e-01
    4.489964e-01
    9.101319e-01
    7.890936e-01
    3.974228e-01
    3.248474e-01
    1.850405e-01
    1.771931e-01
    3.076173e-01
    3.313379e-01
    4.062480e-01
    8.870192e-01
    7.527468e-01
    1.451936e+00
    1.456831e+00
    6.670338e-01
    5.677647e-01
    5.088366e-01
    4.245324e-01
    1.569283e+00
    1.208675e+00
    8.739487e-01
    1.190833e+00
    4.668233e-01
    6.066442e-01
    6.203331e-01
    5.106597e-01
    3.379036e-01
    2.242548e-01
    8.996527e-01
    8.093044e-01
    6.307027e-01
    5.669076e-01
    9.170626e-01
    1.537201e+00
    2.537647e+00
    3.322943e+00
    1.253633e+00
    1.094020e+00
    4.692081e-01
    6.207979e-01
    1.054661e+00
    9.896691e-01
    1.332759e+00
    1.504993e+00
    9.007072e-01
    5.301991e-01
    5.371156e-01
    3.159895e-01
    3.921833e-01
    5.996486e-01
    6.273811e-01
    4.824598e-01
    6.544525e-01
    6.431753e-01
    4.980777e-01
    7.376682e-01
    1.207351e+00
    1.244071e+00
    6.358378e-01
    6.505221e-01
    1.518956e+00
    1.338467e+00
    1.184178e+00
    1.107336e+00
    5.064675e-01
    5.389692e-01
    4.676704e-01
    2.166358e-01
    6.004126e-01
    7.318795e-01
    8.364421e-01
    9.029557e-01
    2.762066e-01
    3.806858e-01
    6.825598e-01
    1.098270e+00
    6.066149e-01
    4.792792e-01
    8.622097e-01
    5.631911e-01
    4.924855e-01
    6.010860e-01
    4.881109e-01
    4.386562e-01
    7.469894e-01
    8.108021e-01
    1.211661e+00
    8.929532e-01
    6.871432e-01
    7.375467e-01
    2.471255e-01
    2.081949e-01
    4.816833e-01
    5.662943e-01
    1.481921e+00
    1.065442e+00
    8.966767e-01
    8.651821e-01
    1.423774e-01
    2.895572e-01
    4.779556e-01
    4.430929e-01
    3.735313e-01
    6.625429e-01
    1.290068e+00
    7.418634e-01
    8.237653e-01
    8.691969e-01
    1.359898e+00
    9.398254e-01
    1.859713e-01
    1.321940e-01
    7.871194e-01
    7.282891e-01
    6.498885e-01
    5.076029e-01
    6.314878e-01
    6.676839e-01
    3.883919e-01
    3.865116e-01
    1.366824e+00
    1.384482e+00
    7.063705e-01
    6.527553e-01
    3.806196e-01
    3.453341e-01
    5.884540e-01
    5.520591e-01
    3.462441e-01
    3.892143e-01
    1.340483e+00
    1.102197e+00
    1.412763e+00
    1.237115e+00
    4.740182e-01
    5.252803e-01
    6.495947e-01
    7.797438e-01
    5.228623e-01
    6.716279e-01
    9.049366e-02
    9.625550e-02
    6.688207e-01
    9.175755e-01
    1.709986e-01
    3.654907e-01
    6.720538e-01
    8.774155e-01
    1.537661e+00
    1.114209e+00
    7.322534e-01
    5.208804e-01
    5.446308e-01
    2.744330e-01
    5.920906e-01
    5.775830e-01
    5.512965e-01
    5.839076e-01
    5.103636e-01
    6.288759e-01
    4.523409e-01
    4.405767e-01
    1.110090e+00
    1.574837e+00
    4.556971e-01
    5.182163e-01
    6.161230e-01
    6.888101e-01
    7.417498e-01
    8.654346e-01
    6.600608e-01
    6.051556e-01
    7.230547e-01
    8.236356e-01
    7.639369e-01
    9.199819e-01
    1.067657e+00
    8.064104e-01
    1.110507e+00
    9.955346e-01
    8.138902e-01
    7.116215e-01
    1.548370e+00
    1.299400e+00
    6.558954e-01
    7.882807e-01
    1.258537e+00
    1.001998e+00
    1.000413e+00
    5.801942e-01
    4.812899e-01
    3.760623e-01
    6.653267e-01
    8.468039e-01
    6.744632e-01
    6.082702e-01
    7.143927e-01
    7.298443e-01
    4.773864e-01
    4.812273e-01
    1.142948e+00
    1.344989e+00
    1.545272e+00
    1.530341e+00
    7.401329e-01
    4.891067e-01
    5.054224e-02
    1.369209e-01
    7.980332e-01
    5.175025e-01
    6.895162e-01
    7.125328e-01
    5.627653e-01
    5.599762e-01
    1.574178e+00
    1.418519e+00
    3.965666e-01
    9.684090e-01
    5.241346e-01
    7.240401e-01
    3.762729e-01
    4.095744e-01
    9.171982e-01
    9.086524e-01
    4.601605e-01
    4.267561e-01
    8.595330e-01
    7.209687e-01
    4.830012e-01
    4.749424e-01
    3.810448e-01
    5.220330e-01
    5.179094e-01
    4.277609e-01
    4.429324e-01
    4.564818e-01
    4.872304e-01
    4.370933e-01
    2.469664e-01
    1.286792e-01
    5.677083e-01
    6.553485e-01
    4.708193e-01
    5.132245e-01
    2.494252e-01
    2.371733e-01
    5.949013e-01
    7.233010e-01
    4.940609e-01
    5.288586e-01
    5.082160e-01
    7.717095e-01
    8.034599e-01
    8.436483e-01
    1.258558e+00
    6.714315e-01
    1.058692e-01
    2.378689e-01
    9.387651e-01
    4.772554e-01
    4.145240e-01
    4.884624e-01
    2.599977e-01
    3.597983e-01
    4.680140e-01
    5.657454e-01
    3.589062e-01
    4.190978e-01
    1.147625e-01
    6.731396e-02
    8.124851e-01
    6.978651e-01
    1.143905e+00
    1.058645e+00
    6.133193e-01
    4.566508e-01
    4.544109e-01
    5.133573e-01
    2.706550e-01
    3.548041e-01
    6.038105e-01
    4.896816e-01
    1.166947e+00
    1.087922e+00
    7.623883e-01
    5.180332e-01
    1.564709e+00
    1.342578e+00
    1.205130e+00
    1.574193e+00
    7.706044e-01
    7.504176e-01
    2.751308e-01
    7.450066e-01
    6.384044e-01
    5.426694e-01
    4.508396e-01
    3.544387e-01
    1.416481e+00
    1.333573e+00
    1.586176e+00
    1.068000e+00
    1.021055e+00
    9.955029e-01
    7.295237e-01
    6.377467e-01
    5.570670e-01
    4.608905e-01
    3.987560e-01
    6.479847e-01
    4.969384e-01
    4.622566e-01
    1.448065e+00
    9.994751e-01
    1.871002e-01
    5.607995e-02
    1.349732e+00
    1.334981e+00
    8.610189e-01
    7.337909e-01
    1.993510e+00
    1.605618e+00
    4.879567e-01
    7.193651e-01
    3.969254e-01
    2.945528e-01
    3.296032e-01
    2.026468e-01
    1.971147e+00
    1.499645e+00
    1.032923e+00
    8.640379e-01
    6.304258e-01
    8.927752e-01
    1.349609e+00
    1.398450e+00
    3.360074e-01
    3.074422e-01
    3.423579e-01
    3.900618e-01
    1.177762e+00
    1.034778e+00
    4.683099e-01
    6.721821e-01
    1.939608e-01
    1.492964e-01
    5.796643e-01
    6.083674e-01
    3.622360e-01
    4.974518e-01
    1.855158e-01
    7.664398e-02
    4.682563e-01
    6.567047e-01
    4.603457e-01
    7.001081e-01
    1.225074e+00
    9.270654e-01
    1.096437e+00
    1.092526e+00
    1.378639e+00
    1.461336e+00
    1.378279e+00
    1.418343e+00
    2.742060e-01
    1.504689e-01
    7.401782e-01
    7.387310e-01
    6.966885e-01
    5.862687e-01
    4.652978e-01
    4.478924e-01
    4.913161e-01
    5.129420e-01
    3.345189e-01
    1.690653e-01
    4.176114e-01
    7.943873e-01
    4.442648e-01
    8.053407e-01
    2.335472e-01
    1.425502e-01
    1.655728e+00
    9.726273e-01
    1.203430e+00
    1.541249e+00
    1.294100e+00
    1.192248e+00
    1.315292e-01
    1.384887e-01
    1.533530e+00
    1.276597e+00
    3.893163e-01
    3.638424e-01
    7.563254e-01
    7.507929e-01
    1.484680e+00
    1.579594e+00
    1.270550e+00
    1.472350e+00
    1.353806e+00
    1.461273e+00
    3.426706e-01
    4.080524e-01
    1.522230e+00
    1.419822e+00
    1.146095e+00
    3.772517e-01
    1.362661e-01
    3.223819e-01
    1.171035e+00
    1.983660e+00
    7.484820e-01
    8.116171e-01
    3.535127e-01
    3.425153e-01
    3.038539e-01
    1.084756e-01
    3.569039e-01
    4.980886e-02
    1.145491e+00
    1.207447e+00
    1.461655e+00
    1.441487e+00
    2.586668e-01
    1.100046e-01
    7.095888e-01
    7.849355e-01
    1.578354e+00
    1.403573e+00
    5.586318e-01
    5.876922e-01
    6.468081e-01
    5.129325e-01
    1.472235e+00
    1.363592e+00
    9.503779e-01
    1.136916e+00
    7.417186e-01
    9.773877e-01
    6.803265e-01
    7.896761e-01
    5.898133e-02
    1.161897e-01
    1.389629e+00
    1.375692e+00
    1.738052e-01
    1.628400e-01
    1.515121e-01
    2.131484e-01
    5.153892e-01
    3.042824e-01
    5.619032e-02
    1.479272e-01
    4.105377e-01
    5.100773e-01
    2.285249e+00
    2.619867e+00
    4.046656e-01
    4.925136e-01
    5.856578e-01
    8.153754e-01
    8.410217e-01
    1.001519e+00
    1.273536e+00
    1.329804e+00
    6.401668e-01
    5.487183e-01
    7.279243e-01
    7.175472e-01
    4.904930e-01
    3.821453e-01
    4.033473e-01
    3.150923e-01
    4.291163e-01
    3.851370e-01
    1.959566e-01
    2.703661e-01
    5.170230e-01
    6.384581e-01
    3.210939e+00
    2.532312e+00
    1.152289e+00
    9.620906e-01
    2.824591e+00
    2.120345e+00
    3.119801e-01
    1.171681e-01
    3.824341e-01
    3.820590e-01
    1.994607e-01
    2.049038e-01
    1.205069e+00
    9.639131e-01
    3.694514e-01
    2.657638e-01
    4.117526e-01
    3.924458e-01
    9.352239e-01
    7.069277e-01
    3.312393e-01
    4.365980e-01
    3.885041e-01
    4.268389e-01
    3.460906e-01
    5.174766e-01
    3.994935e-01
    3.237349e-01
    5.404761e-01
    3.622923e-01
    3.052309e-01
    5.188544e-01
    5.358718e-01
    8.425096e-01
    7.446600e-01
    6.499836e-01
    8.807707e-01
    6.239993e-01
    3.023477e-02
    2.512173e-02
    3.595561e-02
    4.506688e-02
    2.411931e-02
    1.012163e-01
    7.258312e-01
    1.070120e-01
    2.690379e-02
    2.565423e-02
    4.415477e-02
    2.147839e-02
    2.255534e-02
    3.461389e-02
    1.800700e-02
    1.237490e-02
    4.414854e-02
    4.400757e-02
    3.016879e-02
    5.402471e-02
    1.961131e-02
    3.700831e-02
    8.488663e-02
    6.212704e-02
    3.695929e-02
    5.288014e-02
    2.116072e-02
    1.961127e-02
    8.132990e-02
    2.334704e-02
    9.832754e-02
    3.410326e-01
    1.780100e-01
    1.243066e-02
    3.314140e-02
    3.597157e-02
    3.184042e-02
    4.267629e-02
    1.375562e-01
    1.404116e-01
    4.569989e-02
    3.031764e-02
    3.791978e-02
    7.237618e-02

