# vtk DataFile Version 4.0
output of FEM program
ASCII

DATASET UNSTRUCTURED_GRID
POINTS 146 float
0 28.75 0
26.25 28.75 0
0 5 0
4.75528 1.54508 0
4.04508 2.93893 0
2.93893 4.04508 0
1.54508 4.75528 0
5 0 0
26.25 0 0
3.75 28.75 0
7.5 28.75 0
11.25 28.75 0
15 28.75 0
18.75 28.75 0
22.5 28.75 0
0 5.55664 0
0 6.48438 0
0 8.95833 0
0 12.9167 0
0 16.875 0
0 20.8333 0
0 24.7917 0
4.98459 0.392295 0
4.93844 0.782172 0
4.86185 1.16723 0
4.6194 1.91342 0
4.45503 2.26995 0
4.2632 2.61249 0
3.80203 3.24724 0
3.53553 3.53553 0
3.24724 3.80203 0
2.61249 4.2632 0
2.26995 4.45503 0
1.91342 4.6194 0
1.16723 4.86185 0
0.782172 4.93844 0
0.392295 4.98459 0
22 0 0
17.75 0 0
13.5 0 0
9.25 0 0
6.59375 0 0
5.59766 0 0
26.25 24.6429 0
26.25 20.5357 0
26.25 16.4286 0
26.25 12.3214 0
26.25 8.21429 0
26.25 4.10714 0
3.96266 3.62174 0
3.62211 3.95181 0
2.54319 4.62652 0
5.38897 0.660801 0
0.598385 5.56923 0
1.79769 5.03114 0
4.72931 2.62032 0
4.87299 2.25018 0
1.22102 5.35401 0
4.2875 3.27024 0
6.03326 0.845714 0
5.32895 1.27118 0
4.93737 3.17472 0
3.73969 4.45579 0
4.50142 3.74805 0
4.06305 4.04164 0
5.17426 1.91612 0
1.77723 5.61447 0
3.16999 4.9373 0
2.44896 5.36608 0
4.4816 4.44987 0
3.90681 5.10522 0
5.29725 2.5211 0
5.23184 3.9683 0
2.21847 6.21432 0
1.21283 6.09718 0
7.11116 1.15894 0
6.0658 1.98006 0
4.63612 5.13574 0
3.19705 5.76755 0
5.19319 4.72306 0
5.89558 3.19203 0
5.28394 5.54762 0
3.24186 7.13232 0
4.20748 5.91253 0
1.4777 7.36875 0
6.21129 4.58429 0
4.95024 6.87487 0
7.52651 2.97699 0
2.21715 9.39154 0
6.33112 6.25888 0
7.86419 5.49345 0
4.42452 8.69317 0
6.09233 7.89753 0
7.43792 7.1975 0
10.1963 4.40272 0
7.49238 8.8698 0
9.34835 7.49271 0
9.20092 10.2186 0
6.94375 11.0558 0
11.4771 9.35366 0
4.13281 11.4711 0
8.71542 12.8138 0
5.81716 9.59748 0
11.6337 6.9577 0
6.21306 13.7744 0
11.0804 11.9817 0
21.0674 25.2546 0
5.41174 24.6316 0
16.9877 25.4101 0
13.1996 25.5013 0
9.53304 25.3653 0
2.85653 21.8921 0
3.22765 15.1139 0
2.99272 18.698 0
22.9342 22.1562 0
22.0976 18.519 0
22.7828 10.1212 0
22.6059 5.73801 0
22.6532 14.2109 0
12.3209 2.54756 0
18.8951 3.88431 0
15.3292 3.02491 0
13.5762 11.1514 0
10.5858 14.7247 0
13.7693 8.19541 0
8.22636 15.3485 0
18.9986 21.7596 0
19.3944 8.04092 0
15.1042 22.3822 0
11.5629 22.2377 0
5.8751 20.4881 0
19.3527 11.9829 0
19.0691 15.7349 0
6.02362 16.9824 0
13.2438 5.2592 0
16.3473 9.92303 0
9.65744 18.4613 0
12.8145 13.5602 0
16.1632 6.38796 0
13.6394 19.4142 0
18.525 18.6429 0
15.7512 13.6921 0
8.40804 22.2368 0
13.0825 16.1904 0
16.08 17.2643 0
16.4695 19.8926 0

CELLS 241 964
3 54 6 33 
3 68 51 67 
3 69 64 63 
3 71 61 55 
3 106 14 13 
3 50 30 29 
3 21 9 0 
3 107 9 21 
3 113 19 112 
3 64 50 49 
3 63 49 58 
3 144 143 141 
3 15 2 36 
3 53 15 36 
3 74 57 66 
3 102 100 91 
3 136 130 133 
3 111 21 20 
3 22 7 42 
3 52 22 42 
3 59 52 42 
3 65 3 60 
3 56 55 26 
3 56 26 25 
3 49 29 28 
3 50 29 49 
3 51 32 31 
3 51 33 32 
3 66 57 54 
3 57 35 34 
3 53 36 35 
3 48 37 8 
3 117 48 47 
3 138 134 121 
3 80 71 76 
3 75 41 40 
3 59 42 41 
3 43 1 14 
3 106 43 14 
3 108 106 13 
3 140 132 115 
3 124 122 99 
3 117 47 116 
3 58 28 4 
3 86 82 83 
3 83 77 81 
3 5 30 50 
3 68 54 51 
3 67 31 5 
3 60 23 52 
3 52 23 22 
3 54 57 6 
3 53 16 15 
3 74 53 57 
3 54 33 51 
3 55 27 26 
3 71 55 56 
3 65 25 3 
3 71 56 65 
3 61 58 55 
3 58 4 27 
3 57 53 35 
3 6 57 34 
3 62 5 50 
3 67 5 62 
3 55 58 27 
3 58 49 28 
3 76 60 59 
3 60 52 59 
3 60 3 24 
3 60 24 23 
3 79 77 69 
3 63 58 61 
3 77 70 69 
3 83 70 77 
3 80 61 71 
3 72 63 61 
3 64 62 50 
3 64 49 63 
3 65 56 25 
3 76 65 60 
3 31 67 51 
3 84 74 73 
3 70 62 69 
3 78 67 70 
3 73 66 68 
3 68 66 54 
3 101 98 97 
3 69 62 64 
3 88 84 82 
3 70 67 62 
3 75 59 41 
3 85 72 80 
3 85 79 72 
3 72 69 63 
3 84 16 74 
3 78 68 67 
3 74 16 53 
3 74 66 73 
3 87 76 75 
3 119 40 39 
3 76 71 65 
3 76 59 75 
3 79 69 72 
3 89 81 85 
3 82 73 78 
3 78 73 68 
3 80 72 61 
3 89 86 81 
3 87 85 80 
3 85 81 79 
3 92 91 86 
3 81 77 79 
3 88 17 84 
3 83 82 78 
3 83 78 70 
3 86 83 81 
3 84 17 16 
3 84 73 82 
3 87 80 76 
3 90 89 85 
3 92 86 89 
3 91 88 82 
3 87 75 40 
3 103 99 96 
3 88 18 17 
3 91 82 86 
3 90 85 87 
3 96 95 93 
3 94 87 40 
3 93 92 89 
3 104 100 98 
3 102 98 100 
3 93 89 90 
3 102 92 95 
3 96 90 94 
3 99 97 96 
3 94 90 87 
3 135 127 131 
3 125 101 123 
3 95 92 93 
3 105 101 97 
3 96 93 90 
3 109 108 12 
3 97 95 96 
3 112 100 104 
3 98 95 97 
3 103 96 94 
3 118 45 115 
3 100 18 88 
3 100 88 91 
3 105 97 99 
3 110 109 11 
3 102 91 92 
3 102 95 98 
3 134 94 119 
3 121 38 120 
3 133 104 125 
3 104 98 101 
3 141 135 131 
3 115 44 114 
3 114 43 106 
3 108 13 12 
3 107 10 9 
3 111 107 21 
3 109 12 11 
3 128 126 108 
3 110 11 10 
3 143 136 123 
3 110 10 107 
3 130 107 111 
3 113 20 19 
3 142 130 136 
3 112 19 18 
3 112 18 100 
3 139 129 136 
3 113 111 20 
3 126 115 114 
3 114 44 43 
3 132 131 118 
3 115 45 44 
3 116 47 46 
3 118 116 46 
3 120 37 117 
3 117 37 48 
3 118 46 45 
3 141 137 122 
3 119 94 40 
3 121 39 38 
3 127 120 117 
3 120 38 37 
3 138 121 120 
3 121 119 39 
3 122 105 99 
3 124 99 103 
3 123 101 105 
3 137 105 122 
3 134 124 103 
3 138 120 127 
3 136 133 125 
3 125 104 101 
3 126 114 106 
3 126 106 108 
3 127 117 116 
3 131 127 116 
3 128 108 109 
3 129 128 109 
3 129 109 110 
3 142 107 130 
3 130 111 113 
3 133 130 113 
3 131 116 118 
3 132 118 115 
3 140 115 126 
3 145 140 126 
3 133 113 112 
3 133 112 104 
3 134 103 94 
3 134 119 121 
3 135 122 124 
3 138 135 124 
3 136 125 123 
3 142 136 129 
3 137 123 105 
3 141 122 135 
3 138 127 135 
3 138 124 134 
3 143 139 136 
3 139 128 129 
3 145 126 128 
3 145 144 140 
3 141 131 132 
3 144 141 132 
3 142 129 110 
3 142 110 107 
3 143 123 137 
3 143 137 141 
3 144 132 140 
3 144 139 143 
3 145 128 139 
3 145 139 144 

CELL_TYPES 241
5
5
5
5
5
5
5
5
5
5
5
5
5
5
5
5
5
5
5
5
5
5
5
5
5
5
5
5
5
5
5
5
5
5
5
5
5
5
5
5
5
5
5
5
5
5
5
5
5
5
5
5
5
5
5
5
5
5
5
5
5
5
5
5
5
5
5
5
5
5
5
5
5
5
5
5
5
5
5
5
5
5
5
5
5
5
5
5
5
5
5
5
5
5
5
5
5
5
5
5
5
5
5
5
5
5
5
5
5
5
5
5
5
5
5
5
5
5
5
5
5
5
5
5
5
5
5
5
5
5
5
5
5
5
5
5
5
5
5
5
5
5
5
5
5
5
5
5
5
5
5
5
5
5
5
5
5
5
5
5
5
5
5
5
5
5
5
5
5
5
5
5
5
5
5
5
5
5
5
5
5
5
5
5
5
5
5
5
5
5
5
5
5
5
5
5
5
5
5
5
5
5
5
5
5
5
5
5
5
5
5
5
5
5
5
5
5
5
5
5
5
5
5
5
5
5
5
5
5
5
5
5
5
5
5
5
5
5
5
5
5

POINT_DATA 146
VECTORS displacement float
0 0.0166274 0
-0.00289871 0.0141222 0
0 0.00788257 0
-0.00272765 0.00241091 0
-0.00232118 0.00464967 0
-0.00164359 0.00640208 0
-0.000863168 0.0075298 0
-0.00279863 0 0
-0.0054026 0 0
-0.000211021 0.0165342 0
-0.000475905 0.0162575 0
-0.000826221 0.0158519 0
-0.00127029 0.0154002 0
-0.00178558 0.01495 0
-0.00233779 0.0145251 0
0 0.00796951 0
0 0.00806906 0
0 0.00843144 0
0 0.00965456 0
0 0.0111895 0
0 0.0129295 0
0 0.0147959 0
-0.00282646 0.00059932 0
-0.00280564 0.00121481 0
-0.00274582 0.00182424 0
-0.00263658 0.00298827 0
-0.00255374 0.00356398 0
-0.00246787 0.00410578 0
-0.00219113 0.0051444 0
-0.00202422 0.00561623 0
-0.0018489 0.00602084 0
-0.00146618 0.00673485 0
-0.00128781 0.00703735 0
-0.00108778 0.0073095 0
-0.00065266 0.00768246 0
-0.000424376 0.00781956 0
-0.000214395 0.00788614 0
-0.0048541 0 0
-0.00426543 0 0
-0.00377068 0 0
-0.00349873 0 0
-0.00320412 0 0
-0.00304408 0 0
-0.00333233 0.0120662 0
-0.00374161 0.0100004 0
-0.00416144 0.00791133 0
-0.00459069 0.0058337 0
-0.00500272 0.00381467 0
-0.00530326 0.0018868 0
-0.0019412 0.00506913 0
-0.00172664 0.00562326 0
-0.00119015 0.00684411 0
-0.00294414 0.000854909 0
-0.000188071 0.00792015 0
-0.000766605 0.00741946 0
-0.00247215 0.00349837 0
-0.00259474 0.00302722 0
-0.000437985 0.00773166 0
-0.00215228 0.00448144 0
-0.00307909 0.000861249 0
-0.00289642 0.00160684 0
-0.0022589 0.00368933 0
-0.00141996 0.00565452 0
-0.00191168 0.00451415 0
-0.00169518 0.00514423 0
-0.00272891 0.00239718 0
-0.000489269 0.00749754 0
-0.00106343 0.00635768 0
-0.000727939 0.00703254 0
-0.00156283 0.00495571 0
-0.00113844 0.005798 0
-0.0025761 0.002864 0
-0.00195067 0.00401463 0
-0.000411532 0.00736616 0
-0.000243782 0.00781664 0
-0.0031576 0.000918486 0
-0.00286828 0.00189624 0
-0.00131649 0.00523634 0
-0.000740278 0.00661319 0
-0.00163253 0.00456487 0
-0.00242081 0.00297779 0
-0.00136378 0.00505176 0
-0.000462786 0.00709567 0
-0.000943873 0.00597138 0
-0.000161399 0.00792828 0
-0.00196418 0.00385485 0
-0.000942208 0.00604149 0
-0.00281786 0.00215563 0
-0.000208802 0.00822244 0
-0.00148356 0.00496723 0
-0.00212369 0.00386422 0
-0.000609612 0.00722625 0
-0.00110441 0.00610074 0
-0.00159998 0.00515951 0
-0.00291026 0.00270245 0
-0.00136008 0.00619093 0
-0.00205668 0.00484626 0
-0.00163813 0.0065565 0
-0.00103946 0.00759341 0
-0.00229143 0.00560426 0
-0.000466541 0.00856582 0
-0.0013239 0.00813794 0
-0.000865291 0.00715756 0
-0.0026898 0.00412152 0
-0.000795668 0.00915696 0
-0.00190207 0.00721837 0
-0.0024964 0.0129334 0
-0.000513603 0.0144658 0
-0.00188989 0.0134938 0
-0.00136595 0.0140159 0
-0.000924128 0.0143961 0
-0.0003012 0.0133223 0
-0.000370736 0.0102224 0
-0.00033616 0.0118414 0
-0.00307928 0.0111659 0
-0.00330378 0.00940657 0
-0.00429081 0.00502445 0
-0.00468221 0.00282184 0
-0.00383321 0.00713378 0
-0.00349704 0.00143087 0
-0.00426919 0.00199699 0
-0.00383842 0.00162126 0
-0.00253328 0.00636931 0
-0.00159101 0.00883539 0
-0.0029416 0.00463218 0
-0.00112434 0.00957145 0
-0.00251911 0.0114085 0
-0.00396639 0.00416157 0
-0.00188176 0.0122024 0
-0.00137811 0.0125972 0
-0.00067575 0.0124214 0
-0.00352814 0.00625922 0
-0.00308719 0.00827913 0
-0.000745868 0.0107123 0
-0.00327058 0.00295886 0
-0.00321997 0.00539221 0
-0.00126334 0.0109447 0
-0.00212932 0.00784227 0
-0.00361228 0.00343667 0
-0.00185983 0.0108721 0
-0.00271894 0.00985901 0
-0.00269596 0.00753924 0
-0.000947983 0.0129842 0
-0.00197839 0.00925319 0
-0.00242916 0.00942525 0
-0.00228066 0.0107536 0

CELL_DATA 241
SCALARS mises_stress float
LOOKUP_TABLE default
0.737795
0.461288
1.39549
1.59149
1.00228
0.801537
0.9035
0.949423
0.890735
1.18762
1.43032
1.09264
1.0899
0.639479
0.536247
1.01982
0.978195
0.931027
3.03809
2.45699
2.35967
2.18588
1.99074
2.46672
1.22519
1.03519
0.353867
0.371036
0.63202
1.00855
1.01318
0.91566
0.938097
1.10374
1.6232
1.55283
1.993
1.00093
0.999059
0.994895
1.04763
1.1825
1.01182
1.58976
1.14568
1.30704
0.476614
0.574498
0.489462
2.41453
3.05152
0.49887
0.644764
0.633258
0.345587
2.18189
1.98003
2.57672
2.14027
1.7417
1.89189
0.600226
0.862891
0.890214
0.672234
1.64098
1.255
1.85877
2.38202
2.85012
2.96919
1.30299
1.3756
1.32347
1.2416
1.73464
1.5982
0.961185
1.13085
2.11072
2.17154
0.428127
0.689573
1.12903
0.937576
0.743279
0.470523
1.18494
1.16305
0.839404
1.05621
1.73036
1.60627
1.4511
1.31721
0.405164
0.88774
0.363459
0.505431
1.49135
1.10049
1.82247
1.79462
1.49946
1.51141
0.98486
0.709794
1.42576
1.3382
1.43693
1.39914
1.18187
1.47107
0.441002
1.05096
1.1333
1.36504
0.422263
0.648707
1.65553
1.4146
1.37825
0.835167
1.36382
1.24663
0.652059
1.21209
1.49292
1.29945
1.26313
1.33876
1.07597
1.08713
1.40069
1.22167
1.30205
1.26077
1.40847
1.07208
1.09151
1.34776
1.17958
1.42126
0.986728
1.28756
0.87001
1.20942
1.31415
1.02922
0.669775
0.988586
1.21219
0.9754
1.22867
1.21702
1.17667
1.02995
0.985643
1.0838
1.11595
1.01512
1.01041
0.993737
0.924435
0.909003
0.974988
1.00678
0.953159
1.07649
0.96353
0.959755
0.873878
0.99904
0.783762
0.860875
1.02744
0.913477
1.01925
1.00604
1.06448
1.0184
0.984796
1.02613
0.982925
0.991601
1.01354
1.15464
1.2397
1.05775
1.05317
1.02314
1.09007
1.08567
1.20385
1.23458
1.1475
1.15532
1.1911
1.05353
1.02528
1.09293
1.00632
1.01011
1.01223
1.06551
1.00484
1.00233
0.984671
0.961007
0.919341
0.965889
1.03173
1.03398
1.03068
1.03441
0.902607
0.968143
1.2088
1.13948
1.17192
1.12629
1.07217
0.999831
1.14461
1.12227
1.11726
1.16585
1.06276
1.02726
1.0309
1.04998
1.07188
1.08182
0.989784
0.966213
1.12725
1.11648
1.05051
1.0608
1.02919
1.05379

