# vtk DataFile Version 4.0
output of FEM program
ASCII

DATASET UNSTRUCTURED_GRID
POINTS 4 float
0 0 0
1 0 0
0 1 0
1 1 0

CELLS 2 8
3 0 1 2 
3 1 3 2 

CELL_TYPES 2
5
5

POINT_DATA 4
VECTORS displacement float
0 0 0
-0.0003 0 0
-1.35525e-19 0.001 0
-0.0003 0.001 0

CELL_DATA 2
SCALARS mises_stress float
LOOKUP_TABLE default
2
2

